Generated by pymatgen.io.lammps.data.LammpsData

7399  atoms

   1  atom types

0.000000 48.530766  xlo xhi
0.000000 39.218759  ylo yhi
0.000000 44.030260  zlo zhi
0.000000 0.000000 0.000000  xy xz yz

Masses

1  55.845

Atoms

1     1  0.000000  0.000000  0.000000
2     1  0.000000  0.000000  4.002751
3     1  0.000000  0.000000  8.005502
4     1  0.000000  0.000000 12.008253
5     1  0.000000  0.000000 16.011004
6     1  0.000000  0.000000 20.013755
7     1  0.000000  0.000000 24.016506
8     1  0.000000  0.000000 28.019257
9     1  0.000000  0.000000 32.022007
10    1  0.000000  0.000000 36.024758
11    1  0.000000  0.000000 40.027509
12    1  0.000000  2.451172  0.000000
13    1  0.000000  2.451172  4.002751
14    1  0.000000  2.451172  8.005502
15    1  0.000000  2.451172 12.008253
16    1  0.000000  2.451172 16.011004
17    1  0.000000  2.451172 20.013755
18    1  0.000000  2.451172 24.016506
19    1  0.000000  2.451172 28.019257
20    1  0.000000  2.451172 32.022007
21    1  0.000000  2.451172 36.024758
22    1  0.000000  2.451172 40.027509
23    1  0.000000  4.902345  0.000000
24    1  0.000000  4.902345  4.002751
25    1  0.000000  4.902345  8.005502
26    1  0.000000  4.902345 12.008253
27    1  0.000000  4.902345 16.011004
28    1  0.000000  4.902345 20.013755
29    1  0.000000  4.902345 24.016506
30    1  0.000000  4.902345 28.019257
31    1  0.000000  4.902345 32.022007
32    1  0.000000  4.902345 36.024758
33    1  0.000000  4.902345 40.027509
34    1  0.000000  7.353517  0.000000
35    1  0.000000  7.353517  4.002751
36    1  0.000000  7.353517  8.005502
37    1  0.000000  7.353517 12.008253
38    1  0.000000  7.353517 16.011004
39    1  0.000000  7.353517 20.013755
40    1  0.000000  7.353517 24.016506
41    1  0.000000  7.353517 28.019257
42    1  0.000000  7.353517 32.022007
43    1  0.000000  7.353517 36.024758
44    1  0.000000  7.353517 40.027509
45    1  0.000000  9.804690  0.000000
46    1  0.000000  9.804690  4.002751
47    1  0.000000  9.804690  8.005502
48    1  0.000000  9.804690 12.008253
49    1  0.000000  9.804690 16.011004
50    1  0.000000  9.804690 20.013755
51    1  0.000000  9.804690 24.016506
52    1  0.000000  9.804690 28.019257
53    1  0.000000  9.804690 32.022007
54    1  0.000000  9.804690 36.024758
55    1  0.000000  9.804690 40.027509
56    1  0.000000 12.255862  0.000000
57    1  0.000000 12.255862  4.002751
58    1  0.000000 12.255862  8.005502
59    1  0.000000 12.255862 12.008253
60    1  0.000000 12.255862 16.011004
61    1  0.000000 12.255862 20.013755
62    1  0.000000 12.255862 24.016506
63    1  0.000000 12.255862 28.019257
64    1  0.000000 12.255862 32.022007
65    1  0.000000 12.255862 36.024758
66    1  0.000000 12.255862 40.027509
67    1  0.000000 14.707035  0.000000
68    1  0.000000 14.707035  4.002751
69    1  0.000000 14.707035  8.005502
70    1  0.000000 14.707035 12.008253
71    1  0.000000 14.707035 16.011004
72    1  0.000000 14.707035 20.013755
73    1  0.000000 14.707035 24.016506
74    1  0.000000 14.707035 28.019257
75    1  0.000000 14.707035 32.022007
76    1  0.000000 14.707035 36.024758
77    1  0.000000 14.707035 40.027509
78    1  0.000000 17.158207  0.000000
79    1  0.000000 17.158207  4.002751
80    1  0.000000 17.158207  8.005502
81    1  0.000000 17.158207 12.008253
82    1  0.000000 17.158207 16.011004
83    1  0.000000 17.158207 20.013755
84    1  0.000000 17.158207 24.016506
85    1  0.000000 17.158207 28.019257
86    1  0.000000 17.158207 32.022007
87    1  0.000000 17.158207 36.024758
88    1  0.000000 17.158207 40.027509
89    1  0.000000 19.609379  0.000000
90    1  0.000000 19.609379  4.002751
91    1  0.000000 19.609379  8.005502
92    1  0.000000 19.609379 12.008253
93    1  0.000000 19.609379 16.011004
94    1  0.000000 19.609379 20.013755
95    1  0.000000 19.609379 24.016506
96    1  0.000000 19.609379 28.019257
97    1  0.000000 19.609379 32.022007
98    1  0.000000 19.609379 36.024758
99    1  0.000000 19.609379 40.027509
100   1  0.000000 22.060552  0.000000
101   1  0.000000 22.060552  4.002751
102   1  0.000000 22.060552  8.005502
103   1  0.000000 22.060552 12.008253
104   1  0.000000 22.060552 16.011004
105   1  0.000000 22.060552 20.013755
106   1  0.000000 22.060552 24.016506
107   1  0.000000 22.060552 28.019257
108   1  0.000000 22.060552 32.022007
109   1  0.000000 22.060552 36.024758
110   1  0.000000 22.060552 40.027509
111   1  0.000000 24.511724  0.000000
112   1  0.000000 24.511724  4.002751
113   1  0.000000 24.511724  8.005502
114   1  0.000000 24.511724 12.008253
115   1  0.000000 24.511724 16.011004
116   1  0.000000 24.511724 20.013755
117   1  0.000000 24.511724 24.016506
118   1  0.000000 24.511724 28.019257
119   1  0.000000 24.511724 32.022007
120   1  0.000000 24.511724 36.024758
121   1  0.000000 24.511724 40.027509
122   1  0.000000 26.962897  0.000000
123   1  0.000000 26.962897  4.002751
124   1  0.000000 26.962897  8.005502
125   1  0.000000 26.962897 12.008253
126   1  0.000000 26.962897 16.011004
127   1  0.000000 26.962897 20.013755
128   1  0.000000 26.962897 24.016506
129   1  0.000000 26.962897 28.019257
130   1  0.000000 26.962897 32.022007
131   1  0.000000 26.962897 36.024758
132   1  0.000000 26.962897 40.027509
133   1  0.000000 29.414069  0.000000
134   1  0.000000 29.414069  4.002751
135   1  0.000000 29.414069  8.005502
136   1  0.000000 29.414069 12.008253
137   1  0.000000 29.414069 16.011004
138   1  0.000000 29.414069 20.013755
139   1  0.000000 29.414069 24.016506
140   1  0.000000 29.414069 28.019257
141   1  0.000000 29.414069 32.022007
142   1  0.000000 29.414069 36.024758
143   1  0.000000 29.414069 40.027509
144   1  0.000000 31.865242  0.000000
145   1  0.000000 31.865242  4.002751
146   1  0.000000 31.865242  8.005502
147   1  0.000000 31.865242 12.008253
148   1  0.000000 31.865242 16.011004
149   1  0.000000 31.865242 20.013755
150   1  0.000000 31.865242 24.016506
151   1  0.000000 31.865242 28.019257
152   1  0.000000 31.865242 32.022007
153   1  0.000000 31.865242 36.024758
154   1  0.000000 31.865242 40.027509
155   1  0.000000 34.316414  0.000000
156   1  0.000000 34.316414  4.002751
157   1  0.000000 34.316414  8.005502
158   1  0.000000 34.316414 12.008253
159   1  0.000000 34.316414 16.011004
160   1  0.000000 34.316414 20.013755
161   1  0.000000 34.316414 24.016506
162   1  0.000000 34.316414 28.019257
163   1  0.000000 34.316414 32.022007
164   1  0.000000 34.316414 36.024758
165   1  0.000000 34.316414 40.027509
166   1  0.000000 36.767587  0.000000
167   1  0.000000 36.767587  4.002751
168   1  0.000000 36.767587  8.005502
169   1  0.000000 36.767587 12.008253
170   1  0.000000 36.767587 16.011004
171   1  0.000000 36.767587 20.013755
172   1  0.000000 36.767587 24.016506
173   1  0.000000 36.767587 28.019257
174   1  0.000000 36.767587 32.022007
175   1  0.000000 36.767587 36.024758
176   1  0.000000 36.767587 40.027509
177   1  6.932967  0.000000  0.000000
178   1  6.932967  0.000000  4.002751
179   1  6.932967  0.000000  8.005502
180   1  6.932967  0.000000 12.008253
181   1  6.932967  0.000000 16.011004
182   1  6.932967  0.000000 20.013755
183   1  6.932967  0.000000 24.016506
184   1  6.932967  0.000000 28.019257
185   1  6.932967  0.000000 32.022007
186   1  6.932967  0.000000 36.024758
187   1  6.932967  0.000000 40.027509
188   1  6.932967  2.451172  0.000000
189   1  6.932967  2.451172  4.002751
190   1  6.932967  2.451172  8.005502
191   1  6.932967  2.451172 12.008253
192   1  6.932967  2.451172 16.011004
193   1  6.932967  2.451172 20.013755
194   1  6.932967  2.451172 24.016506
195   1  6.932967  2.451172 28.019257
196   1  6.932967  2.451172 32.022007
197   1  6.932967  2.451172 36.024758
198   1  6.932967  2.451172 40.027509
199   1  6.932967  4.902345  0.000000
200   1  6.932967  4.902345  4.002751
201   1  6.932967  4.902345  8.005502
202   1  6.932967  4.902345 12.008253
203   1  6.932967  4.902345 16.011004
204   1  6.932967  4.902345 20.013755
205   1  6.932967  4.902345 24.016506
206   1  6.932967  4.902345 28.019257
207   1  6.932967  4.902345 32.022007
208   1  6.932967  4.902345 36.024758
209   1  6.932967  4.902345 40.027509
210   1  6.932967  7.353517  0.000000
211   1  6.932967  7.353517  4.002751
212   1  6.932967  7.353517  8.005502
213   1  6.932967  7.353517 12.008253
214   1  6.932967  7.353517 16.011004
215   1  6.932967  7.353517 20.013755
216   1  6.932967  7.353517 24.016506
217   1  6.932967  7.353517 28.019257
218   1  6.932967  7.353517 32.022007
219   1  6.932967  7.353517 36.024758
220   1  6.932967  7.353517 40.027509
221   1  6.932967  9.804690  0.000000
222   1  6.932967  9.804690  4.002751
223   1  6.932967  9.804690  8.005502
224   1  6.932967  9.804690 12.008253
225   1  6.932967  9.804690 16.011004
226   1  6.932967  9.804690 20.013755
227   1  6.932967  9.804690 24.016506
228   1  6.932967  9.804690 28.019257
229   1  6.932967  9.804690 32.022007
230   1  6.932967  9.804690 36.024758
231   1  6.932967  9.804690 40.027509
232   1  6.932967 12.255862  0.000000
233   1  6.932967 12.255862  4.002751
234   1  6.932967 12.255862  8.005502
235   1  6.932967 12.255862 12.008253
236   1  6.932967 12.255862 16.011004
237   1  6.932967 12.255862 20.013755
238   1  6.932967 12.255862 24.016506
239   1  6.932967 12.255862 28.019257
240   1  6.932967 12.255862 32.022007
241   1  6.932967 12.255862 36.024758
242   1  6.932967 12.255862 40.027509
243   1  6.932967 14.707035  0.000000
244   1  6.932967 14.707035  4.002751
245   1  6.932967 14.707035  8.005502
246   1  6.932967 14.707035 12.008253
247   1  6.932967 14.707035 16.011004
248   1  6.932967 14.707035 20.013755
249   1  6.932967 14.707035 24.016506
250   1  6.932967 14.707035 28.019257
251   1  6.932967 14.707035 32.022007
252   1  6.932967 14.707035 36.024758
253   1  6.932967 14.707035 40.027509
254   1  6.932967 17.158207  0.000000
255   1  6.932967 17.158207  4.002751
256   1  6.932967 17.158207  8.005502
257   1  6.932967 17.158207 12.008253
258   1  6.932967 17.158207 16.011004
259   1  6.932967 17.158207 20.013755
260   1  6.932967 17.158207 24.016506
261   1  6.932967 17.158207 28.019257
262   1  6.932967 17.158207 32.022007
263   1  6.932967 17.158207 36.024758
264   1  6.932967 17.158207 40.027509
265   1  6.932967 19.609379  0.000000
266   1  6.932967 19.609379  4.002751
267   1  6.932967 19.609379  8.005502
268   1  6.932967 19.609379 12.008253
269   1  6.932967 19.609379 16.011004
270   1  6.932967 19.609379 20.013755
271   1  6.932967 19.609379 24.016506
272   1  6.932967 19.609379 28.019257
273   1  6.932967 19.609379 32.022007
274   1  6.932967 19.609379 36.024758
275   1  6.932967 19.609379 40.027509
276   1  6.932967 22.060552  0.000000
277   1  6.932967 22.060552  4.002751
278   1  6.932967 22.060552  8.005502
279   1  6.932967 22.060552 12.008253
280   1  6.932967 22.060552 16.011004
281   1  6.932967 22.060552 20.013755
282   1  6.932967 22.060552 24.016506
283   1  6.932967 22.060552 28.019257
284   1  6.932967 22.060552 32.022007
285   1  6.932967 22.060552 36.024758
286   1  6.932967 22.060552 40.027509
287   1  6.932967 24.511724  0.000000
288   1  6.932967 24.511724  4.002751
289   1  6.932967 24.511724  8.005502
290   1  6.932967 24.511724 12.008253
291   1  6.932967 24.511724 16.011004
292   1  6.932967 24.511724 20.013755
293   1  6.932967 24.511724 24.016506
294   1  6.932967 24.511724 28.019257
295   1  6.932967 24.511724 32.022007
296   1  6.932967 24.511724 36.024758
297   1  6.932967 24.511724 40.027509
298   1  6.932967 26.962897  0.000000
299   1  6.932967 26.962897  4.002751
300   1  6.932967 26.962897  8.005502
301   1  6.932967 26.962897 12.008253
302   1  6.932967 26.962897 16.011004
303   1  6.932967 26.962897 20.013755
304   1  6.932967 26.962897 24.016506
305   1  6.932967 26.962897 28.019257
306   1  6.932967 26.962897 32.022007
307   1  6.932967 26.962897 36.024758
308   1  6.932967 26.962897 40.027509
309   1  6.932967 29.414069  0.000000
310   1  6.932967 29.414069  4.002751
311   1  6.932967 29.414069  8.005502
312   1  6.932967 29.414069 12.008253
313   1  6.932967 29.414069 16.011004
314   1  6.932967 29.414069 20.013755
315   1  6.932967 29.414069 24.016506
316   1  6.932967 29.414069 28.019257
317   1  6.932967 29.414069 32.022007
318   1  6.932967 29.414069 36.024758
319   1  6.932967 29.414069 40.027509
320   1  6.932967 31.865242  0.000000
321   1  6.932967 31.865242  4.002751
322   1  6.932967 31.865242  8.005502
323   1  6.932967 31.865242 12.008253
324   1  6.932967 31.865242 16.011004
325   1  6.932967 31.865242 20.013755
326   1  6.932967 31.865242 24.016506
327   1  6.932967 31.865242 28.019257
328   1  6.932967 31.865242 32.022007
329   1  6.932967 31.865242 36.024758
330   1  6.932967 31.865242 40.027509
331   1  6.932967 34.316414  0.000000
332   1  6.932967 34.316414  4.002751
333   1  6.932967 34.316414  8.005502
334   1  6.932967 34.316414 12.008253
335   1  6.932967 34.316414 16.011004
336   1  6.932967 34.316414 20.013755
337   1  6.932967 34.316414 24.016506
338   1  6.932967 34.316414 28.019257
339   1  6.932967 34.316414 32.022007
340   1  6.932967 34.316414 36.024758
341   1  6.932967 34.316414 40.027509
342   1  6.932967 36.767587  0.000000
343   1  6.932967 36.767587  4.002751
344   1  6.932967 36.767587  8.005502
345   1  6.932967 36.767587 12.008253
346   1  6.932967 36.767587 16.011004
347   1  6.932967 36.767587 20.013755
348   1  6.932967 36.767587 24.016506
349   1  6.932967 36.767587 28.019257
350   1  6.932967 36.767587 32.022007
351   1  6.932967 36.767587 36.024758
352   1  6.932967 36.767587 40.027509
353   1 13.865933  0.000000  0.000000
354   1 13.865933  0.000000  4.002751
355   1 13.865933  0.000000  8.005502
356   1 13.865933  0.000000 12.008253
357   1 13.865933  0.000000 16.011004
358   1 13.865933  0.000000 20.013755
359   1 13.865933  0.000000 24.016506
360   1 13.865933  0.000000 28.019257
361   1 13.865933  0.000000 32.022007
362   1 13.865933  0.000000 36.024758
363   1 13.865933  0.000000 40.027509
364   1 13.865933  2.451172  0.000000
365   1 13.865933  2.451172  4.002751
366   1 13.865933  2.451172  8.005502
367   1 13.865933  2.451172 12.008253
368   1 13.865933  2.451172 16.011004
369   1 13.865933  2.451172 20.013755
370   1 13.865933  2.451172 24.016506
371   1 13.865933  2.451172 28.019257
372   1 13.865933  2.451172 32.022007
373   1 13.865933  2.451172 36.024758
374   1 13.865933  2.451172 40.027509
375   1 13.865933  4.902345  0.000000
376   1 13.865933  4.902345  4.002751
377   1 13.865933  4.902345  8.005502
378   1 13.865933  4.902345 12.008253
379   1 13.865933  4.902345 16.011004
380   1 13.865933  4.902345 20.013755
381   1 13.865933  4.902345 24.016506
382   1 13.865933  4.902345 28.019257
383   1 13.865933  4.902345 32.022007
384   1 13.865933  4.902345 36.024758
385   1 13.865933  4.902345 40.027509
386   1 13.865933  7.353517  0.000000
387   1 13.865933  7.353517  4.002751
388   1 13.865933  7.353517  8.005502
389   1 13.865933  7.353517 12.008253
390   1 13.865933  7.353517 16.011004
391   1 13.865933  7.353517 20.013755
392   1 13.865933  7.353517 24.016506
393   1 13.865933  7.353517 28.019257
394   1 13.865933  7.353517 32.022007
395   1 13.865933  7.353517 36.024758
396   1 13.865933  7.353517 40.027509
397   1 13.865933  9.804690  0.000000
398   1 13.865933  9.804690  4.002751
399   1 13.865933  9.804690  8.005502
400   1 13.865933  9.804690 12.008253
401   1 13.865933  9.804690 16.011004
402   1 13.865933  9.804690 20.013755
403   1 13.865933  9.804690 24.016506
404   1 13.865933  9.804690 28.019257
405   1 13.865933  9.804690 32.022007
406   1 13.865933  9.804690 36.024758
407   1 13.865933  9.804690 40.027509
408   1 13.865933 12.255862  0.000000
409   1 13.865933 12.255862  4.002751
410   1 13.865933 12.255862  8.005502
411   1 13.865933 12.255862 12.008253
412   1 13.865933 12.255862 16.011004
413   1 13.865933 12.255862 20.013755
414   1 13.865933 12.255862 24.016506
415   1 13.865933 12.255862 28.019257
416   1 13.865933 12.255862 32.022007
417   1 13.865933 12.255862 36.024758
418   1 13.865933 12.255862 40.027509
419   1 13.865933 14.707035  0.000000
420   1 13.865933 14.707035  4.002751
421   1 13.865933 14.707035  8.005502
422   1 13.865933 14.707035 12.008253
423   1 13.865933 14.707035 16.011004
424   1 13.865933 14.707035 20.013755
425   1 13.865933 14.707035 24.016506
426   1 13.865933 14.707035 28.019257
427   1 13.865933 14.707035 32.022007
428   1 13.865933 14.707035 36.024758
429   1 13.865933 14.707035 40.027509
430   1 13.865933 17.158207  0.000000
431   1 13.865933 17.158207  4.002751
432   1 13.865933 17.158207  8.005502
433   1 13.865933 17.158207 12.008253
434   1 13.865933 17.158207 16.011004
435   1 13.865933 17.158207 20.013755
436   1 13.865933 17.158207 24.016506
437   1 13.865933 17.158207 28.019257
438   1 13.865933 17.158207 32.022007
439   1 13.865933 17.158207 36.024758
440   1 13.865933 17.158207 40.027509
441   1 13.865933 19.609379  0.000000
442   1 13.865933 19.609379  4.002751
443   1 13.865933 19.609379  8.005502
444   1 13.865933 19.609379 12.008253
445   1 13.865933 19.609379 16.011004
446   1 13.865933 19.609379 20.013755
447   1 13.865933 19.609379 24.016506
448   1 13.865933 19.609379 28.019257
449   1 13.865933 19.609379 32.022007
450   1 13.865933 19.609379 36.024758
451   1 13.865933 19.609379 40.027509
452   1 13.865933 22.060552  0.000000
453   1 13.865933 22.060552  4.002751
454   1 13.865933 22.060552  8.005502
455   1 13.865933 22.060552 12.008253
456   1 13.865933 22.060552 16.011004
457   1 13.865933 22.060552 20.013755
458   1 13.865933 22.060552 24.016506
459   1 13.865933 22.060552 28.019257
460   1 13.865933 22.060552 32.022007
461   1 13.865933 22.060552 36.024758
462   1 13.865933 22.060552 40.027509
463   1 13.865933 24.511724  0.000000
464   1 13.865933 24.511724  4.002751
465   1 13.865933 24.511724  8.005502
466   1 13.865933 24.511724 12.008253
467   1 13.865933 24.511724 16.011004
468   1 13.865933 24.511724 20.013755
469   1 13.865933 24.511724 24.016506
470   1 13.865933 24.511724 28.019257
471   1 13.865933 24.511724 32.022007
472   1 13.865933 24.511724 36.024758
473   1 13.865933 24.511724 40.027509
474   1 13.865933 26.962897  0.000000
475   1 13.865933 26.962897  4.002751
476   1 13.865933 26.962897  8.005502
477   1 13.865933 26.962897 12.008253
478   1 13.865933 26.962897 16.011004
479   1 13.865933 26.962897 20.013755
480   1 13.865933 26.962897 24.016506
481   1 13.865933 26.962897 28.019257
482   1 13.865933 26.962897 32.022007
483   1 13.865933 26.962897 36.024758
484   1 13.865933 26.962897 40.027509
485   1 13.865933 29.414069  0.000000
486   1 13.865933 29.414069  4.002751
487   1 13.865933 29.414069  8.005502
488   1 13.865933 29.414069 12.008253
489   1 13.865933 29.414069 16.011004
490   1 13.865933 29.414069 20.013755
491   1 13.865933 29.414069 24.016506
492   1 13.865933 29.414069 28.019257
493   1 13.865933 29.414069 32.022007
494   1 13.865933 29.414069 36.024758
495   1 13.865933 29.414069 40.027509
496   1 13.865933 31.865242  0.000000
497   1 13.865933 31.865242  4.002751
498   1 13.865933 31.865242  8.005502
499   1 13.865933 31.865242 12.008253
500   1 13.865933 31.865242 16.011004
501   1 13.865933 31.865242 20.013755
502   1 13.865933 31.865242 24.016506
503   1 13.865933 31.865242 28.019257
504   1 13.865933 31.865242 32.022007
505   1 13.865933 31.865242 36.024758
506   1 13.865933 31.865242 40.027509
507   1 13.865933 34.316414  0.000000
508   1 13.865933 34.316414  4.002751
509   1 13.865933 34.316414  8.005502
510   1 13.865933 34.316414 12.008253
511   1 13.865933 34.316414 16.011004
512   1 13.865933 34.316414 20.013755
513   1 13.865933 34.316414 24.016506
514   1 13.865933 34.316414 28.019257
515   1 13.865933 34.316414 32.022007
516   1 13.865933 34.316414 36.024758
517   1 13.865933 34.316414 40.027509
518   1 13.865933 36.767587  0.000000
519   1 13.865933 36.767587  4.002751
520   1 13.865933 36.767587  8.005502
521   1 13.865933 36.767587 12.008253
522   1 13.865933 36.767587 16.011004
523   1 13.865933 36.767587 20.013755
524   1 13.865933 36.767587 24.016506
525   1 13.865933 36.767587 28.019257
526   1 13.865933 36.767587 32.022007
527   1 13.865933 36.767587 36.024758
528   1 13.865933 36.767587 40.027509
529   1 20.798900  0.000000  0.000000
530   1 20.798900  0.000000  4.002751
531   1 20.798900  0.000000  8.005502
532   1 20.798900  0.000000 12.008253
533   1 20.798900  0.000000 16.011004
534   1 20.798900  0.000000 20.013755
535   1 20.798900  0.000000 24.016506
536   1 20.798900  0.000000 28.019257
537   1 20.798900  0.000000 32.022007
538   1 20.798900  0.000000 36.024758
539   1 20.798900  0.000000 40.027509
540   1 20.798900  2.451172  0.000000
541   1 20.798900  2.451172  4.002751
542   1 20.798900  2.451172  8.005502
543   1 20.798900  2.451172 12.008253
544   1 20.798900  2.451172 16.011004
545   1 20.798900  2.451172 20.013755
546   1 20.798900  2.451172 24.016506
547   1 20.798900  2.451172 28.019257
548   1 20.798900  2.451172 32.022007
549   1 20.798900  2.451172 36.024758
550   1 20.798900  2.451172 40.027509
551   1 20.798900  4.902345  0.000000
552   1 20.798900  4.902345  4.002751
553   1 20.798900  4.902345  8.005502
554   1 20.798900  4.902345 12.008253
555   1 20.798900  4.902345 16.011004
556   1 20.798900  4.902345 20.013755
557   1 20.798900  4.902345 24.016506
558   1 20.798900  4.902345 28.019257
559   1 20.798900  4.902345 32.022007
560   1 20.798900  4.902345 36.024758
561   1 20.798900  4.902345 40.027509
562   1 20.798900  7.353517  0.000000
563   1 20.798900  7.353517  4.002751
564   1 20.798900  7.353517  8.005502
565   1 20.798900  7.353517 12.008253
566   1 20.798900  7.353517 16.011004
567   1 20.798900  7.353517 20.013755
568   1 20.798900  7.353517 24.016506
569   1 20.798900  7.353517 28.019257
570   1 20.798900  7.353517 32.022007
571   1 20.798900  7.353517 36.024758
572   1 20.798900  7.353517 40.027509
573   1 20.798900  9.804690  0.000000
574   1 20.798900  9.804690  4.002751
575   1 20.798900  9.804690  8.005502
576   1 20.798900  9.804690 12.008253
577   1 20.798900  9.804690 16.011004
578   1 20.798900  9.804690 20.013755
579   1 20.798900  9.804690 24.016506
580   1 20.798900  9.804690 28.019257
581   1 20.798900  9.804690 32.022007
582   1 20.798900  9.804690 36.024758
583   1 20.798900  9.804690 40.027509
584   1 20.798900 12.255862  0.000000
585   1 20.798900 12.255862  4.002751
586   1 20.798900 12.255862  8.005502
587   1 20.798900 12.255862 12.008253
588   1 20.798900 12.255862 16.011004
589   1 20.798900 12.255862 20.013755
590   1 20.798900 12.255862 24.016506
591   1 20.798900 12.255862 28.019257
592   1 20.798900 12.255862 32.022007
593   1 20.798900 12.255862 36.024758
594   1 20.798900 12.255862 40.027509
595   1 20.798900 14.707035  0.000000
596   1 20.798900 14.707035  4.002751
597   1 20.798900 14.707035  8.005502
598   1 20.798900 14.707035 12.008253
599   1 20.798900 14.707035 16.011004
600   1 20.798900 14.707035 20.013755
601   1 20.798900 14.707035 24.016506
602   1 20.798900 14.707035 28.019257
603   1 20.798900 14.707035 32.022007
604   1 20.798900 14.707035 36.024758
605   1 20.798900 14.707035 40.027509
606   1 20.798900 17.158207  0.000000
607   1 20.798900 17.158207  4.002751
608   1 20.798900 17.158207  8.005502
609   1 20.798900 17.158207 12.008253
610   1 20.798900 17.158207 16.011004
611   1 20.798900 17.158207 20.013755
612   1 20.798900 17.158207 24.016506
613   1 20.798900 17.158207 28.019257
614   1 20.798900 17.158207 32.022007
615   1 20.798900 17.158207 36.024758
616   1 20.798900 17.158207 40.027509
617   1 20.798900 19.609379  0.000000
618   1 20.798900 19.609379  4.002751
619   1 20.798900 19.609379  8.005502
620   1 20.798900 19.609379 12.008253
621   1 20.798900 19.609379 16.011004
622   1 20.798900 19.609379 20.013755
623   1 20.798900 19.609379 24.016506
624   1 20.798900 19.609379 28.019257
625   1 20.798900 19.609379 32.022007
626   1 20.798900 19.609379 36.024758
627   1 20.798900 19.609379 40.027509
628   1 20.798900 22.060552  0.000000
629   1 20.798900 22.060552  4.002751
630   1 20.798900 22.060552  8.005502
631   1 20.798900 22.060552 12.008253
632   1 20.798900 22.060552 16.011004
633   1 20.798900 22.060552 20.013755
634   1 20.798900 22.060552 24.016506
635   1 20.798900 22.060552 28.019257
636   1 20.798900 22.060552 32.022007
637   1 20.798900 22.060552 36.024758
638   1 20.798900 22.060552 40.027509
639   1 20.798900 24.511724  0.000000
640   1 20.798900 24.511724  4.002751
641   1 20.798900 24.511724  8.005502
642   1 20.798900 24.511724 12.008253
643   1 20.798900 24.511724 16.011004
644   1 20.798900 24.511724 20.013755
645   1 20.798900 24.511724 24.016506
646   1 20.798900 24.511724 28.019257
647   1 20.798900 24.511724 32.022007
648   1 20.798900 24.511724 36.024758
649   1 20.798900 24.511724 40.027509
650   1 20.798900 26.962897  0.000000
651   1 20.798900 26.962897  4.002751
652   1 20.798900 26.962897  8.005502
653   1 20.798900 26.962897 12.008253
654   1 20.798900 26.962897 16.011004
655   1 20.798900 26.962897 20.013755
656   1 20.798900 26.962897 24.016506
657   1 20.798900 26.962897 28.019257
658   1 20.798900 26.962897 32.022007
659   1 20.798900 26.962897 36.024758
660   1 20.798900 26.962897 40.027509
661   1 20.798900 29.414069  0.000000
662   1 20.798900 29.414069  4.002751
663   1 20.798900 29.414069  8.005502
664   1 20.798900 29.414069 12.008253
665   1 20.798900 29.414069 16.011004
666   1 20.798900 29.414069 20.013755
667   1 20.798900 29.414069 24.016506
668   1 20.798900 29.414069 28.019257
669   1 20.798900 29.414069 32.022007
670   1 20.798900 29.414069 36.024758
671   1 20.798900 29.414069 40.027509
672   1 20.798900 31.865242  0.000000
673   1 20.798900 31.865242  4.002751
674   1 20.798900 31.865242  8.005502
675   1 20.798900 31.865242 12.008253
676   1 20.798900 31.865242 16.011004
677   1 20.798900 31.865242 20.013755
678   1 20.798900 31.865242 24.016506
679   1 20.798900 31.865242 28.019257
680   1 20.798900 31.865242 32.022007
681   1 20.798900 31.865242 36.024758
682   1 20.798900 31.865242 40.027509
683   1 20.798900 34.316414  0.000000
684   1 20.798900 34.316414  4.002751
685   1 20.798900 34.316414  8.005502
686   1 20.798900 34.316414 12.008253
687   1 20.798900 34.316414 16.011004
688   1 20.798900 34.316414 20.013755
689   1 20.798900 34.316414 24.016506
690   1 20.798900 34.316414 28.019257
691   1 20.798900 34.316414 32.022007
692   1 20.798900 34.316414 36.024758
693   1 20.798900 34.316414 40.027509
694   1 20.798900 36.767587  0.000000
695   1 20.798900 36.767587  4.002751
696   1 20.798900 36.767587  8.005502
697   1 20.798900 36.767587 12.008253
698   1 20.798900 36.767587 16.011004
699   1 20.798900 36.767587 20.013755
700   1 20.798900 36.767587 24.016506
701   1 20.798900 36.767587 28.019257
702   1 20.798900 36.767587 32.022007
703   1 20.798900 36.767587 36.024758
704   1 20.798900 36.767587 40.027509
705   1 27.731866  0.000000  0.000000
706   1 27.731866  0.000000  4.002751
707   1 27.731866  0.000000  8.005502
708   1 27.731866  0.000000 12.008253
709   1 27.731866  0.000000 16.011004
710   1 27.731866  0.000000 20.013755
711   1 27.731866  0.000000 24.016506
712   1 27.731866  0.000000 28.019257
713   1 27.731866  0.000000 32.022007
714   1 27.731866  0.000000 36.024758
715   1 27.731866  0.000000 40.027509
716   1 27.731866  2.451172  0.000000
717   1 27.731866  2.451172  4.002751
718   1 27.731866  2.451172  8.005502
719   1 27.731866  2.451172 12.008253
720   1 27.731866  2.451172 16.011004
721   1 27.731866  2.451172 20.013755
722   1 27.731866  2.451172 24.016506
723   1 27.731866  2.451172 28.019257
724   1 27.731866  2.451172 32.022007
725   1 27.731866  2.451172 36.024758
726   1 27.731866  2.451172 40.027509
727   1 27.731866  4.902345  0.000000
728   1 27.731866  4.902345  4.002751
729   1 27.731866  4.902345  8.005502
730   1 27.731866  4.902345 12.008253
731   1 27.731866  4.902345 16.011004
732   1 27.731866  4.902345 20.013755
733   1 27.731866  4.902345 24.016506
734   1 27.731866  4.902345 28.019257
735   1 27.731866  4.902345 32.022007
736   1 27.731866  4.902345 36.024758
737   1 27.731866  4.902345 40.027509
738   1 27.731866  7.353517  0.000000
739   1 27.731866  7.353517  4.002751
740   1 27.731866  7.353517  8.005502
741   1 27.731866  7.353517 12.008253
742   1 27.731866  7.353517 16.011004
743   1 27.731866  7.353517 20.013755
744   1 27.731866  7.353517 24.016506
745   1 27.731866  7.353517 28.019257
746   1 27.731866  7.353517 32.022007
747   1 27.731866  7.353517 36.024758
748   1 27.731866  7.353517 40.027509
749   1 27.731866  9.804690  0.000000
750   1 27.731866  9.804690  4.002751
751   1 27.731866  9.804690  8.005502
752   1 27.731866  9.804690 12.008253
753   1 27.731866  9.804690 16.011004
754   1 27.731866  9.804690 20.013755
755   1 27.731866  9.804690 24.016506
756   1 27.731866  9.804690 28.019257
757   1 27.731866  9.804690 32.022007
758   1 27.731866  9.804690 36.024758
759   1 27.731866  9.804690 40.027509
760   1 27.731866 12.255862  0.000000
761   1 27.731866 12.255862  4.002751
762   1 27.731866 12.255862  8.005502
763   1 27.731866 12.255862 12.008253
764   1 27.731866 12.255862 16.011004
765   1 27.731866 12.255862 20.013755
766   1 27.731866 12.255862 24.016506
767   1 27.731866 12.255862 28.019257
768   1 27.731866 12.255862 32.022007
769   1 27.731866 12.255862 36.024758
770   1 27.731866 12.255862 40.027509
771   1 27.731866 14.707035  0.000000
772   1 27.731866 14.707035  4.002751
773   1 27.731866 14.707035  8.005502
774   1 27.731866 14.707035 12.008253
775   1 27.731866 14.707035 16.011004
776   1 27.731866 14.707035 20.013755
777   1 27.731866 14.707035 24.016506
778   1 27.731866 14.707035 28.019257
779   1 27.731866 14.707035 32.022007
780   1 27.731866 14.707035 36.024758
781   1 27.731866 14.707035 40.027509
782   1 27.731866 17.158207  0.000000
783   1 27.731866 17.158207  4.002751
784   1 27.731866 17.158207  8.005502
785   1 27.731866 17.158207 12.008253
786   1 27.731866 17.158207 16.011004
787   1 27.731866 17.158207 20.013755
788   1 27.731866 17.158207 24.016506
789   1 27.731866 17.158207 28.019257
790   1 27.731866 17.158207 32.022007
791   1 27.731866 17.158207 36.024758
792   1 27.731866 17.158207 40.027509
793   1 27.731866 19.609379  0.000000
794   1 27.731866 19.609379  4.002751
795   1 27.731866 19.609379  8.005502
796   1 27.731866 19.609379 12.008253
797   1 27.731866 19.609379 16.011004
798   1 27.731866 19.609379 20.013755
799   1 27.731866 19.609379 24.016506
800   1 27.731866 19.609379 28.019257
801   1 27.731866 19.609379 32.022007
802   1 27.731866 19.609379 36.024758
803   1 27.731866 19.609379 40.027509
804   1 27.731866 22.060552  0.000000
805   1 27.731866 22.060552  4.002751
806   1 27.731866 22.060552  8.005502
807   1 27.731866 22.060552 12.008253
808   1 27.731866 22.060552 16.011004
809   1 27.731866 22.060552 20.013755
810   1 27.731866 22.060552 24.016506
811   1 27.731866 22.060552 28.019257
812   1 27.731866 22.060552 32.022007
813   1 27.731866 22.060552 36.024758
814   1 27.731866 22.060552 40.027509
815   1 27.731866 24.511724  0.000000
816   1 27.731866 24.511724  4.002751
817   1 27.731866 24.511724  8.005502
818   1 27.731866 24.511724 12.008253
819   1 27.731866 24.511724 16.011004
820   1 27.731866 24.511724 20.013755
821   1 27.731866 24.511724 24.016506
822   1 27.731866 24.511724 28.019257
823   1 27.731866 24.511724 32.022007
824   1 27.731866 24.511724 36.024758
825   1 27.731866 24.511724 40.027509
826   1 27.731866 26.962897  0.000000
827   1 27.731866 26.962897  4.002751
828   1 27.731866 26.962897  8.005502
829   1 27.731866 26.962897 12.008253
830   1 27.731866 26.962897 16.011004
831   1 27.731866 26.962897 20.013755
832   1 27.731866 26.962897 24.016506
833   1 27.731866 26.962897 28.019257
834   1 27.731866 26.962897 32.022007
835   1 27.731866 26.962897 36.024758
836   1 27.731866 26.962897 40.027509
837   1 27.731866 29.414069  0.000000
838   1 27.731866 29.414069  4.002751
839   1 27.731866 29.414069  8.005502
840   1 27.731866 29.414069 12.008253
841   1 27.731866 29.414069 16.011004
842   1 27.731866 29.414069 20.013755
843   1 27.731866 29.414069 24.016506
844   1 27.731866 29.414069 28.019257
845   1 27.731866 29.414069 32.022007
846   1 27.731866 29.414069 36.024758
847   1 27.731866 29.414069 40.027509
848   1 27.731866 31.865242  0.000000
849   1 27.731866 31.865242  4.002751
850   1 27.731866 31.865242  8.005502
851   1 27.731866 31.865242 12.008253
852   1 27.731866 31.865242 16.011004
853   1 27.731866 31.865242 20.013755
854   1 27.731866 31.865242 24.016506
855   1 27.731866 31.865242 28.019257
856   1 27.731866 31.865242 32.022007
857   1 27.731866 31.865242 36.024758
858   1 27.731866 31.865242 40.027509
859   1 27.731866 34.316414  0.000000
860   1 27.731866 34.316414  4.002751
861   1 27.731866 34.316414  8.005502
862   1 27.731866 34.316414 12.008253
863   1 27.731866 34.316414 16.011004
864   1 27.731866 34.316414 20.013755
865   1 27.731866 34.316414 24.016506
866   1 27.731866 34.316414 28.019257
867   1 27.731866 34.316414 32.022007
868   1 27.731866 34.316414 36.024758
869   1 27.731866 34.316414 40.027509
870   1 27.731866 36.767587  0.000000
871   1 27.731866 36.767587  4.002751
872   1 27.731866 36.767587  8.005502
873   1 27.731866 36.767587 12.008253
874   1 27.731866 36.767587 16.011004
875   1 27.731866 36.767587 20.013755
876   1 27.731866 36.767587 24.016506
877   1 27.731866 36.767587 28.019257
878   1 27.731866 36.767587 32.022007
879   1 27.731866 36.767587 36.024758
880   1 27.731866 36.767587 40.027509
881   1 34.664833  0.000000  0.000000
882   1 34.664833  0.000000  4.002751
883   1 34.664833  0.000000  8.005502
884   1 34.664833  0.000000 12.008253
885   1 34.664833  0.000000 16.011004
886   1 34.664833  0.000000 20.013755
887   1 34.664833  0.000000 24.016506
888   1 34.664833  0.000000 28.019257
889   1 34.664833  0.000000 32.022007
890   1 34.664833  0.000000 36.024758
891   1 34.664833  0.000000 40.027509
892   1 34.664833  2.451172  0.000000
893   1 34.664833  2.451172  4.002751
894   1 34.664833  2.451172  8.005502
895   1 34.664833  2.451172 12.008253
896   1 34.664833  2.451172 16.011004
897   1 34.664833  2.451172 20.013755
898   1 34.664833  2.451172 24.016506
899   1 34.664833  2.451172 28.019257
900   1 34.664833  2.451172 32.022007
901   1 34.664833  2.451172 36.024758
902   1 34.664833  2.451172 40.027509
903   1 34.664833  4.902345  0.000000
904   1 34.664833  4.902345  4.002751
905   1 34.664833  4.902345  8.005502
906   1 34.664833  4.902345 12.008253
907   1 34.664833  4.902345 16.011004
908   1 34.664833  4.902345 20.013755
909   1 34.664833  4.902345 24.016506
910   1 34.664833  4.902345 28.019257
911   1 34.664833  4.902345 32.022007
912   1 34.664833  4.902345 36.024758
913   1 34.664833  4.902345 40.027509
914   1 34.664833  7.353517  0.000000
915   1 34.664833  7.353517  4.002751
916   1 34.664833  7.353517  8.005502
917   1 34.664833  7.353517 12.008253
918   1 34.664833  7.353517 16.011004
919   1 34.664833  7.353517 20.013755
920   1 34.664833  7.353517 24.016506
921   1 34.664833  7.353517 28.019257
922   1 34.664833  7.353517 32.022007
923   1 34.664833  7.353517 36.024758
924   1 34.664833  7.353517 40.027509
925   1 34.664833  9.804690  0.000000
926   1 34.664833  9.804690  4.002751
927   1 34.664833  9.804690  8.005502
928   1 34.664833  9.804690 12.008253
929   1 34.664833  9.804690 16.011004
930   1 34.664833  9.804690 20.013755
931   1 34.664833  9.804690 24.016506
932   1 34.664833  9.804690 28.019257
933   1 34.664833  9.804690 32.022007
934   1 34.664833  9.804690 36.024758
935   1 34.664833  9.804690 40.027509
936   1 34.664833 12.255862  0.000000
937   1 34.664833 12.255862  4.002751
938   1 34.664833 12.255862  8.005502
939   1 34.664833 12.255862 12.008253
940   1 34.664833 12.255862 16.011004
941   1 34.664833 12.255862 20.013755
942   1 34.664833 12.255862 24.016506
943   1 34.664833 12.255862 28.019257
944   1 34.664833 12.255862 32.022007
945   1 34.664833 12.255862 36.024758
946   1 34.664833 12.255862 40.027509
947   1 34.664833 14.707035  0.000000
948   1 34.664833 14.707035  4.002751
949   1 34.664833 14.707035  8.005502
950   1 34.664833 14.707035 12.008253
951   1 34.664833 14.707035 16.011004
952   1 34.664833 14.707035 20.013755
953   1 34.664833 14.707035 24.016506
954   1 34.664833 14.707035 28.019257
955   1 34.664833 14.707035 32.022007
956   1 34.664833 14.707035 36.024758
957   1 34.664833 14.707035 40.027509
958   1 34.664833 17.158207  0.000000
959   1 34.664833 17.158207  4.002751
960   1 34.664833 17.158207  8.005502
961   1 34.664833 17.158207 12.008253
962   1 34.664833 17.158207 16.011004
963   1 34.664833 17.158207 20.013755
964   1 34.664833 17.158207 24.016506
965   1 34.664833 17.158207 28.019257
966   1 34.664833 17.158207 32.022007
967   1 34.664833 17.158207 36.024758
968   1 34.664833 17.158207 40.027509
969   1 34.664833 19.609379  0.000000
970   1 34.664833 19.609379  4.002751
971   1 34.664833 19.609379  8.005502
972   1 34.664833 19.609379 12.008253
973   1 34.664833 19.609379 16.011004
974   1 34.664833 19.609379 20.013755
975   1 34.664833 19.609379 24.016506
976   1 34.664833 19.609379 28.019257
977   1 34.664833 19.609379 32.022007
978   1 34.664833 19.609379 36.024758
979   1 34.664833 19.609379 40.027509
980   1 34.664833 22.060552  0.000000
981   1 34.664833 22.060552  4.002751
982   1 34.664833 22.060552  8.005502
983   1 34.664833 22.060552 12.008253
984   1 34.664833 22.060552 16.011004
985   1 34.664833 22.060552 20.013755
986   1 34.664833 22.060552 24.016506
987   1 34.664833 22.060552 28.019257
988   1 34.664833 22.060552 32.022007
989   1 34.664833 22.060552 36.024758
990   1 34.664833 22.060552 40.027509
991   1 34.664833 24.511724  0.000000
992   1 34.664833 24.511724  4.002751
993   1 34.664833 24.511724  8.005502
994   1 34.664833 24.511724 12.008253
995   1 34.664833 24.511724 16.011004
996   1 34.664833 24.511724 20.013755
997   1 34.664833 24.511724 24.016506
998   1 34.664833 24.511724 28.019257
999   1 34.664833 24.511724 32.022007
1000  1 34.664833 24.511724 36.024758
1001  1 34.664833 24.511724 40.027509
1002  1 34.664833 26.962897  0.000000
1003  1 34.664833 26.962897  4.002751
1004  1 34.664833 26.962897  8.005502
1005  1 34.664833 26.962897 12.008253
1006  1 34.664833 26.962897 16.011004
1007  1 34.664833 26.962897 20.013755
1008  1 34.664833 26.962897 24.016506
1009  1 34.664833 26.962897 28.019257
1010  1 34.664833 26.962897 32.022007
1011  1 34.664833 26.962897 36.024758
1012  1 34.664833 26.962897 40.027509
1013  1 34.664833 29.414069  0.000000
1014  1 34.664833 29.414069  4.002751
1015  1 34.664833 29.414069  8.005502
1016  1 34.664833 29.414069 12.008253
1017  1 34.664833 29.414069 16.011004
1018  1 34.664833 29.414069 20.013755
1019  1 34.664833 29.414069 24.016506
1020  1 34.664833 29.414069 28.019257
1021  1 34.664833 29.414069 32.022007
1022  1 34.664833 29.414069 36.024758
1023  1 34.664833 29.414069 40.027509
1024  1 34.664833 31.865242  0.000000
1025  1 34.664833 31.865242  4.002751
1026  1 34.664833 31.865242  8.005502
1027  1 34.664833 31.865242 12.008253
1028  1 34.664833 31.865242 16.011004
1029  1 34.664833 31.865242 20.013755
1030  1 34.664833 31.865242 24.016506
1031  1 34.664833 31.865242 28.019257
1032  1 34.664833 31.865242 32.022007
1033  1 34.664833 31.865242 36.024758
1034  1 34.664833 31.865242 40.027509
1035  1 34.664833 34.316414  0.000000
1036  1 34.664833 34.316414  4.002751
1037  1 34.664833 34.316414  8.005502
1038  1 34.664833 34.316414 12.008253
1039  1 34.664833 34.316414 16.011004
1040  1 34.664833 34.316414 20.013755
1041  1 34.664833 34.316414 24.016506
1042  1 34.664833 34.316414 28.019257
1043  1 34.664833 34.316414 32.022007
1044  1 34.664833 34.316414 36.024758
1045  1 34.664833 34.316414 40.027509
1046  1 34.664833 36.767587  0.000000
1047  1 34.664833 36.767587  4.002751
1048  1 34.664833 36.767587  8.005502
1049  1 34.664833 36.767587 12.008253
1050  1 34.664833 36.767587 16.011004
1051  1 34.664833 36.767587 20.013755
1052  1 34.664833 36.767587 24.016506
1053  1 34.664833 36.767587 28.019257
1054  1 34.664833 36.767587 32.022007
1055  1 34.664833 36.767587 36.024758
1056  1 34.664833 36.767587 40.027509
1057  1 41.597799  0.000000  0.000000
1058  1 41.597799  0.000000  4.002751
1059  1 41.597799  0.000000  8.005502
1060  1 41.597799  0.000000 12.008253
1061  1 41.597799  0.000000 16.011004
1062  1 41.597799  0.000000 20.013755
1063  1 41.597799  0.000000 24.016506
1064  1 41.597799  0.000000 28.019257
1065  1 41.597799  0.000000 32.022007
1066  1 41.597799  0.000000 36.024758
1067  1 41.597799  0.000000 40.027509
1068  1 41.597799  2.451172  0.000000
1069  1 41.597799  2.451172  4.002751
1070  1 41.597799  2.451172  8.005502
1071  1 41.597799  2.451172 12.008253
1072  1 41.597799  2.451172 16.011004
1073  1 41.597799  2.451172 20.013755
1074  1 41.597799  2.451172 24.016506
1075  1 41.597799  2.451172 28.019257
1076  1 41.597799  2.451172 32.022007
1077  1 41.597799  2.451172 36.024758
1078  1 41.597799  2.451172 40.027509
1079  1 41.597799  4.902345  0.000000
1080  1 41.597799  4.902345  4.002751
1081  1 41.597799  4.902345  8.005502
1082  1 41.597799  4.902345 12.008253
1083  1 41.597799  4.902345 16.011004
1084  1 41.597799  4.902345 20.013755
1085  1 41.597799  4.902345 24.016506
1086  1 41.597799  4.902345 28.019257
1087  1 41.597799  4.902345 32.022007
1088  1 41.597799  4.902345 36.024758
1089  1 41.597799  4.902345 40.027509
1090  1 41.597799  7.353517  0.000000
1091  1 41.597799  7.353517  4.002751
1092  1 41.597799  7.353517  8.005502
1093  1 41.597799  7.353517 12.008253
1094  1 41.597799  7.353517 16.011004
1095  1 41.597799  7.353517 20.013755
1096  1 41.597799  7.353517 24.016506
1097  1 41.597799  7.353517 28.019257
1098  1 41.597799  7.353517 32.022007
1099  1 41.597799  7.353517 36.024758
1100  1 41.597799  7.353517 40.027509
1101  1 41.597799  9.804690  0.000000
1102  1 41.597799  9.804690  4.002751
1103  1 41.597799  9.804690  8.005502
1104  1 41.597799  9.804690 12.008253
1105  1 41.597799  9.804690 16.011004
1106  1 41.597799  9.804690 20.013755
1107  1 41.597799  9.804690 24.016506
1108  1 41.597799  9.804690 28.019257
1109  1 41.597799  9.804690 32.022007
1110  1 41.597799  9.804690 36.024758
1111  1 41.597799  9.804690 40.027509
1112  1 41.597799 12.255862  0.000000
1113  1 41.597799 12.255862  4.002751
1114  1 41.597799 12.255862  8.005502
1115  1 41.597799 12.255862 12.008253
1116  1 41.597799 12.255862 16.011004
1117  1 41.597799 12.255862 20.013755
1118  1 41.597799 12.255862 24.016506
1119  1 41.597799 12.255862 28.019257
1120  1 41.597799 12.255862 32.022007
1121  1 41.597799 12.255862 36.024758
1122  1 41.597799 12.255862 40.027509
1123  1 41.597799 14.707035  0.000000
1124  1 41.597799 14.707035  4.002751
1125  1 41.597799 14.707035  8.005502
1126  1 41.597799 14.707035 12.008253
1127  1 41.597799 14.707035 16.011004
1128  1 41.597799 14.707035 20.013755
1129  1 41.597799 14.707035 24.016506
1130  1 41.597799 14.707035 28.019257
1131  1 41.597799 14.707035 32.022007
1132  1 41.597799 14.707035 36.024758
1133  1 41.597799 14.707035 40.027509
1134  1 41.597799 17.158207  0.000000
1135  1 41.597799 17.158207  4.002751
1136  1 41.597799 17.158207  8.005502
1137  1 41.597799 17.158207 12.008253
1138  1 41.597799 17.158207 16.011004
1139  1 41.597799 17.158207 20.013755
1140  1 41.597799 17.158207 24.016506
1141  1 41.597799 17.158207 28.019257
1142  1 41.597799 17.158207 32.022007
1143  1 41.597799 17.158207 36.024758
1144  1 41.597799 17.158207 40.027509
1145  1 41.597799 19.609379  0.000000
1146  1 41.597799 19.609379  4.002751
1147  1 41.597799 19.609379  8.005502
1148  1 41.597799 19.609379 12.008253
1149  1 41.597799 19.609379 16.011004
1150  1 41.597799 19.609379 20.013755
1151  1 41.597799 19.609379 24.016506
1152  1 41.597799 19.609379 28.019257
1153  1 41.597799 19.609379 32.022007
1154  1 41.597799 19.609379 36.024758
1155  1 41.597799 19.609379 40.027509
1156  1 41.597799 22.060552  0.000000
1157  1 41.597799 22.060552  4.002751
1158  1 41.597799 22.060552  8.005502
1159  1 41.597799 22.060552 12.008253
1160  1 41.597799 22.060552 16.011004
1161  1 41.597799 22.060552 20.013755
1162  1 41.597799 22.060552 24.016506
1163  1 41.597799 22.060552 28.019257
1164  1 41.597799 22.060552 32.022007
1165  1 41.597799 22.060552 36.024758
1166  1 41.597799 22.060552 40.027509
1167  1 41.597799 24.511724  0.000000
1168  1 41.597799 24.511724  4.002751
1169  1 41.597799 24.511724  8.005502
1170  1 41.597799 24.511724 12.008253
1171  1 41.597799 24.511724 16.011004
1172  1 41.597799 24.511724 20.013755
1173  1 41.597799 24.511724 24.016506
1174  1 41.597799 24.511724 28.019257
1175  1 41.597799 24.511724 32.022007
1176  1 41.597799 24.511724 36.024758
1177  1 41.597799 24.511724 40.027509
1178  1 41.597799 26.962897  0.000000
1179  1 41.597799 26.962897  4.002751
1180  1 41.597799 26.962897  8.005502
1181  1 41.597799 26.962897 12.008253
1182  1 41.597799 26.962897 16.011004
1183  1 41.597799 26.962897 20.013755
1184  1 41.597799 26.962897 24.016506
1185  1 41.597799 26.962897 28.019257
1186  1 41.597799 26.962897 32.022007
1187  1 41.597799 26.962897 36.024758
1188  1 41.597799 26.962897 40.027509
1189  1 41.597799 29.414069  0.000000
1190  1 41.597799 29.414069  4.002751
1191  1 41.597799 29.414069  8.005502
1192  1 41.597799 29.414069 12.008253
1193  1 41.597799 29.414069 16.011004
1194  1 41.597799 29.414069 20.013755
1195  1 41.597799 29.414069 24.016506
1196  1 41.597799 29.414069 28.019257
1197  1 41.597799 29.414069 32.022007
1198  1 41.597799 29.414069 36.024758
1199  1 41.597799 29.414069 40.027509
1200  1 41.597799 31.865242  0.000000
1201  1 41.597799 31.865242  4.002751
1202  1 41.597799 31.865242  8.005502
1203  1 41.597799 31.865242 12.008253
1204  1 41.597799 31.865242 16.011004
1205  1 41.597799 31.865242 20.013755
1206  1 41.597799 31.865242 24.016506
1207  1 41.597799 31.865242 28.019257
1208  1 41.597799 31.865242 32.022007
1209  1 41.597799 31.865242 36.024758
1210  1 41.597799 31.865242 40.027509
1211  1 41.597799 34.316414  0.000000
1212  1 41.597799 34.316414  4.002751
1213  1 41.597799 34.316414  8.005502
1214  1 41.597799 34.316414 12.008253
1215  1 41.597799 34.316414 16.011004
1216  1 41.597799 34.316414 20.013755
1217  1 41.597799 34.316414 24.016506
1218  1 41.597799 34.316414 28.019257
1219  1 41.597799 34.316414 32.022007
1220  1 41.597799 34.316414 36.024758
1221  1 41.597799 34.316414 40.027509
1222  1 41.597799 36.767587  0.000000
1223  1 41.597799 36.767587  4.002751
1224  1 41.597799 36.767587  8.005502
1225  1 41.597799 36.767587 12.008253
1226  1 41.597799 36.767587 16.011004
1227  1 41.597799 36.767587 20.013755
1228  1 41.597799 36.767587 24.016506
1229  1 41.597799 36.767587 28.019257
1230  1 41.597799 36.767587 32.022007
1231  1 41.597799 36.767587 36.024758
1232  1 41.597799 36.767587 40.027509
1233  1  3.466483  0.000000  2.001375
1234  1  3.466483  0.000000  6.004126
1235  1  3.466483  0.000000 10.006877
1236  1  3.466483  0.000000 14.009628
1237  1  3.466483  0.000000 18.012379
1238  1  3.466483  0.000000 22.015130
1239  1  3.466483  0.000000 26.017881
1240  1  3.466483  0.000000 30.020632
1241  1  3.466483  0.000000 34.023383
1242  1  3.466483  0.000000 38.026134
1243  1  3.466483  0.000000 42.028885
1244  1  3.466483  2.451172  2.001375
1245  1  3.466483  2.451172  6.004126
1246  1  3.466483  2.451172 10.006877
1247  1  3.466483  2.451172 14.009628
1248  1  3.466483  2.451172 18.012379
1249  1  3.466483  2.451172 22.015130
1250  1  3.466483  2.451172 26.017881
1251  1  3.466483  2.451172 30.020632
1252  1  3.466483  2.451172 34.023383
1253  1  3.466483  2.451172 38.026134
1254  1  3.466483  2.451172 42.028885
1255  1  3.466483  4.902345  2.001375
1256  1  3.466483  4.902345  6.004126
1257  1  3.466483  4.902345 10.006877
1258  1  3.466483  4.902345 14.009628
1259  1  3.466483  4.902345 18.012379
1260  1  3.466483  4.902345 22.015130
1261  1  3.466483  4.902345 26.017881
1262  1  3.466483  4.902345 30.020632
1263  1  3.466483  4.902345 34.023383
1264  1  3.466483  4.902345 38.026134
1265  1  3.466483  4.902345 42.028885
1266  1  3.466483  7.353517  2.001375
1267  1  3.466483  7.353517  6.004126
1268  1  3.466483  7.353517 10.006877
1269  1  3.466483  7.353517 14.009628
1270  1  3.466483  7.353517 18.012379
1271  1  3.466483  7.353517 22.015130
1272  1  3.466483  7.353517 26.017881
1273  1  3.466483  7.353517 30.020632
1274  1  3.466483  7.353517 34.023383
1275  1  3.466483  7.353517 38.026134
1276  1  3.466483  7.353517 42.028885
1277  1  3.466483  9.804690  2.001375
1278  1  3.466483  9.804690  6.004126
1279  1  3.466483  9.804690 10.006877
1280  1  3.466483  9.804690 14.009628
1281  1  3.466483  9.804690 18.012379
1282  1  3.466483  9.804690 22.015130
1283  1  3.466483  9.804690 26.017881
1284  1  3.466483  9.804690 30.020632
1285  1  3.466483  9.804690 34.023383
1286  1  3.466483  9.804690 38.026134
1287  1  3.466483  9.804690 42.028885
1288  1  3.466483 12.255862  2.001375
1289  1  3.466483 12.255862  6.004126
1290  1  3.466483 12.255862 10.006877
1291  1  3.466483 12.255862 14.009628
1292  1  3.466483 12.255862 18.012379
1293  1  3.466483 12.255862 22.015130
1294  1  3.466483 12.255862 26.017881
1295  1  3.466483 12.255862 30.020632
1296  1  3.466483 12.255862 34.023383
1297  1  3.466483 12.255862 38.026134
1298  1  3.466483 12.255862 42.028885
1299  1  3.466483 14.707035  2.001375
1300  1  3.466483 14.707035  6.004126
1301  1  3.466483 14.707035 10.006877
1302  1  3.466483 14.707035 14.009628
1303  1  3.466483 14.707035 18.012379
1304  1  3.466483 14.707035 22.015130
1305  1  3.466483 14.707035 26.017881
1306  1  3.466483 14.707035 30.020632
1307  1  3.466483 14.707035 34.023383
1308  1  3.466483 14.707035 38.026134
1309  1  3.466483 14.707035 42.028885
1310  1  3.466483 17.158207  2.001375
1311  1  3.466483 17.158207  6.004126
1312  1  3.466483 17.158207 10.006877
1313  1  3.466483 17.158207 14.009628
1314  1  3.466483 17.158207 18.012379
1315  1  3.466483 17.158207 22.015130
1316  1  3.466483 17.158207 26.017881
1317  1  3.466483 17.158207 30.020632
1318  1  3.466483 17.158207 34.023383
1319  1  3.466483 17.158207 38.026134
1320  1  3.466483 17.158207 42.028885
1321  1  3.466483 19.609379  2.001375
1322  1  3.466483 19.609379  6.004126
1323  1  3.466483 19.609379 10.006877
1324  1  3.466483 19.609379 14.009628
1325  1  3.466483 19.609379 18.012379
1326  1  3.466483 19.609379 22.015130
1327  1  3.466483 19.609379 26.017881
1328  1  3.466483 19.609379 30.020632
1329  1  3.466483 19.609379 34.023383
1330  1  3.466483 19.609379 38.026134
1331  1  3.466483 19.609379 42.028885
1332  1  3.466483 22.060552  2.001375
1333  1  3.466483 22.060552  6.004126
1334  1  3.466483 22.060552 10.006877
1335  1  3.466483 22.060552 14.009628
1336  1  3.466483 22.060552 18.012379
1337  1  3.466483 22.060552 22.015130
1338  1  3.466483 22.060552 26.017881
1339  1  3.466483 22.060552 30.020632
1340  1  3.466483 22.060552 34.023383
1341  1  3.466483 22.060552 38.026134
1342  1  3.466483 22.060552 42.028885
1343  1  3.466483 24.511724  2.001375
1344  1  3.466483 24.511724  6.004126
1345  1  3.466483 24.511724 10.006877
1346  1  3.466483 24.511724 14.009628
1347  1  3.466483 24.511724 18.012379
1348  1  3.466483 24.511724 22.015130
1349  1  3.466483 24.511724 26.017881
1350  1  3.466483 24.511724 30.020632
1351  1  3.466483 24.511724 34.023383
1352  1  3.466483 24.511724 38.026134
1353  1  3.466483 24.511724 42.028885
1354  1  3.466483 26.962897  2.001375
1355  1  3.466483 26.962897  6.004126
1356  1  3.466483 26.962897 10.006877
1357  1  3.466483 26.962897 14.009628
1358  1  3.466483 26.962897 18.012379
1359  1  3.466483 26.962897 22.015130
1360  1  3.466483 26.962897 26.017881
1361  1  3.466483 26.962897 30.020632
1362  1  3.466483 26.962897 34.023383
1363  1  3.466483 26.962897 38.026134
1364  1  3.466483 26.962897 42.028885
1365  1  3.466483 29.414069  2.001375
1366  1  3.466483 29.414069  6.004126
1367  1  3.466483 29.414069 10.006877
1368  1  3.466483 29.414069 14.009628
1369  1  3.466483 29.414069 18.012379
1370  1  3.466483 29.414069 22.015130
1371  1  3.466483 29.414069 26.017881
1372  1  3.466483 29.414069 30.020632
1373  1  3.466483 29.414069 34.023383
1374  1  3.466483 29.414069 38.026134
1375  1  3.466483 29.414069 42.028885
1376  1  3.466483 31.865242  2.001375
1377  1  3.466483 31.865242  6.004126
1378  1  3.466483 31.865242 10.006877
1379  1  3.466483 31.865242 14.009628
1380  1  3.466483 31.865242 18.012379
1381  1  3.466483 31.865242 22.015130
1382  1  3.466483 31.865242 26.017881
1383  1  3.466483 31.865242 30.020632
1384  1  3.466483 31.865242 34.023383
1385  1  3.466483 31.865242 38.026134
1386  1  3.466483 31.865242 42.028885
1387  1  3.466483 34.316414  2.001375
1388  1  3.466483 34.316414  6.004126
1389  1  3.466483 34.316414 10.006877
1390  1  3.466483 34.316414 14.009628
1391  1  3.466483 34.316414 18.012379
1392  1  3.466483 34.316414 22.015130
1393  1  3.466483 34.316414 26.017881
1394  1  3.466483 34.316414 30.020632
1395  1  3.466483 34.316414 34.023383
1396  1  3.466483 34.316414 38.026134
1397  1  3.466483 34.316414 42.028885
1398  1  3.466483 36.767587  2.001375
1399  1  3.466483 36.767587  6.004126
1400  1  3.466483 36.767587 10.006877
1401  1  3.466483 36.767587 14.009628
1402  1  3.466483 36.767587 18.012379
1403  1  3.466483 36.767587 22.015130
1404  1  3.466483 36.767587 26.017881
1405  1  3.466483 36.767587 30.020632
1406  1  3.466483 36.767587 34.023383
1407  1  3.466483 36.767587 38.026134
1408  1  3.466483 36.767587 42.028885
1409  1 10.399450  0.000000  2.001375
1410  1 10.399450  0.000000  6.004126
1411  1 10.399450  0.000000 10.006877
1412  1 10.399450  0.000000 14.009628
1413  1 10.399450  0.000000 18.012379
1414  1 10.399450  0.000000 22.015130
1415  1 10.399450  0.000000 26.017881
1416  1 10.399450  0.000000 30.020632
1417  1 10.399450  0.000000 34.023383
1418  1 10.399450  0.000000 38.026134
1419  1 10.399450  0.000000 42.028885
1420  1 10.399450  2.451172  2.001375
1421  1 10.399450  2.451172  6.004126
1422  1 10.399450  2.451172 10.006877
1423  1 10.399450  2.451172 14.009628
1424  1 10.399450  2.451172 18.012379
1425  1 10.399450  2.451172 22.015130
1426  1 10.399450  2.451172 26.017881
1427  1 10.399450  2.451172 30.020632
1428  1 10.399450  2.451172 34.023383
1429  1 10.399450  2.451172 38.026134
1430  1 10.399450  2.451172 42.028885
1431  1 10.399450  4.902345  2.001375
1432  1 10.399450  4.902345  6.004126
1433  1 10.399450  4.902345 10.006877
1434  1 10.399450  4.902345 14.009628
1435  1 10.399450  4.902345 18.012379
1436  1 10.399450  4.902345 22.015130
1437  1 10.399450  4.902345 26.017881
1438  1 10.399450  4.902345 30.020632
1439  1 10.399450  4.902345 34.023383
1440  1 10.399450  4.902345 38.026134
1441  1 10.399450  4.902345 42.028885
1442  1 10.399450  7.353517  2.001375
1443  1 10.399450  7.353517  6.004126
1444  1 10.399450  7.353517 10.006877
1445  1 10.399450  7.353517 14.009628
1446  1 10.399450  7.353517 18.012379
1447  1 10.399450  7.353517 22.015130
1448  1 10.399450  7.353517 26.017881
1449  1 10.399450  7.353517 30.020632
1450  1 10.399450  7.353517 34.023383
1451  1 10.399450  7.353517 38.026134
1452  1 10.399450  7.353517 42.028885
1453  1 10.399450  9.804690  2.001375
1454  1 10.399450  9.804690  6.004126
1455  1 10.399450  9.804690 10.006877
1456  1 10.399450  9.804690 14.009628
1457  1 10.399450  9.804690 18.012379
1458  1 10.399450  9.804690 22.015130
1459  1 10.399450  9.804690 26.017881
1460  1 10.399450  9.804690 30.020632
1461  1 10.399450  9.804690 34.023383
1462  1 10.399450  9.804690 38.026134
1463  1 10.399450  9.804690 42.028885
1464  1 10.399450 12.255862  2.001375
1465  1 10.399450 12.255862  6.004126
1466  1 10.399450 12.255862 10.006877
1467  1 10.399450 12.255862 14.009628
1468  1 10.399450 12.255862 18.012379
1469  1 10.399450 12.255862 22.015130
1470  1 10.399450 12.255862 26.017881
1471  1 10.399450 12.255862 30.020632
1472  1 10.399450 12.255862 34.023383
1473  1 10.399450 12.255862 38.026134
1474  1 10.399450 12.255862 42.028885
1475  1 10.399450 14.707035  2.001375
1476  1 10.399450 14.707035  6.004126
1477  1 10.399450 14.707035 10.006877
1478  1 10.399450 14.707035 14.009628
1479  1 10.399450 14.707035 18.012379
1480  1 10.399450 14.707035 22.015130
1481  1 10.399450 14.707035 26.017881
1482  1 10.399450 14.707035 30.020632
1483  1 10.399450 14.707035 34.023383
1484  1 10.399450 14.707035 38.026134
1485  1 10.399450 14.707035 42.028885
1486  1 10.399450 17.158207  2.001375
1487  1 10.399450 17.158207  6.004126
1488  1 10.399450 17.158207 10.006877
1489  1 10.399450 17.158207 14.009628
1490  1 10.399450 17.158207 18.012379
1491  1 10.399450 17.158207 22.015130
1492  1 10.399450 17.158207 26.017881
1493  1 10.399450 17.158207 30.020632
1494  1 10.399450 17.158207 34.023383
1495  1 10.399450 17.158207 38.026134
1496  1 10.399450 17.158207 42.028885
1497  1 10.399450 19.609379  2.001375
1498  1 10.399450 19.609379  6.004126
1499  1 10.399450 19.609379 10.006877
1500  1 10.399450 19.609379 14.009628
1501  1 10.399450 19.609379 18.012379
1502  1 10.399450 19.609379 22.015130
1503  1 10.399450 19.609379 26.017881
1504  1 10.399450 19.609379 30.020632
1505  1 10.399450 19.609379 34.023383
1506  1 10.399450 19.609379 38.026134
1507  1 10.399450 19.609379 42.028885
1508  1 10.399450 22.060552  2.001375
1509  1 10.399450 22.060552  6.004126
1510  1 10.399450 22.060552 10.006877
1511  1 10.399450 22.060552 14.009628
1512  1 10.399450 22.060552 18.012379
1513  1 10.399450 22.060552 22.015130
1514  1 10.399450 22.060552 26.017881
1515  1 10.399450 22.060552 30.020632
1516  1 10.399450 22.060552 34.023383
1517  1 10.399450 22.060552 38.026134
1518  1 10.399450 22.060552 42.028885
1519  1 10.399450 24.511724  2.001375
1520  1 10.399450 24.511724  6.004126
1521  1 10.399450 24.511724 10.006877
1522  1 10.399450 24.511724 14.009628
1523  1 10.399450 24.511724 18.012379
1524  1 10.399450 24.511724 22.015130
1525  1 10.399450 24.511724 26.017881
1526  1 10.399450 24.511724 30.020632
1527  1 10.399450 24.511724 34.023383
1528  1 10.399450 24.511724 38.026134
1529  1 10.399450 24.511724 42.028885
1530  1 10.399450 26.962897  2.001375
1531  1 10.399450 26.962897  6.004126
1532  1 10.399450 26.962897 10.006877
1533  1 10.399450 26.962897 14.009628
1534  1 10.399450 26.962897 18.012379
1535  1 10.399450 26.962897 22.015130
1536  1 10.399450 26.962897 26.017881
1537  1 10.399450 26.962897 30.020632
1538  1 10.399450 26.962897 34.023383
1539  1 10.399450 26.962897 38.026134
1540  1 10.399450 26.962897 42.028885
1541  1 10.399450 29.414069  2.001375
1542  1 10.399450 29.414069  6.004126
1543  1 10.399450 29.414069 10.006877
1544  1 10.399450 29.414069 14.009628
1545  1 10.399450 29.414069 18.012379
1546  1 10.399450 29.414069 22.015130
1547  1 10.399450 29.414069 26.017881
1548  1 10.399450 29.414069 30.020632
1549  1 10.399450 29.414069 34.023383
1550  1 10.399450 29.414069 38.026134
1551  1 10.399450 29.414069 42.028885
1552  1 10.399450 31.865242  2.001375
1553  1 10.399450 31.865242  6.004126
1554  1 10.399450 31.865242 10.006877
1555  1 10.399450 31.865242 14.009628
1556  1 10.399450 31.865242 18.012379
1557  1 10.399450 31.865242 22.015130
1558  1 10.399450 31.865242 26.017881
1559  1 10.399450 31.865242 30.020632
1560  1 10.399450 31.865242 34.023383
1561  1 10.399450 31.865242 38.026134
1562  1 10.399450 31.865242 42.028885
1563  1 10.399450 34.316414  2.001375
1564  1 10.399450 34.316414  6.004126
1565  1 10.399450 34.316414 10.006877
1566  1 10.399450 34.316414 14.009628
1567  1 10.399450 34.316414 18.012379
1568  1 10.399450 34.316414 22.015130
1569  1 10.399450 34.316414 26.017881
1570  1 10.399450 34.316414 30.020632
1571  1 10.399450 34.316414 34.023383
1572  1 10.399450 34.316414 38.026134
1573  1 10.399450 34.316414 42.028885
1574  1 10.399450 36.767587  2.001375
1575  1 10.399450 36.767587  6.004126
1576  1 10.399450 36.767587 10.006877
1577  1 10.399450 36.767587 14.009628
1578  1 10.399450 36.767587 18.012379
1579  1 10.399450 36.767587 22.015130
1580  1 10.399450 36.767587 26.017881
1581  1 10.399450 36.767587 30.020632
1582  1 10.399450 36.767587 34.023383
1583  1 10.399450 36.767587 38.026134
1584  1 10.399450 36.767587 42.028885
1585  1 17.332416  0.000000  2.001375
1586  1 17.332416  0.000000  6.004126
1587  1 17.332416  0.000000 10.006877
1588  1 17.332416  0.000000 14.009628
1589  1 17.332416  0.000000 18.012379
1590  1 17.332416  0.000000 22.015130
1591  1 17.332416  0.000000 26.017881
1592  1 17.332416  0.000000 30.020632
1593  1 17.332416  0.000000 34.023383
1594  1 17.332416  0.000000 38.026134
1595  1 17.332416  0.000000 42.028885
1596  1 17.332416  2.451172  2.001375
1597  1 17.332416  2.451172  6.004126
1598  1 17.332416  2.451172 10.006877
1599  1 17.332416  2.451172 14.009628
1600  1 17.332416  2.451172 18.012379
1601  1 17.332416  2.451172 22.015130
1602  1 17.332416  2.451172 26.017881
1603  1 17.332416  2.451172 30.020632
1604  1 17.332416  2.451172 34.023383
1605  1 17.332416  2.451172 38.026134
1606  1 17.332416  2.451172 42.028885
1607  1 17.332416  4.902345  2.001375
1608  1 17.332416  4.902345  6.004126
1609  1 17.332416  4.902345 10.006877
1610  1 17.332416  4.902345 14.009628
1611  1 17.332416  4.902345 18.012379
1612  1 17.332416  4.902345 22.015130
1613  1 17.332416  4.902345 26.017881
1614  1 17.332416  4.902345 30.020632
1615  1 17.332416  4.902345 34.023383
1616  1 17.332416  4.902345 38.026134
1617  1 17.332416  4.902345 42.028885
1618  1 17.332416  7.353517  2.001375
1619  1 17.332416  7.353517  6.004126
1620  1 17.332416  7.353517 10.006877
1621  1 17.332416  7.353517 14.009628
1622  1 17.332416  7.353517 18.012379
1623  1 17.332416  7.353517 22.015130
1624  1 17.332416  7.353517 26.017881
1625  1 17.332416  7.353517 30.020632
1626  1 17.332416  7.353517 34.023383
1627  1 17.332416  7.353517 38.026134
1628  1 17.332416  7.353517 42.028885
1629  1 17.332416  9.804690  2.001375
1630  1 17.332416  9.804690  6.004126
1631  1 17.332416  9.804690 10.006877
1632  1 17.332416  9.804690 14.009628
1633  1 17.332416  9.804690 18.012379
1634  1 17.332416  9.804690 22.015130
1635  1 17.332416  9.804690 26.017881
1636  1 17.332416  9.804690 30.020632
1637  1 17.332416  9.804690 34.023383
1638  1 17.332416  9.804690 38.026134
1639  1 17.332416  9.804690 42.028885
1640  1 17.332416 12.255862  2.001375
1641  1 17.332416 12.255862  6.004126
1642  1 17.332416 12.255862 10.006877
1643  1 17.332416 12.255862 14.009628
1644  1 17.332416 12.255862 18.012379
1645  1 17.332416 12.255862 22.015130
1646  1 17.332416 12.255862 26.017881
1647  1 17.332416 12.255862 30.020632
1648  1 17.332416 12.255862 34.023383
1649  1 17.332416 12.255862 38.026134
1650  1 17.332416 12.255862 42.028885
1651  1 17.332416 14.707035  2.001375
1652  1 17.332416 14.707035  6.004126
1653  1 17.332416 14.707035 10.006877
1654  1 17.332416 14.707035 14.009628
1655  1 17.332416 14.707035 18.012379
1656  1 17.332416 14.707035 22.015130
1657  1 17.332416 14.707035 26.017881
1658  1 17.332416 14.707035 30.020632
1659  1 17.332416 14.707035 34.023383
1660  1 17.332416 14.707035 38.026134
1661  1 17.332416 14.707035 42.028885
1662  1 17.332416 17.158207  2.001375
1663  1 17.332416 17.158207  6.004126
1664  1 17.332416 17.158207 10.006877
1665  1 17.332416 17.158207 14.009628
1666  1 17.332416 17.158207 18.012379
1667  1 17.332416 17.158207 22.015130
1668  1 17.332416 17.158207 26.017881
1669  1 17.332416 17.158207 30.020632
1670  1 17.332416 17.158207 34.023383
1671  1 17.332416 17.158207 38.026134
1672  1 17.332416 17.158207 42.028885
1673  1 17.332416 19.609379  2.001375
1674  1 17.332416 19.609379  6.004126
1675  1 17.332416 19.609379 10.006877
1676  1 17.332416 19.609379 14.009628
1677  1 17.332416 19.609379 18.012379
1678  1 17.332416 19.609379 22.015130
1679  1 17.332416 19.609379 26.017881
1680  1 17.332416 19.609379 30.020632
1681  1 17.332416 19.609379 34.023383
1682  1 17.332416 19.609379 38.026134
1683  1 17.332416 19.609379 42.028885
1684  1 17.332416 22.060552  2.001375
1685  1 17.332416 22.060552  6.004126
1686  1 17.332416 22.060552 10.006877
1687  1 17.332416 22.060552 14.009628
1688  1 17.332416 22.060552 18.012379
1689  1 17.332416 22.060552 22.015130
1690  1 17.332416 22.060552 26.017881
1691  1 17.332416 22.060552 30.020632
1692  1 17.332416 22.060552 34.023383
1693  1 17.332416 22.060552 38.026134
1694  1 17.332416 22.060552 42.028885
1695  1 17.332416 24.511724  2.001375
1696  1 17.332416 24.511724  6.004126
1697  1 17.332416 24.511724 10.006877
1698  1 17.332416 24.511724 14.009628
1699  1 17.332416 24.511724 18.012379
1700  1 17.332416 24.511724 22.015130
1701  1 17.332416 24.511724 26.017881
1702  1 17.332416 24.511724 30.020632
1703  1 17.332416 24.511724 34.023383
1704  1 17.332416 24.511724 38.026134
1705  1 17.332416 24.511724 42.028885
1706  1 17.332416 26.962897  2.001375
1707  1 17.332416 26.962897  6.004126
1708  1 17.332416 26.962897 10.006877
1709  1 17.332416 26.962897 14.009628
1710  1 17.332416 26.962897 18.012379
1711  1 17.332416 26.962897 22.015130
1712  1 17.332416 26.962897 26.017881
1713  1 17.332416 26.962897 30.020632
1714  1 17.332416 26.962897 34.023383
1715  1 17.332416 26.962897 38.026134
1716  1 17.332416 26.962897 42.028885
1717  1 17.332416 29.414069  2.001375
1718  1 17.332416 29.414069  6.004126
1719  1 17.332416 29.414069 10.006877
1720  1 17.332416 29.414069 14.009628
1721  1 17.332416 29.414069 18.012379
1722  1 17.332416 29.414069 22.015130
1723  1 17.332416 29.414069 26.017881
1724  1 17.332416 29.414069 30.020632
1725  1 17.332416 29.414069 34.023383
1726  1 17.332416 29.414069 38.026134
1727  1 17.332416 29.414069 42.028885
1728  1 17.332416 31.865242  2.001375
1729  1 17.332416 31.865242  6.004126
1730  1 17.332416 31.865242 10.006877
1731  1 17.332416 31.865242 14.009628
1732  1 17.332416 31.865242 18.012379
1733  1 17.332416 31.865242 22.015130
1734  1 17.332416 31.865242 26.017881
1735  1 17.332416 31.865242 30.020632
1736  1 17.332416 31.865242 34.023383
1737  1 17.332416 31.865242 38.026134
1738  1 17.332416 31.865242 42.028885
1739  1 17.332416 34.316414  2.001375
1740  1 17.332416 34.316414  6.004126
1741  1 17.332416 34.316414 10.006877
1742  1 17.332416 34.316414 14.009628
1743  1 17.332416 34.316414 18.012379
1744  1 17.332416 34.316414 22.015130
1745  1 17.332416 34.316414 26.017881
1746  1 17.332416 34.316414 30.020632
1747  1 17.332416 34.316414 34.023383
1748  1 17.332416 34.316414 38.026134
1749  1 17.332416 34.316414 42.028885
1750  1 17.332416 36.767587  2.001375
1751  1 17.332416 36.767587  6.004126
1752  1 17.332416 36.767587 10.006877
1753  1 17.332416 36.767587 14.009628
1754  1 17.332416 36.767587 18.012379
1755  1 17.332416 36.767587 22.015130
1756  1 17.332416 36.767587 26.017881
1757  1 17.332416 36.767587 30.020632
1758  1 17.332416 36.767587 34.023383
1759  1 17.332416 36.767587 38.026134
1760  1 17.332416 36.767587 42.028885
1761  1 24.265383  0.000000  2.001375
1762  1 24.265383  0.000000  6.004126
1763  1 24.265383  0.000000 10.006877
1764  1 24.265383  0.000000 14.009628
1765  1 24.265383  0.000000 18.012379
1766  1 24.265383  0.000000 22.015130
1767  1 24.265383  0.000000 26.017881
1768  1 24.265383  0.000000 30.020632
1769  1 24.265383  0.000000 34.023383
1770  1 24.265383  0.000000 38.026134
1771  1 24.265383  0.000000 42.028885
1772  1 24.265383  2.451172  2.001375
1773  1 24.265383  2.451172  6.004126
1774  1 24.265383  2.451172 10.006877
1775  1 24.265383  2.451172 14.009628
1776  1 24.265383  2.451172 18.012379
1777  1 24.265383  2.451172 22.015130
1778  1 24.265383  2.451172 26.017881
1779  1 24.265383  2.451172 30.020632
1780  1 24.265383  2.451172 34.023383
1781  1 24.265383  2.451172 38.026134
1782  1 24.265383  2.451172 42.028885
1783  1 24.265383  4.902345  2.001375
1784  1 24.265383  4.902345  6.004126
1785  1 24.265383  4.902345 10.006877
1786  1 24.265383  4.902345 14.009628
1787  1 24.265383  4.902345 18.012379
1788  1 24.265383  4.902345 22.015130
1789  1 24.265383  4.902345 26.017881
1790  1 24.265383  4.902345 30.020632
1791  1 24.265383  4.902345 34.023383
1792  1 24.265383  4.902345 38.026134
1793  1 24.265383  4.902345 42.028885
1794  1 24.265383  7.353517  2.001375
1795  1 24.265383  7.353517  6.004126
1796  1 24.265383  7.353517 10.006877
1797  1 24.265383  7.353517 14.009628
1798  1 24.265383  7.353517 18.012379
1799  1 24.265383  7.353517 22.015130
1800  1 24.265383  7.353517 26.017881
1801  1 24.265383  7.353517 30.020632
1802  1 24.265383  7.353517 34.023383
1803  1 24.265383  7.353517 38.026134
1804  1 24.265383  7.353517 42.028885
1805  1 24.265383  9.804690  2.001375
1806  1 24.265383  9.804690  6.004126
1807  1 24.265383  9.804690 10.006877
1808  1 24.265383  9.804690 14.009628
1809  1 24.265383  9.804690 18.012379
1810  1 24.265383  9.804690 22.015130
1811  1 24.265383  9.804690 26.017881
1812  1 24.265383  9.804690 30.020632
1813  1 24.265383  9.804690 34.023383
1814  1 24.265383  9.804690 38.026134
1815  1 24.265383  9.804690 42.028885
1816  1 24.265383 12.255862  2.001375
1817  1 24.265383 12.255862  6.004126
1818  1 24.265383 12.255862 10.006877
1819  1 24.265383 12.255862 14.009628
1820  1 24.265383 12.255862 18.012379
1821  1 24.265383 12.255862 22.015130
1822  1 24.265383 12.255862 26.017881
1823  1 24.265383 12.255862 30.020632
1824  1 24.265383 12.255862 34.023383
1825  1 24.265383 12.255862 38.026134
1826  1 24.265383 12.255862 42.028885
1827  1 24.265383 14.707035  2.001375
1828  1 24.265383 14.707035  6.004126
1829  1 24.265383 14.707035 10.006877
1830  1 24.265383 14.707035 14.009628
1831  1 24.265383 14.707035 18.012379
1832  1 24.265383 14.707035 22.015130
1833  1 24.265383 14.707035 26.017881
1834  1 24.265383 14.707035 30.020632
1835  1 24.265383 14.707035 34.023383
1836  1 24.265383 14.707035 38.026134
1837  1 24.265383 14.707035 42.028885
1838  1 24.265383 17.158207  2.001375
1839  1 24.265383 17.158207  6.004126
1840  1 24.265383 17.158207 10.006877
1841  1 24.265383 17.158207 14.009628
1842  1 24.265383 17.158207 18.012379
1843  1 24.265383 17.158207 22.015130
1844  1 24.265383 17.158207 26.017881
1845  1 24.265383 17.158207 30.020632
1846  1 24.265383 17.158207 34.023383
1847  1 24.265383 17.158207 38.026134
1848  1 24.265383 17.158207 42.028885
1849  1 24.265383 19.609379  2.001375
1850  1 24.265383 19.609379  6.004126
1851  1 24.265383 19.609379 10.006877
1852  1 24.265383 19.609379 14.009628
1853  1 24.265383 19.609379 18.012379
1854  1 24.265383 18.996586 22.627923
1855  1 24.265383 19.609379 26.017881
1856  1 24.265383 19.609379 30.020632
1857  1 24.265383 19.609379 34.023383
1858  1 24.265383 19.609379 38.026134
1859  1 24.265383 19.609379 42.028885
1860  1 24.265383 22.060552  2.001375
1861  1 24.265383 22.060552  6.004126
1862  1 24.265383 22.060552 10.006877
1863  1 24.265383 22.060552 14.009628
1864  1 24.265383 22.060552 18.012379
1865  1 24.265383 22.060552 22.015130
1866  1 24.265383 22.060552 26.017881
1867  1 24.265383 22.060552 30.020632
1868  1 24.265383 22.060552 34.023383
1869  1 24.265383 22.060552 38.026134
1870  1 24.265383 22.060552 42.028885
1871  1 24.265383 24.511724  2.001375
1872  1 24.265383 24.511724  6.004126
1873  1 24.265383 24.511724 10.006877
1874  1 24.265383 24.511724 14.009628
1875  1 24.265383 24.511724 18.012379
1876  1 24.265383 24.511724 22.015130
1877  1 24.265383 24.511724 26.017881
1878  1 24.265383 24.511724 30.020632
1879  1 24.265383 24.511724 34.023383
1880  1 24.265383 24.511724 38.026134
1881  1 24.265383 24.511724 42.028885
1882  1 24.265383 26.962897  2.001375
1883  1 24.265383 26.962897  6.004126
1884  1 24.265383 26.962897 10.006877
1885  1 24.265383 26.962897 14.009628
1886  1 24.265383 26.962897 18.012379
1887  1 24.265383 26.962897 22.015130
1888  1 24.265383 26.962897 26.017881
1889  1 24.265383 26.962897 30.020632
1890  1 24.265383 26.962897 34.023383
1891  1 24.265383 26.962897 38.026134
1892  1 24.265383 26.962897 42.028885
1893  1 24.265383 29.414069  2.001375
1894  1 24.265383 29.414069  6.004126
1895  1 24.265383 29.414069 10.006877
1896  1 24.265383 29.414069 14.009628
1897  1 24.265383 29.414069 18.012379
1898  1 24.265383 29.414069 22.015130
1899  1 24.265383 29.414069 26.017881
1900  1 24.265383 29.414069 30.020632
1901  1 24.265383 29.414069 34.023383
1902  1 24.265383 29.414069 38.026134
1903  1 24.265383 29.414069 42.028885
1904  1 24.265383 31.865242  2.001375
1905  1 24.265383 31.865242  6.004126
1906  1 24.265383 31.865242 10.006877
1907  1 24.265383 31.865242 14.009628
1908  1 24.265383 31.865242 18.012379
1909  1 24.265383 31.865242 22.015130
1910  1 24.265383 31.865242 26.017881
1911  1 24.265383 31.865242 30.020632
1912  1 24.265383 31.865242 34.023383
1913  1 24.265383 31.865242 38.026134
1914  1 24.265383 31.865242 42.028885
1915  1 24.265383 34.316414  2.001375
1916  1 24.265383 34.316414  6.004126
1917  1 24.265383 34.316414 10.006877
1918  1 24.265383 34.316414 14.009628
1919  1 24.265383 34.316414 18.012379
1920  1 24.265383 34.316414 22.015130
1921  1 24.265383 34.316414 26.017881
1922  1 24.265383 34.316414 30.020632
1923  1 24.265383 34.316414 34.023383
1924  1 24.265383 34.316414 38.026134
1925  1 24.265383 34.316414 42.028885
1926  1 24.265383 36.767587  2.001375
1927  1 24.265383 36.767587  6.004126
1928  1 24.265383 36.767587 10.006877
1929  1 24.265383 36.767587 14.009628
1930  1 24.265383 36.767587 18.012379
1931  1 24.265383 36.767587 22.015130
1932  1 24.265383 36.767587 26.017881
1933  1 24.265383 36.767587 30.020632
1934  1 24.265383 36.767587 34.023383
1935  1 24.265383 36.767587 38.026134
1936  1 24.265383 36.767587 42.028885
1937  1 31.198350  0.000000  2.001375
1938  1 31.198350  0.000000  6.004126
1939  1 31.198350  0.000000 10.006877
1940  1 31.198350  0.000000 14.009628
1941  1 31.198350  0.000000 18.012379
1942  1 31.198350  0.000000 22.015130
1943  1 31.198350  0.000000 26.017881
1944  1 31.198350  0.000000 30.020632
1945  1 31.198350  0.000000 34.023383
1946  1 31.198350  0.000000 38.026134
1947  1 31.198350  0.000000 42.028885
1948  1 31.198350  2.451172  2.001375
1949  1 31.198350  2.451172  6.004126
1950  1 31.198350  2.451172 10.006877
1951  1 31.198350  2.451172 14.009628
1952  1 31.198350  2.451172 18.012379
1953  1 31.198350  2.451172 22.015130
1954  1 31.198350  2.451172 26.017881
1955  1 31.198350  2.451172 30.020632
1956  1 31.198350  2.451172 34.023383
1957  1 31.198350  2.451172 38.026134
1958  1 31.198350  2.451172 42.028885
1959  1 31.198350  4.902345  2.001375
1960  1 31.198350  4.902345  6.004126
1961  1 31.198350  4.902345 10.006877
1962  1 31.198350  4.902345 14.009628
1963  1 31.198350  4.902345 18.012379
1964  1 31.198350  4.902345 22.015130
1965  1 31.198350  4.902345 26.017881
1966  1 31.198350  4.902345 30.020632
1967  1 31.198350  4.902345 34.023383
1968  1 31.198350  4.902345 38.026134
1969  1 31.198350  4.902345 42.028885
1970  1 31.198350  7.353517  2.001375
1971  1 31.198350  7.353517  6.004126
1972  1 31.198350  7.353517 10.006877
1973  1 31.198350  7.353517 14.009628
1974  1 31.198350  7.353517 18.012379
1975  1 31.198350  7.353517 22.015130
1976  1 31.198350  7.353517 26.017881
1977  1 31.198350  7.353517 30.020632
1978  1 31.198350  7.353517 34.023383
1979  1 31.198350  7.353517 38.026134
1980  1 31.198350  7.353517 42.028885
1981  1 31.198350  9.804690  2.001375
1982  1 31.198350  9.804690  6.004126
1983  1 31.198350  9.804690 10.006877
1984  1 31.198350  9.804690 14.009628
1985  1 31.198350  9.804690 18.012379
1986  1 31.198350  9.804690 22.015130
1987  1 31.198350  9.804690 26.017881
1988  1 31.198350  9.804690 30.020632
1989  1 31.198350  9.804690 34.023383
1990  1 31.198350  9.804690 38.026134
1991  1 31.198350  9.804690 42.028885
1992  1 31.198350 12.255862  2.001375
1993  1 31.198350 12.255862  6.004126
1994  1 31.198350 12.255862 10.006877
1995  1 31.198350 12.255862 14.009628
1996  1 31.198350 12.255862 18.012379
1997  1 31.198350 12.255862 22.015130
1998  1 31.198350 12.255862 26.017881
1999  1 31.198350 12.255862 30.020632
2000  1 31.198350 12.255862 34.023383
2001  1 31.198350 12.255862 38.026134
2002  1 31.198350 12.255862 42.028885
2003  1 31.198350 14.707035  2.001375
2004  1 31.198350 14.707035  6.004126
2005  1 31.198350 14.707035 10.006877
2006  1 31.198350 14.707035 14.009628
2007  1 31.198350 14.707035 18.012379
2008  1 31.198350 14.707035 22.015130
2009  1 31.198350 14.707035 26.017881
2010  1 31.198350 14.707035 30.020632
2011  1 31.198350 14.707035 34.023383
2012  1 31.198350 14.707035 38.026134
2013  1 31.198350 14.707035 42.028885
2014  1 31.198350 17.158207  2.001375
2015  1 31.198350 17.158207  6.004126
2016  1 31.198350 17.158207 10.006877
2017  1 31.198350 17.158207 14.009628
2018  1 31.198350 17.158207 18.012379
2019  1 31.198350 17.158207 22.015130
2020  1 31.198350 17.158207 26.017881
2021  1 31.198350 17.158207 30.020632
2022  1 31.198350 17.158207 34.023383
2023  1 31.198350 17.158207 38.026134
2024  1 31.198350 17.158207 42.028885
2025  1 31.198350 19.609379  2.001375
2026  1 31.198350 19.609379  6.004126
2027  1 31.198350 19.609379 10.006877
2028  1 31.198350 19.609379 14.009628
2029  1 31.198350 19.609379 18.012379
2030  1 31.198350 19.609379 22.015130
2031  1 31.198350 19.609379 26.017881
2032  1 31.198350 19.609379 30.020632
2033  1 31.198350 19.609379 34.023383
2034  1 31.198350 19.609379 38.026134
2035  1 31.198350 19.609379 42.028885
2036  1 31.198350 22.060552  2.001375
2037  1 31.198350 22.060552  6.004126
2038  1 31.198350 22.060552 10.006877
2039  1 31.198350 22.060552 14.009628
2040  1 31.198350 22.060552 18.012379
2041  1 31.198350 22.060552 22.015130
2042  1 31.198350 22.060552 26.017881
2043  1 31.198350 22.060552 30.020632
2044  1 31.198350 22.060552 34.023383
2045  1 31.198350 22.060552 38.026134
2046  1 31.198350 22.060552 42.028885
2047  1 31.198350 24.511724  2.001375
2048  1 31.198350 24.511724  6.004126
2049  1 31.198350 24.511724 10.006877
2050  1 31.198350 24.511724 14.009628
2051  1 31.198350 24.511724 18.012379
2052  1 31.198350 24.511724 22.015130
2053  1 31.198350 24.511724 26.017881
2054  1 31.198350 24.511724 30.020632
2055  1 31.198350 24.511724 34.023383
2056  1 31.198350 24.511724 38.026134
2057  1 31.198350 24.511724 42.028885
2058  1 31.198350 26.962897  2.001375
2059  1 31.198350 26.962897  6.004126
2060  1 31.198350 26.962897 10.006877
2061  1 31.198350 26.962897 14.009628
2062  1 31.198350 26.962897 18.012379
2063  1 31.198350 26.962897 22.015130
2064  1 31.198350 26.962897 26.017881
2065  1 31.198350 26.962897 30.020632
2066  1 31.198350 26.962897 34.023383
2067  1 31.198350 26.962897 38.026134
2068  1 31.198350 26.962897 42.028885
2069  1 31.198350 29.414069  2.001375
2070  1 31.198350 29.414069  6.004126
2071  1 31.198350 29.414069 10.006877
2072  1 31.198350 29.414069 14.009628
2073  1 31.198350 29.414069 18.012379
2074  1 31.198350 29.414069 22.015130
2075  1 31.198350 29.414069 26.017881
2076  1 31.198350 29.414069 30.020632
2077  1 31.198350 29.414069 34.023383
2078  1 31.198350 29.414069 38.026134
2079  1 31.198350 29.414069 42.028885
2080  1 31.198350 31.865242  2.001375
2081  1 31.198350 31.865242  6.004126
2082  1 31.198350 31.865242 10.006877
2083  1 31.198350 31.865242 14.009628
2084  1 31.198350 31.865242 18.012379
2085  1 31.198350 31.865242 22.015130
2086  1 31.198350 31.865242 26.017881
2087  1 31.198350 31.865242 30.020632
2088  1 31.198350 31.865242 34.023383
2089  1 31.198350 31.865242 38.026134
2090  1 31.198350 31.865242 42.028885
2091  1 31.198350 34.316414  2.001375
2092  1 31.198350 34.316414  6.004126
2093  1 31.198350 34.316414 10.006877
2094  1 31.198350 34.316414 14.009628
2095  1 31.198350 34.316414 18.012379
2096  1 31.198350 34.316414 22.015130
2097  1 31.198350 34.316414 26.017881
2098  1 31.198350 34.316414 30.020632
2099  1 31.198350 34.316414 34.023383
2100  1 31.198350 34.316414 38.026134
2101  1 31.198350 34.316414 42.028885
2102  1 31.198350 36.767587  2.001375
2103  1 31.198350 36.767587  6.004126
2104  1 31.198350 36.767587 10.006877
2105  1 31.198350 36.767587 14.009628
2106  1 31.198350 36.767587 18.012379
2107  1 31.198350 36.767587 22.015130
2108  1 31.198350 36.767587 26.017881
2109  1 31.198350 36.767587 30.020632
2110  1 31.198350 36.767587 34.023383
2111  1 31.198350 36.767587 38.026134
2112  1 31.198350 36.767587 42.028885
2113  1 38.131316  0.000000  2.001375
2114  1 38.131316  0.000000  6.004126
2115  1 38.131316  0.000000 10.006877
2116  1 38.131316  0.000000 14.009628
2117  1 38.131316  0.000000 18.012379
2118  1 38.131316  0.000000 22.015130
2119  1 38.131316  0.000000 26.017881
2120  1 38.131316  0.000000 30.020632
2121  1 38.131316  0.000000 34.023383
2122  1 38.131316  0.000000 38.026134
2123  1 38.131316  0.000000 42.028885
2124  1 38.131316  2.451172  2.001375
2125  1 38.131316  2.451172  6.004126
2126  1 38.131316  2.451172 10.006877
2127  1 38.131316  2.451172 14.009628
2128  1 38.131316  2.451172 18.012379
2129  1 38.131316  2.451172 22.015130
2130  1 38.131316  2.451172 26.017881
2131  1 38.131316  2.451172 30.020632
2132  1 38.131316  2.451172 34.023383
2133  1 38.131316  2.451172 38.026134
2134  1 38.131316  2.451172 42.028885
2135  1 38.131316  4.902345  2.001375
2136  1 38.131316  4.902345  6.004126
2137  1 38.131316  4.902345 10.006877
2138  1 38.131316  4.902345 14.009628
2139  1 38.131316  4.902345 18.012379
2140  1 38.131316  4.902345 22.015130
2141  1 38.131316  4.902345 26.017881
2142  1 38.131316  4.902345 30.020632
2143  1 38.131316  4.902345 34.023383
2144  1 38.131316  4.902345 38.026134
2145  1 38.131316  4.902345 42.028885
2146  1 38.131316  7.353517  2.001375
2147  1 38.131316  7.353517  6.004126
2148  1 38.131316  7.353517 10.006877
2149  1 38.131316  7.353517 14.009628
2150  1 38.131316  7.353517 18.012379
2151  1 38.131316  7.353517 22.015130
2152  1 38.131316  7.353517 26.017881
2153  1 38.131316  7.353517 30.020632
2154  1 38.131316  7.353517 34.023383
2155  1 38.131316  7.353517 38.026134
2156  1 38.131316  7.353517 42.028885
2157  1 38.131316  9.804690  2.001375
2158  1 38.131316  9.804690  6.004126
2159  1 38.131316  9.804690 10.006877
2160  1 38.131316  9.804690 14.009628
2161  1 38.131316  9.804690 18.012379
2162  1 38.131316  9.804690 22.015130
2163  1 38.131316  9.804690 26.017881
2164  1 38.131316  9.804690 30.020632
2165  1 38.131316  9.804690 34.023383
2166  1 38.131316  9.804690 38.026134
2167  1 38.131316  9.804690 42.028885
2168  1 38.131316 12.255862  2.001375
2169  1 38.131316 12.255862  6.004126
2170  1 38.131316 12.255862 10.006877
2171  1 38.131316 12.255862 14.009628
2172  1 38.131316 12.255862 18.012379
2173  1 38.131316 12.255862 22.015130
2174  1 38.131316 12.255862 26.017881
2175  1 38.131316 12.255862 30.020632
2176  1 38.131316 12.255862 34.023383
2177  1 38.131316 12.255862 38.026134
2178  1 38.131316 12.255862 42.028885
2179  1 38.131316 14.707035  2.001375
2180  1 38.131316 14.707035  6.004126
2181  1 38.131316 14.707035 10.006877
2182  1 38.131316 14.707035 14.009628
2183  1 38.131316 14.707035 18.012379
2184  1 38.131316 14.707035 22.015130
2185  1 38.131316 14.707035 26.017881
2186  1 38.131316 14.707035 30.020632
2187  1 38.131316 14.707035 34.023383
2188  1 38.131316 14.707035 38.026134
2189  1 38.131316 14.707035 42.028885
2190  1 38.131316 17.158207  2.001375
2191  1 38.131316 17.158207  6.004126
2192  1 38.131316 17.158207 10.006877
2193  1 38.131316 17.158207 14.009628
2194  1 38.131316 17.158207 18.012379
2195  1 38.131316 17.158207 22.015130
2196  1 38.131316 17.158207 26.017881
2197  1 38.131316 17.158207 30.020632
2198  1 38.131316 17.158207 34.023383
2199  1 38.131316 17.158207 38.026134
2200  1 38.131316 17.158207 42.028885
2201  1 38.131316 19.609379  2.001375
2202  1 38.131316 19.609379  6.004126
2203  1 38.131316 19.609379 10.006877
2204  1 38.131316 19.609379 14.009628
2205  1 38.131316 19.609379 18.012379
2206  1 38.131316 19.609379 22.015130
2207  1 38.131316 19.609379 26.017881
2208  1 38.131316 19.609379 30.020632
2209  1 38.131316 19.609379 34.023383
2210  1 38.131316 19.609379 38.026134
2211  1 38.131316 19.609379 42.028885
2212  1 38.131316 22.060552  2.001375
2213  1 38.131316 22.060552  6.004126
2214  1 38.131316 22.060552 10.006877
2215  1 38.131316 22.060552 14.009628
2216  1 38.131316 22.060552 18.012379
2217  1 38.131316 22.060552 22.015130
2218  1 38.131316 22.060552 26.017881
2219  1 38.131316 22.060552 30.020632
2220  1 38.131316 22.060552 34.023383
2221  1 38.131316 22.060552 38.026134
2222  1 38.131316 22.060552 42.028885
2223  1 38.131316 24.511724  2.001375
2224  1 38.131316 24.511724  6.004126
2225  1 38.131316 24.511724 10.006877
2226  1 38.131316 24.511724 14.009628
2227  1 38.131316 24.511724 18.012379
2228  1 38.131316 24.511724 22.015130
2229  1 38.131316 24.511724 26.017881
2230  1 38.131316 24.511724 30.020632
2231  1 38.131316 24.511724 34.023383
2232  1 38.131316 24.511724 38.026134
2233  1 38.131316 24.511724 42.028885
2234  1 38.131316 26.962897  2.001375
2235  1 38.131316 26.962897  6.004126
2236  1 38.131316 26.962897 10.006877
2237  1 38.131316 26.962897 14.009628
2238  1 38.131316 26.962897 18.012379
2239  1 38.131316 26.962897 22.015130
2240  1 38.131316 26.962897 26.017881
2241  1 38.131316 26.962897 30.020632
2242  1 38.131316 26.962897 34.023383
2243  1 38.131316 26.962897 38.026134
2244  1 38.131316 26.962897 42.028885
2245  1 38.131316 29.414069  2.001375
2246  1 38.131316 29.414069  6.004126
2247  1 38.131316 29.414069 10.006877
2248  1 38.131316 29.414069 14.009628
2249  1 38.131316 29.414069 18.012379
2250  1 38.131316 29.414069 22.015130
2251  1 38.131316 29.414069 26.017881
2252  1 38.131316 29.414069 30.020632
2253  1 38.131316 29.414069 34.023383
2254  1 38.131316 29.414069 38.026134
2255  1 38.131316 29.414069 42.028885
2256  1 38.131316 31.865242  2.001375
2257  1 38.131316 31.865242  6.004126
2258  1 38.131316 31.865242 10.006877
2259  1 38.131316 31.865242 14.009628
2260  1 38.131316 31.865242 18.012379
2261  1 38.131316 31.865242 22.015130
2262  1 38.131316 31.865242 26.017881
2263  1 38.131316 31.865242 30.020632
2264  1 38.131316 31.865242 34.023383
2265  1 38.131316 31.865242 38.026134
2266  1 38.131316 31.865242 42.028885
2267  1 38.131316 34.316414  2.001375
2268  1 38.131316 34.316414  6.004126
2269  1 38.131316 34.316414 10.006877
2270  1 38.131316 34.316414 14.009628
2271  1 38.131316 34.316414 18.012379
2272  1 38.131316 34.316414 22.015130
2273  1 38.131316 34.316414 26.017881
2274  1 38.131316 34.316414 30.020632
2275  1 38.131316 34.316414 34.023383
2276  1 38.131316 34.316414 38.026134
2277  1 38.131316 34.316414 42.028885
2278  1 38.131316 36.767587  2.001375
2279  1 38.131316 36.767587  6.004126
2280  1 38.131316 36.767587 10.006877
2281  1 38.131316 36.767587 14.009628
2282  1 38.131316 36.767587 18.012379
2283  1 38.131316 36.767587 22.015130
2284  1 38.131316 36.767587 26.017881
2285  1 38.131316 36.767587 30.020632
2286  1 38.131316 36.767587 34.023383
2287  1 38.131316 36.767587 38.026134
2288  1 38.131316 36.767587 42.028885
2289  1 45.064283  0.000000  2.001375
2290  1 45.064283  0.000000  6.004126
2291  1 45.064283  0.000000 10.006877
2292  1 45.064283  0.000000 14.009628
2293  1 45.064283  0.000000 18.012379
2294  1 45.064283  0.000000 22.015130
2295  1 45.064283  0.000000 26.017881
2296  1 45.064283  0.000000 30.020632
2297  1 45.064283  0.000000 34.023383
2298  1 45.064283  0.000000 38.026134
2299  1 45.064283  0.000000 42.028885
2300  1 45.064283  2.451172  2.001375
2301  1 45.064283  2.451172  6.004126
2302  1 45.064283  2.451172 10.006877
2303  1 45.064283  2.451172 14.009628
2304  1 45.064283  2.451172 18.012379
2305  1 45.064283  2.451172 22.015130
2306  1 45.064283  2.451172 26.017881
2307  1 45.064283  2.451172 30.020632
2308  1 45.064283  2.451172 34.023383
2309  1 45.064283  2.451172 38.026134
2310  1 45.064283  2.451172 42.028885
2311  1 45.064283  4.902345  2.001375
2312  1 45.064283  4.902345  6.004126
2313  1 45.064283  4.902345 10.006877
2314  1 45.064283  4.902345 14.009628
2315  1 45.064283  4.902345 18.012379
2316  1 45.064283  4.902345 22.015130
2317  1 45.064283  4.902345 26.017881
2318  1 45.064283  4.902345 30.020632
2319  1 45.064283  4.902345 34.023383
2320  1 45.064283  4.902345 38.026134
2321  1 45.064283  4.902345 42.028885
2322  1 45.064283  7.353517  2.001375
2323  1 45.064283  7.353517  6.004126
2324  1 45.064283  7.353517 10.006877
2325  1 45.064283  7.353517 14.009628
2326  1 45.064283  7.353517 18.012379
2327  1 45.064283  7.353517 22.015130
2328  1 45.064283  7.353517 26.017881
2329  1 45.064283  7.353517 30.020632
2330  1 45.064283  7.353517 34.023383
2331  1 45.064283  7.353517 38.026134
2332  1 45.064283  7.353517 42.028885
2333  1 45.064283  9.804690  2.001375
2334  1 45.064283  9.804690  6.004126
2335  1 45.064283  9.804690 10.006877
2336  1 45.064283  9.804690 14.009628
2337  1 45.064283  9.804690 18.012379
2338  1 45.064283  9.804690 22.015130
2339  1 45.064283  9.804690 26.017881
2340  1 45.064283  9.804690 30.020632
2341  1 45.064283  9.804690 34.023383
2342  1 45.064283  9.804690 38.026134
2343  1 45.064283  9.804690 42.028885
2344  1 45.064283 12.255862  2.001375
2345  1 45.064283 12.255862  6.004126
2346  1 45.064283 12.255862 10.006877
2347  1 45.064283 12.255862 14.009628
2348  1 45.064283 12.255862 18.012379
2349  1 45.064283 12.255862 22.015130
2350  1 45.064283 12.255862 26.017881
2351  1 45.064283 12.255862 30.020632
2352  1 45.064283 12.255862 34.023383
2353  1 45.064283 12.255862 38.026134
2354  1 45.064283 12.255862 42.028885
2355  1 45.064283 14.707035  2.001375
2356  1 45.064283 14.707035  6.004126
2357  1 45.064283 14.707035 10.006877
2358  1 45.064283 14.707035 14.009628
2359  1 45.064283 14.707035 18.012379
2360  1 45.064283 14.707035 22.015130
2361  1 45.064283 14.707035 26.017881
2362  1 45.064283 14.707035 30.020632
2363  1 45.064283 14.707035 34.023383
2364  1 45.064283 14.707035 38.026134
2365  1 45.064283 14.707035 42.028885
2366  1 45.064283 17.158207  2.001375
2367  1 45.064283 17.158207  6.004126
2368  1 45.064283 17.158207 10.006877
2369  1 45.064283 17.158207 14.009628
2370  1 45.064283 17.158207 18.012379
2371  1 45.064283 17.158207 22.015130
2372  1 45.064283 17.158207 26.017881
2373  1 45.064283 17.158207 30.020632
2374  1 45.064283 17.158207 34.023383
2375  1 45.064283 17.158207 38.026134
2376  1 45.064283 17.158207 42.028885
2377  1 45.064283 19.609379  2.001375
2378  1 45.064283 19.609379  6.004126
2379  1 45.064283 19.609379 10.006877
2380  1 45.064283 19.609379 14.009628
2381  1 45.064283 19.609379 18.012379
2382  1 45.064283 19.609379 22.015130
2383  1 45.064283 19.609379 26.017881
2384  1 45.064283 19.609379 30.020632
2385  1 45.064283 19.609379 34.023383
2386  1 45.064283 19.609379 38.026134
2387  1 45.064283 19.609379 42.028885
2388  1 45.064283 22.060552  2.001375
2389  1 45.064283 22.060552  6.004126
2390  1 45.064283 22.060552 10.006877
2391  1 45.064283 22.060552 14.009628
2392  1 45.064283 22.060552 18.012379
2393  1 45.064283 22.060552 22.015130
2394  1 45.064283 22.060552 26.017881
2395  1 45.064283 22.060552 30.020632
2396  1 45.064283 22.060552 34.023383
2397  1 45.064283 22.060552 38.026134
2398  1 45.064283 22.060552 42.028885
2399  1 45.064283 24.511724  2.001375
2400  1 45.064283 24.511724  6.004126
2401  1 45.064283 24.511724 10.006877
2402  1 45.064283 24.511724 14.009628
2403  1 45.064283 24.511724 18.012379
2404  1 45.064283 24.511724 22.015130
2405  1 45.064283 24.511724 26.017881
2406  1 45.064283 24.511724 30.020632
2407  1 45.064283 24.511724 34.023383
2408  1 45.064283 24.511724 38.026134
2409  1 45.064283 24.511724 42.028885
2410  1 45.064283 26.962897  2.001375
2411  1 45.064283 26.962897  6.004126
2412  1 45.064283 26.962897 10.006877
2413  1 45.064283 26.962897 14.009628
2414  1 45.064283 26.962897 18.012379
2415  1 45.064283 26.962897 22.015130
2416  1 45.064283 26.962897 26.017881
2417  1 45.064283 26.962897 30.020632
2418  1 45.064283 26.962897 34.023383
2419  1 45.064283 26.962897 38.026134
2420  1 45.064283 26.962897 42.028885
2421  1 45.064283 29.414069  2.001375
2422  1 45.064283 29.414069  6.004126
2423  1 45.064283 29.414069 10.006877
2424  1 45.064283 29.414069 14.009628
2425  1 45.064283 29.414069 18.012379
2426  1 45.064283 29.414069 22.015130
2427  1 45.064283 29.414069 26.017881
2428  1 45.064283 29.414069 30.020632
2429  1 45.064283 29.414069 34.023383
2430  1 45.064283 29.414069 38.026134
2431  1 45.064283 29.414069 42.028885
2432  1 45.064283 31.865242  2.001375
2433  1 45.064283 31.865242  6.004126
2434  1 45.064283 31.865242 10.006877
2435  1 45.064283 31.865242 14.009628
2436  1 45.064283 31.865242 18.012379
2437  1 45.064283 31.865242 22.015130
2438  1 45.064283 31.865242 26.017881
2439  1 45.064283 31.865242 30.020632
2440  1 45.064283 31.865242 34.023383
2441  1 45.064283 31.865242 38.026134
2442  1 45.064283 31.865242 42.028885
2443  1 45.064283 34.316414  2.001375
2444  1 45.064283 34.316414  6.004126
2445  1 45.064283 34.316414 10.006877
2446  1 45.064283 34.316414 14.009628
2447  1 45.064283 34.316414 18.012379
2448  1 45.064283 34.316414 22.015130
2449  1 45.064283 34.316414 26.017881
2450  1 45.064283 34.316414 30.020632
2451  1 45.064283 34.316414 34.023383
2452  1 45.064283 34.316414 38.026134
2453  1 45.064283 34.316414 42.028885
2454  1 45.064283 36.767587  2.001375
2455  1 45.064283 36.767587  6.004126
2456  1 45.064283 36.767587 10.006877
2457  1 45.064283 36.767587 14.009628
2458  1 45.064283 36.767587 18.012379
2459  1 45.064283 36.767587 22.015130
2460  1 45.064283 36.767587 26.017881
2461  1 45.064283 36.767587 30.020632
2462  1 45.064283 36.767587 34.023383
2463  1 45.064283 36.767587 38.026134
2464  1 45.064283 36.767587 42.028885
2465  1  1.155493  1.634115  2.001375
2466  1  1.155493  1.634115  6.004126
2467  1  1.155493  1.634115 10.006877
2468  1  1.155493  1.634115 14.009628
2469  1  1.155493  1.634115 18.012379
2470  1  1.155493  1.634115 22.015130
2471  1  1.155493  1.634115 26.017881
2472  1  1.155493  1.634115 30.020632
2473  1  1.155493  1.634115 34.023383
2474  1  1.155493  1.634115 38.026134
2475  1  1.155493  1.634115 42.028885
2476  1  1.155493  4.085287  2.001375
2477  1  1.155493  4.085287  6.004126
2478  1  1.155493  4.085287 10.006877
2479  1  1.155493  4.085287 14.009628
2480  1  1.155493  4.085287 18.012379
2481  1  1.155493  4.085287 22.015130
2482  1  1.155493  4.085287 26.017881
2483  1  1.155493  4.085287 30.020632
2484  1  1.155493  4.085287 34.023383
2485  1  1.155493  4.085287 38.026134
2486  1  1.155493  4.085287 42.028885
2487  1  1.155493  6.536460  2.001375
2488  1  1.155493  6.536460  6.004126
2489  1  1.155493  6.536460 10.006877
2490  1  1.155493  6.536460 14.009628
2491  1  1.155493  6.536460 18.012379
2492  1  1.155493  6.536460 22.015130
2493  1  1.155493  6.536460 26.017881
2494  1  1.155493  6.536460 30.020632
2495  1  1.155493  6.536460 34.023383
2496  1  1.155493  6.536460 38.026134
2497  1  1.155493  6.536460 42.028885
2498  1  1.155493  8.987632  2.001375
2499  1  1.155493  8.987632  6.004126
2500  1  1.155493  8.987632 10.006877
2501  1  1.155493  8.987632 14.009628
2502  1  1.155493  8.987632 18.012379
2503  1  1.155493  8.987632 22.015130
2504  1  1.155493  8.987632 26.017881
2505  1  1.155493  8.987632 30.020632
2506  1  1.155493  8.987632 34.023383
2507  1  1.155493  8.987632 38.026134
2508  1  1.155493  8.987632 42.028885
2509  1  1.155493 11.438805  2.001375
2510  1  1.155493 11.438805  6.004126
2511  1  1.155493 11.438805 10.006877
2512  1  1.155493 11.438805 14.009628
2513  1  1.155493 11.438805 18.012379
2514  1  1.155493 11.438805 22.015130
2515  1  1.155493 11.438805 26.017881
2516  1  1.155493 11.438805 30.020632
2517  1  1.155493 11.438805 34.023383
2518  1  1.155493 11.438805 38.026134
2519  1  1.155493 11.438805 42.028885
2520  1  1.155493 13.889977  2.001375
2521  1  1.155493 13.889977  6.004126
2522  1  1.155493 13.889977 10.006877
2523  1  1.155493 13.889977 14.009628
2524  1  1.155493 13.889977 18.012379
2525  1  1.155493 13.889977 22.015130
2526  1  1.155493 13.889977 26.017881
2527  1  1.155493 13.889977 30.020632
2528  1  1.155493 13.889977 34.023383
2529  1  1.155493 13.889977 38.026134
2530  1  1.155493 13.889977 42.028885
2531  1  1.155493 16.341150  2.001375
2532  1  1.155493 16.341150  6.004126
2533  1  1.155493 16.341150 10.006877
2534  1  1.155493 16.341150 14.009628
2535  1  1.155493 16.341150 18.012379
2536  1  1.155493 16.341150 22.015130
2537  1  1.155493 16.341150 26.017881
2538  1  1.155493 16.341150 30.020632
2539  1  1.155493 16.341150 34.023383
2540  1  1.155493 16.341150 38.026134
2541  1  1.155493 16.341150 42.028885
2542  1  1.155493 18.792322  2.001375
2543  1  1.155493 18.792322  6.004126
2544  1  1.155493 18.792322 10.006877
2545  1  1.155493 18.792322 14.009628
2546  1  1.155493 18.792322 18.012379
2547  1  1.155493 18.792322 22.015130
2548  1  1.155493 18.792322 26.017881
2549  1  1.155493 18.792322 30.020632
2550  1  1.155493 18.792322 34.023383
2551  1  1.155493 18.792322 38.026134
2552  1  1.155493 18.792322 42.028885
2553  1  1.155493 21.243494  2.001375
2554  1  1.155493 21.243494  6.004126
2555  1  1.155493 21.243494 10.006877
2556  1  1.155493 21.243494 14.009628
2557  1  1.155493 21.243494 18.012379
2558  1  1.155493 21.243494 22.015130
2559  1  1.155493 21.243494 26.017881
2560  1  1.155493 21.243494 30.020632
2561  1  1.155493 21.243494 34.023383
2562  1  1.155493 21.243494 38.026134
2563  1  1.155493 21.243494 42.028885
2564  1  1.155493 23.694667  2.001375
2565  1  1.155493 23.694667  6.004126
2566  1  1.155493 23.694667 10.006877
2567  1  1.155493 23.694667 14.009628
2568  1  1.155493 23.694667 18.012379
2569  1  1.155493 23.694667 22.015130
2570  1  1.155493 23.694667 26.017881
2571  1  1.155493 23.694667 30.020632
2572  1  1.155493 23.694667 34.023383
2573  1  1.155493 23.694667 38.026134
2574  1  1.155493 23.694667 42.028885
2575  1  1.155493 26.145839  2.001375
2576  1  1.155493 26.145839  6.004126
2577  1  1.155493 26.145839 10.006877
2578  1  1.155493 26.145839 14.009628
2579  1  1.155493 26.145839 18.012379
2580  1  1.155493 26.145839 22.015130
2581  1  1.155493 26.145839 26.017881
2582  1  1.155493 26.145839 30.020632
2583  1  1.155493 26.145839 34.023383
2584  1  1.155493 26.145839 38.026134
2585  1  1.155493 26.145839 42.028885
2586  1  1.155493 28.597012  2.001375
2587  1  1.155493 28.597012  6.004126
2588  1  1.155493 28.597012 10.006877
2589  1  1.155493 28.597012 14.009628
2590  1  1.155493 28.597012 18.012379
2591  1  1.155493 28.597012 22.015130
2592  1  1.155493 28.597012 26.017881
2593  1  1.155493 28.597012 30.020632
2594  1  1.155493 28.597012 34.023383
2595  1  1.155493 28.597012 38.026134
2596  1  1.155493 28.597012 42.028885
2597  1  1.155493 31.048184  2.001375
2598  1  1.155493 31.048184  6.004126
2599  1  1.155493 31.048184 10.006877
2600  1  1.155493 31.048184 14.009628
2601  1  1.155493 31.048184 18.012379
2602  1  1.155493 31.048184 22.015130
2603  1  1.155493 31.048184 26.017881
2604  1  1.155493 31.048184 30.020632
2605  1  1.155493 31.048184 34.023383
2606  1  1.155493 31.048184 38.026134
2607  1  1.155493 31.048184 42.028885
2608  1  1.155493 33.499357  2.001375
2609  1  1.155493 33.499357  6.004126
2610  1  1.155493 33.499357 10.006877
2611  1  1.155493 33.499357 14.009628
2612  1  1.155493 33.499357 18.012379
2613  1  1.155493 33.499357 22.015130
2614  1  1.155493 33.499357 26.017881
2615  1  1.155493 33.499357 30.020632
2616  1  1.155493 33.499357 34.023383
2617  1  1.155493 33.499357 38.026134
2618  1  1.155493 33.499357 42.028885
2619  1  1.155493 35.950529  2.001375
2620  1  1.155493 35.950529  6.004126
2621  1  1.155493 35.950529 10.006877
2622  1  1.155493 35.950529 14.009628
2623  1  1.155493 35.950529 18.012379
2624  1  1.155493 35.950529 22.015130
2625  1  1.155493 35.950529 26.017881
2626  1  1.155493 35.950529 30.020632
2627  1  1.155493 35.950529 34.023383
2628  1  1.155493 35.950529 38.026134
2629  1  1.155493 35.950529 42.028885
2630  1  1.155493 38.401701  2.001375
2631  1  1.155493 38.401701  6.004126
2632  1  1.155493 38.401701 10.006877
2633  1  1.155493 38.401701 14.009628
2634  1  1.155493 38.401701 18.012379
2635  1  1.155493 38.401701 22.015130
2636  1  1.155493 38.401701 26.017881
2637  1  1.155493 38.401701 30.020632
2638  1  1.155493 38.401701 34.023383
2639  1  1.155493 38.401701 38.026134
2640  1  1.155493 38.401701 42.028885
2641  1  8.088460  1.634115  2.001375
2642  1  8.088460  1.634115  6.004126
2643  1  8.088460  1.634115 10.006877
2644  1  8.088460  1.634115 14.009628
2645  1  8.088460  1.634115 18.012379
2646  1  8.088460  1.634115 22.015130
2647  1  8.088460  1.634115 26.017881
2648  1  8.088460  1.634115 30.020632
2649  1  8.088460  1.634115 34.023383
2650  1  8.088460  1.634115 38.026134
2651  1  8.088460  1.634115 42.028885
2652  1  8.088460  4.085287  2.001375
2653  1  8.088460  4.085287  6.004126
2654  1  8.088460  4.085287 10.006877
2655  1  8.088460  4.085287 14.009628
2656  1  8.088460  4.085287 18.012379
2657  1  8.088460  4.085287 22.015130
2658  1  8.088460  4.085287 26.017881
2659  1  8.088460  4.085287 30.020632
2660  1  8.088460  4.085287 34.023383
2661  1  8.088460  4.085287 38.026134
2662  1  8.088460  4.085287 42.028885
2663  1  8.088460  6.536460  2.001375
2664  1  8.088460  6.536460  6.004126
2665  1  8.088460  6.536460 10.006877
2666  1  8.088460  6.536460 14.009628
2667  1  8.088460  6.536460 18.012379
2668  1  8.088460  6.536460 22.015130
2669  1  8.088460  6.536460 26.017881
2670  1  8.088460  6.536460 30.020632
2671  1  8.088460  6.536460 34.023383
2672  1  8.088460  6.536460 38.026134
2673  1  8.088460  6.536460 42.028885
2674  1  8.088460  8.987632  2.001375
2675  1  8.088460  8.987632  6.004126
2676  1  8.088460  8.987632 10.006877
2677  1  8.088460  8.987632 14.009628
2678  1  8.088460  8.987632 18.012379
2679  1  8.088460  8.987632 22.015130
2680  1  8.088460  8.987632 26.017881
2681  1  8.088460  8.987632 30.020632
2682  1  8.088460  8.987632 34.023383
2683  1  8.088460  8.987632 38.026134
2684  1  8.088460  8.987632 42.028885
2685  1  8.088460 11.438805  2.001375
2686  1  8.088460 11.438805  6.004126
2687  1  8.088460 11.438805 10.006877
2688  1  8.088460 11.438805 14.009628
2689  1  8.088460 11.438805 18.012379
2690  1  8.088460 11.438805 22.015130
2691  1  8.088460 11.438805 26.017881
2692  1  8.088460 11.438805 30.020632
2693  1  8.088460 11.438805 34.023383
2694  1  8.088460 11.438805 38.026134
2695  1  8.088460 11.438805 42.028885
2696  1  8.088460 13.889977  2.001375
2697  1  8.088460 13.889977  6.004126
2698  1  8.088460 13.889977 10.006877
2699  1  8.088460 13.889977 14.009628
2700  1  8.088460 13.889977 18.012379
2701  1  8.088460 13.889977 22.015130
2702  1  8.088460 13.889977 26.017881
2703  1  8.088460 13.889977 30.020632
2704  1  8.088460 13.889977 34.023383
2705  1  8.088460 13.889977 38.026134
2706  1  8.088460 13.889977 42.028885
2707  1  8.088460 16.341150  2.001375
2708  1  8.088460 16.341150  6.004126
2709  1  8.088460 16.341150 10.006877
2710  1  8.088460 16.341150 14.009628
2711  1  8.088460 16.341150 18.012379
2712  1  8.088460 16.341150 22.015130
2713  1  8.088460 16.341150 26.017881
2714  1  8.088460 16.341150 30.020632
2715  1  8.088460 16.341150 34.023383
2716  1  8.088460 16.341150 38.026134
2717  1  8.088460 16.341150 42.028885
2718  1  8.088460 18.792322  2.001375
2719  1  8.088460 18.792322  6.004126
2720  1  8.088460 18.792322 10.006877
2721  1  8.088460 18.792322 14.009628
2722  1  8.088460 18.792322 18.012379
2723  1  8.088460 18.792322 22.015130
2724  1  8.088460 18.792322 26.017881
2725  1  8.088460 18.792322 30.020632
2726  1  8.088460 18.792322 34.023383
2727  1  8.088460 18.792322 38.026134
2728  1  8.088460 18.792322 42.028885
2729  1  8.088460 21.243494  2.001375
2730  1  8.088460 21.243494  6.004126
2731  1  8.088460 21.243494 10.006877
2732  1  8.088460 21.243494 14.009628
2733  1  8.088460 21.243494 18.012379
2734  1  8.088460 21.243494 22.015130
2735  1  8.088460 21.243494 26.017881
2736  1  8.088460 21.243494 30.020632
2737  1  8.088460 21.243494 34.023383
2738  1  8.088460 21.243494 38.026134
2739  1  8.088460 21.243494 42.028885
2740  1  8.088460 23.694667  2.001375
2741  1  8.088460 23.694667  6.004126
2742  1  8.088460 23.694667 10.006877
2743  1  8.088460 23.694667 14.009628
2744  1  8.088460 23.694667 18.012379
2745  1  8.088460 23.694667 22.015130
2746  1  8.088460 23.694667 26.017881
2747  1  8.088460 23.694667 30.020632
2748  1  8.088460 23.694667 34.023383
2749  1  8.088460 23.694667 38.026134
2750  1  8.088460 23.694667 42.028885
2751  1  8.088460 26.145839  2.001375
2752  1  8.088460 26.145839  6.004126
2753  1  8.088460 26.145839 10.006877
2754  1  8.088460 26.145839 14.009628
2755  1  8.088460 26.145839 18.012379
2756  1  8.088460 26.145839 22.015130
2757  1  8.088460 26.145839 26.017881
2758  1  8.088460 26.145839 30.020632
2759  1  8.088460 26.145839 34.023383
2760  1  8.088460 26.145839 38.026134
2761  1  8.088460 26.145839 42.028885
2762  1  8.088460 28.597012  2.001375
2763  1  8.088460 28.597012  6.004126
2764  1  8.088460 28.597012 10.006877
2765  1  8.088460 28.597012 14.009628
2766  1  8.088460 28.597012 18.012379
2767  1  8.088460 28.597012 22.015130
2768  1  8.088460 28.597012 26.017881
2769  1  8.088460 28.597012 30.020632
2770  1  8.088460 28.597012 34.023383
2771  1  8.088460 28.597012 38.026134
2772  1  8.088460 28.597012 42.028885
2773  1  8.088460 31.048184  2.001375
2774  1  8.088460 31.048184  6.004126
2775  1  8.088460 31.048184 10.006877
2776  1  8.088460 31.048184 14.009628
2777  1  8.088460 31.048184 18.012379
2778  1  8.088460 31.048184 22.015130
2779  1  8.088460 31.048184 26.017881
2780  1  8.088460 31.048184 30.020632
2781  1  8.088460 31.048184 34.023383
2782  1  8.088460 31.048184 38.026134
2783  1  8.088460 31.048184 42.028885
2784  1  8.088460 33.499357  2.001375
2785  1  8.088460 33.499357  6.004126
2786  1  8.088460 33.499357 10.006877
2787  1  8.088460 33.499357 14.009628
2788  1  8.088460 33.499357 18.012379
2789  1  8.088460 33.499357 22.015130
2790  1  8.088460 33.499357 26.017881
2791  1  8.088460 33.499357 30.020632
2792  1  8.088460 33.499357 34.023383
2793  1  8.088460 33.499357 38.026134
2794  1  8.088460 33.499357 42.028885
2795  1  8.088460 35.950529  2.001375
2796  1  8.088460 35.950529  6.004126
2797  1  8.088460 35.950529 10.006877
2798  1  8.088460 35.950529 14.009628
2799  1  8.088460 35.950529 18.012379
2800  1  8.088460 35.950529 22.015130
2801  1  8.088460 35.950529 26.017881
2802  1  8.088460 35.950529 30.020632
2803  1  8.088460 35.950529 34.023383
2804  1  8.088460 35.950529 38.026134
2805  1  8.088460 35.950529 42.028885
2806  1  8.088460 38.401701  2.001375
2807  1  8.088460 38.401701  6.004126
2808  1  8.088460 38.401701 10.006877
2809  1  8.088460 38.401701 14.009628
2810  1  8.088460 38.401701 18.012379
2811  1  8.088460 38.401701 22.015130
2812  1  8.088460 38.401701 26.017881
2813  1  8.088460 38.401701 30.020632
2814  1  8.088460 38.401701 34.023383
2815  1  8.088460 38.401701 38.026134
2816  1  8.088460 38.401701 42.028885
2817  1 15.021427  1.634115  2.001375
2818  1 15.021427  1.634115  6.004126
2819  1 15.021427  1.634115 10.006877
2820  1 15.021427  1.634115 14.009628
2821  1 15.021427  1.634115 18.012379
2822  1 15.021427  1.634115 22.015130
2823  1 15.021427  1.634115 26.017881
2824  1 15.021427  1.634115 30.020632
2825  1 15.021427  1.634115 34.023383
2826  1 15.021427  1.634115 38.026134
2827  1 15.021427  1.634115 42.028885
2828  1 15.021427  4.085287  2.001375
2829  1 15.021427  4.085287  6.004126
2830  1 15.021427  4.085287 10.006877
2831  1 15.021427  4.085287 14.009628
2832  1 15.021427  4.085287 18.012379
2833  1 15.021427  4.085287 22.015130
2834  1 15.021427  4.085287 26.017881
2835  1 15.021427  4.085287 30.020632
2836  1 15.021427  4.085287 34.023383
2837  1 15.021427  4.085287 38.026134
2838  1 15.021427  4.085287 42.028885
2839  1 15.021427  6.536460  2.001375
2840  1 15.021427  6.536460  6.004126
2841  1 15.021427  6.536460 10.006877
2842  1 15.021427  6.536460 14.009628
2843  1 15.021427  6.536460 18.012379
2844  1 15.021427  6.536460 22.015130
2845  1 15.021427  6.536460 26.017881
2846  1 15.021427  6.536460 30.020632
2847  1 15.021427  6.536460 34.023383
2848  1 15.021427  6.536460 38.026134
2849  1 15.021427  6.536460 42.028885
2850  1 15.021427  8.987632  2.001375
2851  1 15.021427  8.987632  6.004126
2852  1 15.021427  8.987632 10.006877
2853  1 15.021427  8.987632 14.009628
2854  1 15.021427  8.987632 18.012379
2855  1 15.021427  8.987632 22.015130
2856  1 15.021427  8.987632 26.017881
2857  1 15.021427  8.987632 30.020632
2858  1 15.021427  8.987632 34.023383
2859  1 15.021427  8.987632 38.026134
2860  1 15.021427  8.987632 42.028885
2861  1 15.021427 11.438805  2.001375
2862  1 15.021427 11.438805  6.004126
2863  1 15.021427 11.438805 10.006877
2864  1 15.021427 11.438805 14.009628
2865  1 15.021427 11.438805 18.012379
2866  1 15.021427 11.438805 22.015130
2867  1 15.021427 11.438805 26.017881
2868  1 15.021427 11.438805 30.020632
2869  1 15.021427 11.438805 34.023383
2870  1 15.021427 11.438805 38.026134
2871  1 15.021427 11.438805 42.028885
2872  1 15.021427 13.889977  2.001375
2873  1 15.021427 13.889977  6.004126
2874  1 15.021427 13.889977 10.006877
2875  1 15.021427 13.889977 14.009628
2876  1 15.021427 13.889977 18.012379
2877  1 15.021427 13.889977 22.015130
2878  1 15.021427 13.889977 26.017881
2879  1 15.021427 13.889977 30.020632
2880  1 15.021427 13.889977 34.023383
2881  1 15.021427 13.889977 38.026134
2882  1 15.021427 13.889977 42.028885
2883  1 15.021427 16.341150  2.001375
2884  1 15.021427 16.341150  6.004126
2885  1 15.021427 16.341150 10.006877
2886  1 15.021427 16.341150 14.009628
2887  1 15.021427 16.341150 18.012379
2888  1 15.021427 16.341150 22.015130
2889  1 15.021427 16.341150 26.017881
2890  1 15.021427 16.341150 30.020632
2891  1 15.021427 16.341150 34.023383
2892  1 15.021427 16.341150 38.026134
2893  1 15.021427 16.341150 42.028885
2894  1 15.021427 18.792322  2.001375
2895  1 15.021427 18.792322  6.004126
2896  1 15.021427 18.792322 10.006877
2897  1 15.021427 18.792322 14.009628
2898  1 15.021427 18.792322 18.012379
2899  1 15.021427 18.792322 22.015130
2900  1 15.021427 18.792322 26.017881
2901  1 15.021427 18.792322 30.020632
2902  1 15.021427 18.792322 34.023383
2903  1 15.021427 18.792322 38.026134
2904  1 15.021427 18.792322 42.028885
2905  1 15.021427 21.243494  2.001375
2906  1 15.021427 21.243494  6.004126
2907  1 15.021427 21.243494 10.006877
2908  1 15.021427 21.243494 14.009628
2909  1 15.021427 21.243494 18.012379
2910  1 15.021427 21.243494 22.015130
2911  1 15.021427 21.243494 26.017881
2912  1 15.021427 21.243494 30.020632
2913  1 15.021427 21.243494 34.023383
2914  1 15.021427 21.243494 38.026134
2915  1 15.021427 21.243494 42.028885
2916  1 15.021427 23.694667  2.001375
2917  1 15.021427 23.694667  6.004126
2918  1 15.021427 23.694667 10.006877
2919  1 15.021427 23.694667 14.009628
2920  1 15.021427 23.694667 18.012379
2921  1 15.021427 23.694667 22.015130
2922  1 15.021427 23.694667 26.017881
2923  1 15.021427 23.694667 30.020632
2924  1 15.021427 23.694667 34.023383
2925  1 15.021427 23.694667 38.026134
2926  1 15.021427 23.694667 42.028885
2927  1 15.021427 26.145839  2.001375
2928  1 15.021427 26.145839  6.004126
2929  1 15.021427 26.145839 10.006877
2930  1 15.021427 26.145839 14.009628
2931  1 15.021427 26.145839 18.012379
2932  1 15.021427 26.145839 22.015130
2933  1 15.021427 26.145839 26.017881
2934  1 15.021427 26.145839 30.020632
2935  1 15.021427 26.145839 34.023383
2936  1 15.021427 26.145839 38.026134
2937  1 15.021427 26.145839 42.028885
2938  1 15.021427 28.597012  2.001375
2939  1 15.021427 28.597012  6.004126
2940  1 15.021427 28.597012 10.006877
2941  1 15.021427 28.597012 14.009628
2942  1 15.021427 28.597012 18.012379
2943  1 15.021427 28.597012 22.015130
2944  1 15.021427 28.597012 26.017881
2945  1 15.021427 28.597012 30.020632
2946  1 15.021427 28.597012 34.023383
2947  1 15.021427 28.597012 38.026134
2948  1 15.021427 28.597012 42.028885
2949  1 15.021427 31.048184  2.001375
2950  1 15.021427 31.048184  6.004126
2951  1 15.021427 31.048184 10.006877
2952  1 15.021427 31.048184 14.009628
2953  1 15.021427 31.048184 18.012379
2954  1 15.021427 31.048184 22.015130
2955  1 15.021427 31.048184 26.017881
2956  1 15.021427 31.048184 30.020632
2957  1 15.021427 31.048184 34.023383
2958  1 15.021427 31.048184 38.026134
2959  1 15.021427 31.048184 42.028885
2960  1 15.021427 33.499357  2.001375
2961  1 15.021427 33.499357  6.004126
2962  1 15.021427 33.499357 10.006877
2963  1 15.021427 33.499357 14.009628
2964  1 15.021427 33.499357 18.012379
2965  1 15.021427 33.499357 22.015130
2966  1 15.021427 33.499357 26.017881
2967  1 15.021427 33.499357 30.020632
2968  1 15.021427 33.499357 34.023383
2969  1 15.021427 33.499357 38.026134
2970  1 15.021427 33.499357 42.028885
2971  1 15.021427 35.950529  2.001375
2972  1 15.021427 35.950529  6.004126
2973  1 15.021427 35.950529 10.006877
2974  1 15.021427 35.950529 14.009628
2975  1 15.021427 35.950529 18.012379
2976  1 15.021427 35.950529 22.015130
2977  1 15.021427 35.950529 26.017881
2978  1 15.021427 35.950529 30.020632
2979  1 15.021427 35.950529 34.023383
2980  1 15.021427 35.950529 38.026134
2981  1 15.021427 35.950529 42.028885
2982  1 15.021427 38.401701  2.001375
2983  1 15.021427 38.401701  6.004126
2984  1 15.021427 38.401701 10.006877
2985  1 15.021427 38.401701 14.009628
2986  1 15.021427 38.401701 18.012379
2987  1 15.021427 38.401701 22.015130
2988  1 15.021427 38.401701 26.017881
2989  1 15.021427 38.401701 30.020632
2990  1 15.021427 38.401701 34.023383
2991  1 15.021427 38.401701 38.026134
2992  1 15.021427 38.401701 42.028885
2993  1 21.954393  1.634115  2.001375
2994  1 21.954393  1.634115  6.004126
2995  1 21.954393  1.634115 10.006877
2996  1 21.954393  1.634115 14.009628
2997  1 21.954393  1.634115 18.012379
2998  1 21.954393  1.634115 22.015130
2999  1 21.954393  1.634115 26.017881
3000  1 21.954393  1.634115 30.020632
3001  1 21.954393  1.634115 34.023383
3002  1 21.954393  1.634115 38.026134
3003  1 21.954393  1.634115 42.028885
3004  1 21.954393  4.085287  2.001375
3005  1 21.954393  4.085287  6.004126
3006  1 21.954393  4.085287 10.006877
3007  1 21.954393  4.085287 14.009628
3008  1 21.954393  4.085287 18.012379
3009  1 21.954393  4.085287 22.015130
3010  1 21.954393  4.085287 26.017881
3011  1 21.954393  4.085287 30.020632
3012  1 21.954393  4.085287 34.023383
3013  1 21.954393  4.085287 38.026134
3014  1 21.954393  4.085287 42.028885
3015  1 21.954393  6.536460  2.001375
3016  1 21.954393  6.536460  6.004126
3017  1 21.954393  6.536460 10.006877
3018  1 21.954393  6.536460 14.009628
3019  1 21.954393  6.536460 18.012379
3020  1 21.954393  6.536460 22.015130
3021  1 21.954393  6.536460 26.017881
3022  1 21.954393  6.536460 30.020632
3023  1 21.954393  6.536460 34.023383
3024  1 21.954393  6.536460 38.026134
3025  1 21.954393  6.536460 42.028885
3026  1 21.954393  8.987632  2.001375
3027  1 21.954393  8.987632  6.004126
3028  1 21.954393  8.987632 10.006877
3029  1 21.954393  8.987632 14.009628
3030  1 21.954393  8.987632 18.012379
3031  1 21.954393  8.987632 22.015130
3032  1 21.954393  8.987632 26.017881
3033  1 21.954393  8.987632 30.020632
3034  1 21.954393  8.987632 34.023383
3035  1 21.954393  8.987632 38.026134
3036  1 21.954393  8.987632 42.028885
3037  1 21.954393 11.438805  2.001375
3038  1 21.954393 11.438805  6.004126
3039  1 21.954393 11.438805 10.006877
3040  1 21.954393 11.438805 14.009628
3041  1 21.954393 11.438805 18.012379
3042  1 21.954393 11.438805 22.015130
3043  1 21.954393 11.438805 26.017881
3044  1 21.954393 11.438805 30.020632
3045  1 21.954393 11.438805 34.023383
3046  1 21.954393 11.438805 38.026134
3047  1 21.954393 11.438805 42.028885
3048  1 21.954393 13.889977  2.001375
3049  1 21.954393 13.889977  6.004126
3050  1 21.954393 13.889977 10.006877
3051  1 21.954393 13.889977 14.009628
3052  1 21.954393 13.889977 18.012379
3053  1 21.954393 13.889977 22.015130
3054  1 21.954393 13.889977 26.017881
3055  1 21.954393 13.889977 30.020632
3056  1 21.954393 13.889977 34.023383
3057  1 21.954393 13.889977 38.026134
3058  1 21.954393 13.889977 42.028885
3059  1 21.954393 16.341150  2.001375
3060  1 21.954393 16.341150  6.004126
3061  1 21.954393 16.341150 10.006877
3062  1 21.954393 16.341150 14.009628
3063  1 21.954393 16.341150 18.012379
3064  1 21.954393 16.341150 22.015130
3065  1 21.954393 16.341150 26.017881
3066  1 21.954393 16.341150 30.020632
3067  1 21.954393 16.341150 34.023383
3068  1 21.954393 16.341150 38.026134
3069  1 21.954393 16.341150 42.028885
3070  1 21.954393 18.792322  2.001375
3071  1 21.954393 18.792322  6.004126
3072  1 21.954393 18.792322 10.006877
3073  1 21.954393 18.792322 14.009628
3074  1 21.954393 18.792322 18.012379
3075  1 21.954393 18.179529 22.627923
3076  1 21.954393 18.792322 26.017881
3077  1 21.954393 18.792322 30.020632
3078  1 21.954393 18.792322 34.023383
3079  1 21.954393 18.792322 38.026134
3080  1 21.954393 18.792322 42.028885
3081  1 21.954393 21.243494  2.001375
3082  1 21.954393 21.243494  6.004126
3083  1 21.954393 21.243494 10.006877
3084  1 21.954393 21.243494 14.009628
3085  1 21.954393 21.243494 18.012379
3086  1 21.954393 21.243494 22.015130
3087  1 21.954393 21.243494 26.017881
3088  1 21.954393 21.243494 30.020632
3089  1 21.954393 21.243494 34.023383
3090  1 21.954393 21.243494 38.026134
3091  1 21.954393 21.243494 42.028885
3092  1 21.954393 23.694667  2.001375
3093  1 21.954393 23.694667  6.004126
3094  1 21.954393 23.694667 10.006877
3095  1 21.954393 23.694667 14.009628
3096  1 21.954393 23.694667 18.012379
3097  1 21.954393 23.694667 22.015130
3098  1 21.954393 23.694667 26.017881
3099  1 21.954393 23.694667 30.020632
3100  1 21.954393 23.694667 34.023383
3101  1 21.954393 23.694667 38.026134
3102  1 21.954393 23.694667 42.028885
3103  1 21.954393 26.145839  2.001375
3104  1 21.954393 26.145839  6.004126
3105  1 21.954393 26.145839 10.006877
3106  1 21.954393 26.145839 14.009628
3107  1 21.954393 26.145839 18.012379
3108  1 21.954393 26.145839 22.015130
3109  1 21.954393 26.145839 26.017881
3110  1 21.954393 26.145839 30.020632
3111  1 21.954393 26.145839 34.023383
3112  1 21.954393 26.145839 38.026134
3113  1 21.954393 26.145839 42.028885
3114  1 21.954393 28.597012  2.001375
3115  1 21.954393 28.597012  6.004126
3116  1 21.954393 28.597012 10.006877
3117  1 21.954393 28.597012 14.009628
3118  1 21.954393 28.597012 18.012379
3119  1 21.954393 28.597012 22.015130
3120  1 21.954393 28.597012 26.017881
3121  1 21.954393 28.597012 30.020632
3122  1 21.954393 28.597012 34.023383
3123  1 21.954393 28.597012 38.026134
3124  1 21.954393 28.597012 42.028885
3125  1 21.954393 31.048184  2.001375
3126  1 21.954393 31.048184  6.004126
3127  1 21.954393 31.048184 10.006877
3128  1 21.954393 31.048184 14.009628
3129  1 21.954393 31.048184 18.012379
3130  1 21.954393 31.048184 22.015130
3131  1 21.954393 31.048184 26.017881
3132  1 21.954393 31.048184 30.020632
3133  1 21.954393 31.048184 34.023383
3134  1 21.954393 31.048184 38.026134
3135  1 21.954393 31.048184 42.028885
3136  1 21.954393 33.499357  2.001375
3137  1 21.954393 33.499357  6.004126
3138  1 21.954393 33.499357 10.006877
3139  1 21.954393 33.499357 14.009628
3140  1 21.954393 33.499357 18.012379
3141  1 21.954393 33.499357 22.015130
3142  1 21.954393 33.499357 26.017881
3143  1 21.954393 33.499357 30.020632
3144  1 21.954393 33.499357 34.023383
3145  1 21.954393 33.499357 38.026134
3146  1 21.954393 33.499357 42.028885
3147  1 21.954393 35.950529  2.001375
3148  1 21.954393 35.950529  6.004126
3149  1 21.954393 35.950529 10.006877
3150  1 21.954393 35.950529 14.009628
3151  1 21.954393 35.950529 18.012379
3152  1 21.954393 35.950529 22.015130
3153  1 21.954393 35.950529 26.017881
3154  1 21.954393 35.950529 30.020632
3155  1 21.954393 35.950529 34.023383
3156  1 21.954393 35.950529 38.026134
3157  1 21.954393 35.950529 42.028885
3158  1 21.954393 38.401701  2.001375
3159  1 21.954393 38.401701  6.004126
3160  1 21.954393 38.401701 10.006877
3161  1 21.954393 38.401701 14.009628
3162  1 21.954393 38.401701 18.012379
3163  1 21.954393 38.401701 22.015130
3164  1 21.954393 38.401701 26.017881
3165  1 21.954393 38.401701 30.020632
3166  1 21.954393 38.401701 34.023383
3167  1 21.954393 38.401701 38.026134
3168  1 21.954393 38.401701 42.028885
3169  1 28.887360  1.634115  2.001375
3170  1 28.887360  1.634115  6.004126
3171  1 28.887360  1.634115 10.006877
3172  1 28.887360  1.634115 14.009628
3173  1 28.887360  1.634115 18.012379
3174  1 28.887360  1.634115 22.015130
3175  1 28.887360  1.634115 26.017881
3176  1 28.887360  1.634115 30.020632
3177  1 28.887360  1.634115 34.023383
3178  1 28.887360  1.634115 38.026134
3179  1 28.887360  1.634115 42.028885
3180  1 28.887360  4.085287  2.001375
3181  1 28.887360  4.085287  6.004126
3182  1 28.887360  4.085287 10.006877
3183  1 28.887360  4.085287 14.009628
3184  1 28.887360  4.085287 18.012379
3185  1 28.887360  4.085287 22.015130
3186  1 28.887360  4.085287 26.017881
3187  1 28.887360  4.085287 30.020632
3188  1 28.887360  4.085287 34.023383
3189  1 28.887360  4.085287 38.026134
3190  1 28.887360  4.085287 42.028885
3191  1 28.887360  6.536460  2.001375
3192  1 28.887360  6.536460  6.004126
3193  1 28.887360  6.536460 10.006877
3194  1 28.887360  6.536460 14.009628
3195  1 28.887360  6.536460 18.012379
3196  1 28.887360  6.536460 22.015130
3197  1 28.887360  6.536460 26.017881
3198  1 28.887360  6.536460 30.020632
3199  1 28.887360  6.536460 34.023383
3200  1 28.887360  6.536460 38.026134
3201  1 28.887360  6.536460 42.028885
3202  1 28.887360  8.987632  2.001375
3203  1 28.887360  8.987632  6.004126
3204  1 28.887360  8.987632 10.006877
3205  1 28.887360  8.987632 14.009628
3206  1 28.887360  8.987632 18.012379
3207  1 28.887360  8.987632 22.015130
3208  1 28.887360  8.987632 26.017881
3209  1 28.887360  8.987632 30.020632
3210  1 28.887360  8.987632 34.023383
3211  1 28.887360  8.987632 38.026134
3212  1 28.887360  8.987632 42.028885
3213  1 28.887360 11.438805  2.001375
3214  1 28.887360 11.438805  6.004126
3215  1 28.887360 11.438805 10.006877
3216  1 28.887360 11.438805 14.009628
3217  1 28.887360 11.438805 18.012379
3218  1 28.887360 11.438805 22.015130
3219  1 28.887360 11.438805 26.017881
3220  1 28.887360 11.438805 30.020632
3221  1 28.887360 11.438805 34.023383
3222  1 28.887360 11.438805 38.026134
3223  1 28.887360 11.438805 42.028885
3224  1 28.887360 13.889977  2.001375
3225  1 28.887360 13.889977  6.004126
3226  1 28.887360 13.889977 10.006877
3227  1 28.887360 13.889977 14.009628
3228  1 28.887360 13.889977 18.012379
3229  1 28.887360 13.889977 22.015130
3230  1 28.887360 13.889977 26.017881
3231  1 28.887360 13.889977 30.020632
3232  1 28.887360 13.889977 34.023383
3233  1 28.887360 13.889977 38.026134
3234  1 28.887360 13.889977 42.028885
3235  1 28.887360 16.341150  2.001375
3236  1 28.887360 16.341150  6.004126
3237  1 28.887360 16.341150 10.006877
3238  1 28.887360 16.341150 14.009628
3239  1 28.887360 16.341150 18.012379
3240  1 28.887360 16.341150 22.015130
3241  1 28.887360 16.341150 26.017881
3242  1 28.887360 16.341150 30.020632
3243  1 28.887360 16.341150 34.023383
3244  1 28.887360 16.341150 38.026134
3245  1 28.887360 16.341150 42.028885
3246  1 28.887360 18.792322  2.001375
3247  1 28.887360 18.792322  6.004126
3248  1 28.887360 18.792322 10.006877
3249  1 28.887360 18.792322 14.009628
3250  1 28.887360 18.792322 18.012379
3251  1 28.887360 18.792322 22.015130
3252  1 28.887360 18.792322 26.017881
3253  1 28.887360 18.792322 30.020632
3254  1 28.887360 18.792322 34.023383
3255  1 28.887360 18.792322 38.026134
3256  1 28.887360 18.792322 42.028885
3257  1 28.887360 21.243494  2.001375
3258  1 28.887360 21.243494  6.004126
3259  1 28.887360 21.243494 10.006877
3260  1 28.887360 21.243494 14.009628
3261  1 28.887360 21.243494 18.012379
3262  1 28.887360 21.243494 22.015130
3263  1 28.887360 21.243494 26.017881
3264  1 28.887360 21.243494 30.020632
3265  1 28.887360 21.243494 34.023383
3266  1 28.887360 21.243494 38.026134
3267  1 28.887360 21.243494 42.028885
3268  1 28.887360 23.694667  2.001375
3269  1 28.887360 23.694667  6.004126
3270  1 28.887360 23.694667 10.006877
3271  1 28.887360 23.694667 14.009628
3272  1 28.887360 23.694667 18.012379
3273  1 28.887360 23.694667 22.015130
3274  1 28.887360 23.694667 26.017881
3275  1 28.887360 23.694667 30.020632
3276  1 28.887360 23.694667 34.023383
3277  1 28.887360 23.694667 38.026134
3278  1 28.887360 23.694667 42.028885
3279  1 28.887360 26.145839  2.001375
3280  1 28.887360 26.145839  6.004126
3281  1 28.887360 26.145839 10.006877
3282  1 28.887360 26.145839 14.009628
3283  1 28.887360 26.145839 18.012379
3284  1 28.887360 26.145839 22.015130
3285  1 28.887360 26.145839 26.017881
3286  1 28.887360 26.145839 30.020632
3287  1 28.887360 26.145839 34.023383
3288  1 28.887360 26.145839 38.026134
3289  1 28.887360 26.145839 42.028885
3290  1 28.887360 28.597012  2.001375
3291  1 28.887360 28.597012  6.004126
3292  1 28.887360 28.597012 10.006877
3293  1 28.887360 28.597012 14.009628
3294  1 28.887360 28.597012 18.012379
3295  1 28.887360 28.597012 22.015130
3296  1 28.887360 28.597012 26.017881
3297  1 28.887360 28.597012 30.020632
3298  1 28.887360 28.597012 34.023383
3299  1 28.887360 28.597012 38.026134
3300  1 28.887360 28.597012 42.028885
3301  1 28.887360 31.048184  2.001375
3302  1 28.887360 31.048184  6.004126
3303  1 28.887360 31.048184 10.006877
3304  1 28.887360 31.048184 14.009628
3305  1 28.887360 31.048184 18.012379
3306  1 28.887360 31.048184 22.015130
3307  1 28.887360 31.048184 26.017881
3308  1 28.887360 31.048184 30.020632
3309  1 28.887360 31.048184 34.023383
3310  1 28.887360 31.048184 38.026134
3311  1 28.887360 31.048184 42.028885
3312  1 28.887360 33.499357  2.001375
3313  1 28.887360 33.499357  6.004126
3314  1 28.887360 33.499357 10.006877
3315  1 28.887360 33.499357 14.009628
3316  1 28.887360 33.499357 18.012379
3317  1 28.887360 33.499357 22.015130
3318  1 28.887360 33.499357 26.017881
3319  1 28.887360 33.499357 30.020632
3320  1 28.887360 33.499357 34.023383
3321  1 28.887360 33.499357 38.026134
3322  1 28.887360 33.499357 42.028885
3323  1 28.887360 35.950529  2.001375
3324  1 28.887360 35.950529  6.004126
3325  1 28.887360 35.950529 10.006877
3326  1 28.887360 35.950529 14.009628
3327  1 28.887360 35.950529 18.012379
3328  1 28.887360 35.950529 22.015130
3329  1 28.887360 35.950529 26.017881
3330  1 28.887360 35.950529 30.020632
3331  1 28.887360 35.950529 34.023383
3332  1 28.887360 35.950529 38.026134
3333  1 28.887360 35.950529 42.028885
3334  1 28.887360 38.401701  2.001375
3335  1 28.887360 38.401701  6.004126
3336  1 28.887360 38.401701 10.006877
3337  1 28.887360 38.401701 14.009628
3338  1 28.887360 38.401701 18.012379
3339  1 28.887360 38.401701 22.015130
3340  1 28.887360 38.401701 26.017881
3341  1 28.887360 38.401701 30.020632
3342  1 28.887360 38.401701 34.023383
3343  1 28.887360 38.401701 38.026134
3344  1 28.887360 38.401701 42.028885
3345  1 35.820326  1.634115  2.001375
3346  1 35.820326  1.634115  6.004126
3347  1 35.820326  1.634115 10.006877
3348  1 35.820326  1.634115 14.009628
3349  1 35.820326  1.634115 18.012379
3350  1 35.820326  1.634115 22.015130
3351  1 35.820326  1.634115 26.017881
3352  1 35.820326  1.634115 30.020632
3353  1 35.820326  1.634115 34.023383
3354  1 35.820326  1.634115 38.026134
3355  1 35.820326  1.634115 42.028885
3356  1 35.820326  4.085287  2.001375
3357  1 35.820326  4.085287  6.004126
3358  1 35.820326  4.085287 10.006877
3359  1 35.820326  4.085287 14.009628
3360  1 35.820326  4.085287 18.012379
3361  1 35.820326  4.085287 22.015130
3362  1 35.820326  4.085287 26.017881
3363  1 35.820326  4.085287 30.020632
3364  1 35.820326  4.085287 34.023383
3365  1 35.820326  4.085287 38.026134
3366  1 35.820326  4.085287 42.028885
3367  1 35.820326  6.536460  2.001375
3368  1 35.820326  6.536460  6.004126
3369  1 35.820326  6.536460 10.006877
3370  1 35.820326  6.536460 14.009628
3371  1 35.820326  6.536460 18.012379
3372  1 35.820326  6.536460 22.015130
3373  1 35.820326  6.536460 26.017881
3374  1 35.820326  6.536460 30.020632
3375  1 35.820326  6.536460 34.023383
3376  1 35.820326  6.536460 38.026134
3377  1 35.820326  6.536460 42.028885
3378  1 35.820326  8.987632  2.001375
3379  1 35.820326  8.987632  6.004126
3380  1 35.820326  8.987632 10.006877
3381  1 35.820326  8.987632 14.009628
3382  1 35.820326  8.987632 18.012379
3383  1 35.820326  8.987632 22.015130
3384  1 35.820326  8.987632 26.017881
3385  1 35.820326  8.987632 30.020632
3386  1 35.820326  8.987632 34.023383
3387  1 35.820326  8.987632 38.026134
3388  1 35.820326  8.987632 42.028885
3389  1 35.820326 11.438805  2.001375
3390  1 35.820326 11.438805  6.004126
3391  1 35.820326 11.438805 10.006877
3392  1 35.820326 11.438805 14.009628
3393  1 35.820326 11.438805 18.012379
3394  1 35.820326 11.438805 22.015130
3395  1 35.820326 11.438805 26.017881
3396  1 35.820326 11.438805 30.020632
3397  1 35.820326 11.438805 34.023383
3398  1 35.820326 11.438805 38.026134
3399  1 35.820326 11.438805 42.028885
3400  1 35.820326 13.889977  2.001375
3401  1 35.820326 13.889977  6.004126
3402  1 35.820326 13.889977 10.006877
3403  1 35.820326 13.889977 14.009628
3404  1 35.820326 13.889977 18.012379
3405  1 35.820326 13.889977 22.015130
3406  1 35.820326 13.889977 26.017881
3407  1 35.820326 13.889977 30.020632
3408  1 35.820326 13.889977 34.023383
3409  1 35.820326 13.889977 38.026134
3410  1 35.820326 13.889977 42.028885
3411  1 35.820326 16.341150  2.001375
3412  1 35.820326 16.341150  6.004126
3413  1 35.820326 16.341150 10.006877
3414  1 35.820326 16.341150 14.009628
3415  1 35.820326 16.341150 18.012379
3416  1 35.820326 16.341150 22.015130
3417  1 35.820326 16.341150 26.017881
3418  1 35.820326 16.341150 30.020632
3419  1 35.820326 16.341150 34.023383
3420  1 35.820326 16.341150 38.026134
3421  1 35.820326 16.341150 42.028885
3422  1 35.820326 18.792322  2.001375
3423  1 35.820326 18.792322  6.004126
3424  1 35.820326 18.792322 10.006877
3425  1 35.820326 18.792322 14.009628
3426  1 35.820326 18.792322 18.012379
3427  1 35.820326 18.792322 22.015130
3428  1 35.820326 18.792322 26.017881
3429  1 35.820326 18.792322 30.020632
3430  1 35.820326 18.792322 34.023383
3431  1 35.820326 18.792322 38.026134
3432  1 35.820326 18.792322 42.028885
3433  1 35.820326 21.243494  2.001375
3434  1 35.820326 21.243494  6.004126
3435  1 35.820326 21.243494 10.006877
3436  1 35.820326 21.243494 14.009628
3437  1 35.820326 21.243494 18.012379
3438  1 35.820326 21.243494 22.015130
3439  1 35.820326 21.243494 26.017881
3440  1 35.820326 21.243494 30.020632
3441  1 35.820326 21.243494 34.023383
3442  1 35.820326 21.243494 38.026134
3443  1 35.820326 21.243494 42.028885
3444  1 35.820326 23.694667  2.001375
3445  1 35.820326 23.694667  6.004126
3446  1 35.820326 23.694667 10.006877
3447  1 35.820326 23.694667 14.009628
3448  1 35.820326 23.694667 18.012379
3449  1 35.820326 23.694667 22.015130
3450  1 35.820326 23.694667 26.017881
3451  1 35.820326 23.694667 30.020632
3452  1 35.820326 23.694667 34.023383
3453  1 35.820326 23.694667 38.026134
3454  1 35.820326 23.694667 42.028885
3455  1 35.820326 26.145839  2.001375
3456  1 35.820326 26.145839  6.004126
3457  1 35.820326 26.145839 10.006877
3458  1 35.820326 26.145839 14.009628
3459  1 35.820326 26.145839 18.012379
3460  1 35.820326 26.145839 22.015130
3461  1 35.820326 26.145839 26.017881
3462  1 35.820326 26.145839 30.020632
3463  1 35.820326 26.145839 34.023383
3464  1 35.820326 26.145839 38.026134
3465  1 35.820326 26.145839 42.028885
3466  1 35.820326 28.597012  2.001375
3467  1 35.820326 28.597012  6.004126
3468  1 35.820326 28.597012 10.006877
3469  1 35.820326 28.597012 14.009628
3470  1 35.820326 28.597012 18.012379
3471  1 35.820326 28.597012 22.015130
3472  1 35.820326 28.597012 26.017881
3473  1 35.820326 28.597012 30.020632
3474  1 35.820326 28.597012 34.023383
3475  1 35.820326 28.597012 38.026134
3476  1 35.820326 28.597012 42.028885
3477  1 35.820326 31.048184  2.001375
3478  1 35.820326 31.048184  6.004126
3479  1 35.820326 31.048184 10.006877
3480  1 35.820326 31.048184 14.009628
3481  1 35.820326 31.048184 18.012379
3482  1 35.820326 31.048184 22.015130
3483  1 35.820326 31.048184 26.017881
3484  1 35.820326 31.048184 30.020632
3485  1 35.820326 31.048184 34.023383
3486  1 35.820326 31.048184 38.026134
3487  1 35.820326 31.048184 42.028885
3488  1 35.820326 33.499357  2.001375
3489  1 35.820326 33.499357  6.004126
3490  1 35.820326 33.499357 10.006877
3491  1 35.820326 33.499357 14.009628
3492  1 35.820326 33.499357 18.012379
3493  1 35.820326 33.499357 22.015130
3494  1 35.820326 33.499357 26.017881
3495  1 35.820326 33.499357 30.020632
3496  1 35.820326 33.499357 34.023383
3497  1 35.820326 33.499357 38.026134
3498  1 35.820326 33.499357 42.028885
3499  1 35.820326 35.950529  2.001375
3500  1 35.820326 35.950529  6.004126
3501  1 35.820326 35.950529 10.006877
3502  1 35.820326 35.950529 14.009628
3503  1 35.820326 35.950529 18.012379
3504  1 35.820326 35.950529 22.015130
3505  1 35.820326 35.950529 26.017881
3506  1 35.820326 35.950529 30.020632
3507  1 35.820326 35.950529 34.023383
3508  1 35.820326 35.950529 38.026134
3509  1 35.820326 35.950529 42.028885
3510  1 35.820326 38.401701  2.001375
3511  1 35.820326 38.401701  6.004126
3512  1 35.820326 38.401701 10.006877
3513  1 35.820326 38.401701 14.009628
3514  1 35.820326 38.401701 18.012379
3515  1 35.820326 38.401701 22.015130
3516  1 35.820326 38.401701 26.017881
3517  1 35.820326 38.401701 30.020632
3518  1 35.820326 38.401701 34.023383
3519  1 35.820326 38.401701 38.026134
3520  1 35.820326 38.401701 42.028885
3521  1 42.753293  1.634115  2.001375
3522  1 42.753293  1.634115  6.004126
3523  1 42.753293  1.634115 10.006877
3524  1 42.753293  1.634115 14.009628
3525  1 42.753293  1.634115 18.012379
3526  1 42.753293  1.634115 22.015130
3527  1 42.753293  1.634115 26.017881
3528  1 42.753293  1.634115 30.020632
3529  1 42.753293  1.634115 34.023383
3530  1 42.753293  1.634115 38.026134
3531  1 42.753293  1.634115 42.028885
3532  1 42.753293  4.085287  2.001375
3533  1 42.753293  4.085287  6.004126
3534  1 42.753293  4.085287 10.006877
3535  1 42.753293  4.085287 14.009628
3536  1 42.753293  4.085287 18.012379
3537  1 42.753293  4.085287 22.015130
3538  1 42.753293  4.085287 26.017881
3539  1 42.753293  4.085287 30.020632
3540  1 42.753293  4.085287 34.023383
3541  1 42.753293  4.085287 38.026134
3542  1 42.753293  4.085287 42.028885
3543  1 42.753293  6.536460  2.001375
3544  1 42.753293  6.536460  6.004126
3545  1 42.753293  6.536460 10.006877
3546  1 42.753293  6.536460 14.009628
3547  1 42.753293  6.536460 18.012379
3548  1 42.753293  6.536460 22.015130
3549  1 42.753293  6.536460 26.017881
3550  1 42.753293  6.536460 30.020632
3551  1 42.753293  6.536460 34.023383
3552  1 42.753293  6.536460 38.026134
3553  1 42.753293  6.536460 42.028885
3554  1 42.753293  8.987632  2.001375
3555  1 42.753293  8.987632  6.004126
3556  1 42.753293  8.987632 10.006877
3557  1 42.753293  8.987632 14.009628
3558  1 42.753293  8.987632 18.012379
3559  1 42.753293  8.987632 22.015130
3560  1 42.753293  8.987632 26.017881
3561  1 42.753293  8.987632 30.020632
3562  1 42.753293  8.987632 34.023383
3563  1 42.753293  8.987632 38.026134
3564  1 42.753293  8.987632 42.028885
3565  1 42.753293 11.438805  2.001375
3566  1 42.753293 11.438805  6.004126
3567  1 42.753293 11.438805 10.006877
3568  1 42.753293 11.438805 14.009628
3569  1 42.753293 11.438805 18.012379
3570  1 42.753293 11.438805 22.015130
3571  1 42.753293 11.438805 26.017881
3572  1 42.753293 11.438805 30.020632
3573  1 42.753293 11.438805 34.023383
3574  1 42.753293 11.438805 38.026134
3575  1 42.753293 11.438805 42.028885
3576  1 42.753293 13.889977  2.001375
3577  1 42.753293 13.889977  6.004126
3578  1 42.753293 13.889977 10.006877
3579  1 42.753293 13.889977 14.009628
3580  1 42.753293 13.889977 18.012379
3581  1 42.753293 13.889977 22.015130
3582  1 42.753293 13.889977 26.017881
3583  1 42.753293 13.889977 30.020632
3584  1 42.753293 13.889977 34.023383
3585  1 42.753293 13.889977 38.026134
3586  1 42.753293 13.889977 42.028885
3587  1 42.753293 16.341150  2.001375
3588  1 42.753293 16.341150  6.004126
3589  1 42.753293 16.341150 10.006877
3590  1 42.753293 16.341150 14.009628
3591  1 42.753293 16.341150 18.012379
3592  1 42.753293 16.341150 22.015130
3593  1 42.753293 16.341150 26.017881
3594  1 42.753293 16.341150 30.020632
3595  1 42.753293 16.341150 34.023383
3596  1 42.753293 16.341150 38.026134
3597  1 42.753293 16.341150 42.028885
3598  1 42.753293 18.792322  2.001375
3599  1 42.753293 18.792322  6.004126
3600  1 42.753293 18.792322 10.006877
3601  1 42.753293 18.792322 14.009628
3602  1 42.753293 18.792322 18.012379
3603  1 42.753293 18.792322 22.015130
3604  1 42.753293 18.792322 26.017881
3605  1 42.753293 18.792322 30.020632
3606  1 42.753293 18.792322 34.023383
3607  1 42.753293 18.792322 38.026134
3608  1 42.753293 18.792322 42.028885
3609  1 42.753293 21.243494  2.001375
3610  1 42.753293 21.243494  6.004126
3611  1 42.753293 21.243494 10.006877
3612  1 42.753293 21.243494 14.009628
3613  1 42.753293 21.243494 18.012379
3614  1 42.753293 21.243494 22.015130
3615  1 42.753293 21.243494 26.017881
3616  1 42.753293 21.243494 30.020632
3617  1 42.753293 21.243494 34.023383
3618  1 42.753293 21.243494 38.026134
3619  1 42.753293 21.243494 42.028885
3620  1 42.753293 23.694667  2.001375
3621  1 42.753293 23.694667  6.004126
3622  1 42.753293 23.694667 10.006877
3623  1 42.753293 23.694667 14.009628
3624  1 42.753293 23.694667 18.012379
3625  1 42.753293 23.694667 22.015130
3626  1 42.753293 23.694667 26.017881
3627  1 42.753293 23.694667 30.020632
3628  1 42.753293 23.694667 34.023383
3629  1 42.753293 23.694667 38.026134
3630  1 42.753293 23.694667 42.028885
3631  1 42.753293 26.145839  2.001375
3632  1 42.753293 26.145839  6.004126
3633  1 42.753293 26.145839 10.006877
3634  1 42.753293 26.145839 14.009628
3635  1 42.753293 26.145839 18.012379
3636  1 42.753293 26.145839 22.015130
3637  1 42.753293 26.145839 26.017881
3638  1 42.753293 26.145839 30.020632
3639  1 42.753293 26.145839 34.023383
3640  1 42.753293 26.145839 38.026134
3641  1 42.753293 26.145839 42.028885
3642  1 42.753293 28.597012  2.001375
3643  1 42.753293 28.597012  6.004126
3644  1 42.753293 28.597012 10.006877
3645  1 42.753293 28.597012 14.009628
3646  1 42.753293 28.597012 18.012379
3647  1 42.753293 28.597012 22.015130
3648  1 42.753293 28.597012 26.017881
3649  1 42.753293 28.597012 30.020632
3650  1 42.753293 28.597012 34.023383
3651  1 42.753293 28.597012 38.026134
3652  1 42.753293 28.597012 42.028885
3653  1 42.753293 31.048184  2.001375
3654  1 42.753293 31.048184  6.004126
3655  1 42.753293 31.048184 10.006877
3656  1 42.753293 31.048184 14.009628
3657  1 42.753293 31.048184 18.012379
3658  1 42.753293 31.048184 22.015130
3659  1 42.753293 31.048184 26.017881
3660  1 42.753293 31.048184 30.020632
3661  1 42.753293 31.048184 34.023383
3662  1 42.753293 31.048184 38.026134
3663  1 42.753293 31.048184 42.028885
3664  1 42.753293 33.499357  2.001375
3665  1 42.753293 33.499357  6.004126
3666  1 42.753293 33.499357 10.006877
3667  1 42.753293 33.499357 14.009628
3668  1 42.753293 33.499357 18.012379
3669  1 42.753293 33.499357 22.015130
3670  1 42.753293 33.499357 26.017881
3671  1 42.753293 33.499357 30.020632
3672  1 42.753293 33.499357 34.023383
3673  1 42.753293 33.499357 38.026134
3674  1 42.753293 33.499357 42.028885
3675  1 42.753293 35.950529  2.001375
3676  1 42.753293 35.950529  6.004126
3677  1 42.753293 35.950529 10.006877
3678  1 42.753293 35.950529 14.009628
3679  1 42.753293 35.950529 18.012379
3680  1 42.753293 35.950529 22.015130
3681  1 42.753293 35.950529 26.017881
3682  1 42.753293 35.950529 30.020632
3683  1 42.753293 35.950529 34.023383
3684  1 42.753293 35.950529 38.026134
3685  1 42.753293 35.950529 42.028885
3686  1 42.753293 38.401701  2.001375
3687  1 42.753293 38.401701  6.004126
3688  1 42.753293 38.401701 10.006877
3689  1 42.753293 38.401701 14.009628
3690  1 42.753293 38.401701 18.012379
3691  1 42.753293 38.401701 22.015130
3692  1 42.753293 38.401701 26.017881
3693  1 42.753293 38.401701 30.020632
3694  1 42.753293 38.401701 34.023383
3695  1 42.753293 38.401701 38.026134
3696  1 42.753293 38.401701 42.028885
3697  1  4.621977  1.634115  0.000000
3698  1  4.621977  1.634115  4.002751
3699  1  4.621977  1.634115  8.005502
3700  1  4.621977  1.634115 12.008253
3701  1  4.621977  1.634115 16.011004
3702  1  4.621977  1.634115 20.013755
3703  1  4.621977  1.634115 24.016506
3704  1  4.621977  1.634115 28.019257
3705  1  4.621977  1.634115 32.022007
3706  1  4.621977  1.634115 36.024758
3707  1  4.621977  1.634115 40.027509
3708  1  4.621977  4.085287  0.000000
3709  1  4.621977  4.085287  4.002751
3710  1  4.621977  4.085287  8.005502
3711  1  4.621977  4.085287 12.008253
3712  1  4.621977  4.085287 16.011004
3713  1  4.621977  4.085287 20.013755
3714  1  4.621977  4.085287 24.016506
3715  1  4.621977  4.085287 28.019257
3716  1  4.621977  4.085287 32.022007
3717  1  4.621977  4.085287 36.024758
3718  1  4.621977  4.085287 40.027509
3719  1  4.621977  6.536460  0.000000
3720  1  4.621977  6.536460  4.002751
3721  1  4.621977  6.536460  8.005502
3722  1  4.621977  6.536460 12.008253
3723  1  4.621977  6.536460 16.011004
3724  1  4.621977  6.536460 20.013755
3725  1  4.621977  6.536460 24.016506
3726  1  4.621977  6.536460 28.019257
3727  1  4.621977  6.536460 32.022007
3728  1  4.621977  6.536460 36.024758
3729  1  4.621977  6.536460 40.027509
3730  1  4.621977  8.987632  0.000000
3731  1  4.621977  8.987632  4.002751
3732  1  4.621977  8.987632  8.005502
3733  1  4.621977  8.987632 12.008253
3734  1  4.621977  8.987632 16.011004
3735  1  4.621977  8.987632 20.013755
3736  1  4.621977  8.987632 24.016506
3737  1  4.621977  8.987632 28.019257
3738  1  4.621977  8.987632 32.022007
3739  1  4.621977  8.987632 36.024758
3740  1  4.621977  8.987632 40.027509
3741  1  4.621977 11.438805  0.000000
3742  1  4.621977 11.438805  4.002751
3743  1  4.621977 11.438805  8.005502
3744  1  4.621977 11.438805 12.008253
3745  1  4.621977 11.438805 16.011004
3746  1  4.621977 11.438805 20.013755
3747  1  4.621977 11.438805 24.016506
3748  1  4.621977 11.438805 28.019257
3749  1  4.621977 11.438805 32.022007
3750  1  4.621977 11.438805 36.024758
3751  1  4.621977 11.438805 40.027509
3752  1  4.621977 13.889977  0.000000
3753  1  4.621977 13.889977  4.002751
3754  1  4.621977 13.889977  8.005502
3755  1  4.621977 13.889977 12.008253
3756  1  4.621977 13.889977 16.011004
3757  1  4.621977 13.889977 20.013755
3758  1  4.621977 13.889977 24.016506
3759  1  4.621977 13.889977 28.019257
3760  1  4.621977 13.889977 32.022007
3761  1  4.621977 13.889977 36.024758
3762  1  4.621977 13.889977 40.027509
3763  1  4.621977 16.341150  0.000000
3764  1  4.621977 16.341150  4.002751
3765  1  4.621977 16.341150  8.005502
3766  1  4.621977 16.341150 12.008253
3767  1  4.621977 16.341150 16.011004
3768  1  4.621977 16.341150 20.013755
3769  1  4.621977 16.341150 24.016506
3770  1  4.621977 16.341150 28.019257
3771  1  4.621977 16.341150 32.022007
3772  1  4.621977 16.341150 36.024758
3773  1  4.621977 16.341150 40.027509
3774  1  4.621977 18.792322  0.000000
3775  1  4.621977 18.792322  4.002751
3776  1  4.621977 18.792322  8.005502
3777  1  4.621977 18.792322 12.008253
3778  1  4.621977 18.792322 16.011004
3779  1  4.621977 18.792322 20.013755
3780  1  4.621977 18.792322 24.016506
3781  1  4.621977 18.792322 28.019257
3782  1  4.621977 18.792322 32.022007
3783  1  4.621977 18.792322 36.024758
3784  1  4.621977 18.792322 40.027509
3785  1  4.621977 21.243494  0.000000
3786  1  4.621977 21.243494  4.002751
3787  1  4.621977 21.243494  8.005502
3788  1  4.621977 21.243494 12.008253
3789  1  4.621977 21.243494 16.011004
3790  1  4.621977 21.243494 20.013755
3791  1  4.621977 21.243494 24.016506
3792  1  4.621977 21.243494 28.019257
3793  1  4.621977 21.243494 32.022007
3794  1  4.621977 21.243494 36.024758
3795  1  4.621977 21.243494 40.027509
3796  1  4.621977 23.694667  0.000000
3797  1  4.621977 23.694667  4.002751
3798  1  4.621977 23.694667  8.005502
3799  1  4.621977 23.694667 12.008253
3800  1  4.621977 23.694667 16.011004
3801  1  4.621977 23.694667 20.013755
3802  1  4.621977 23.694667 24.016506
3803  1  4.621977 23.694667 28.019257
3804  1  4.621977 23.694667 32.022007
3805  1  4.621977 23.694667 36.024758
3806  1  4.621977 23.694667 40.027509
3807  1  4.621977 26.145839  0.000000
3808  1  4.621977 26.145839  4.002751
3809  1  4.621977 26.145839  8.005502
3810  1  4.621977 26.145839 12.008253
3811  1  4.621977 26.145839 16.011004
3812  1  4.621977 26.145839 20.013755
3813  1  4.621977 26.145839 24.016506
3814  1  4.621977 26.145839 28.019257
3815  1  4.621977 26.145839 32.022007
3816  1  4.621977 26.145839 36.024758
3817  1  4.621977 26.145839 40.027509
3818  1  4.621977 28.597012  0.000000
3819  1  4.621977 28.597012  4.002751
3820  1  4.621977 28.597012  8.005502
3821  1  4.621977 28.597012 12.008253
3822  1  4.621977 28.597012 16.011004
3823  1  4.621977 28.597012 20.013755
3824  1  4.621977 28.597012 24.016506
3825  1  4.621977 28.597012 28.019257
3826  1  4.621977 28.597012 32.022007
3827  1  4.621977 28.597012 36.024758
3828  1  4.621977 28.597012 40.027509
3829  1  4.621977 31.048184  0.000000
3830  1  4.621977 31.048184  4.002751
3831  1  4.621977 31.048184  8.005502
3832  1  4.621977 31.048184 12.008253
3833  1  4.621977 31.048184 16.011004
3834  1  4.621977 31.048184 20.013755
3835  1  4.621977 31.048184 24.016506
3836  1  4.621977 31.048184 28.019257
3837  1  4.621977 31.048184 32.022007
3838  1  4.621977 31.048184 36.024758
3839  1  4.621977 31.048184 40.027509
3840  1  4.621977 33.499357  0.000000
3841  1  4.621977 33.499357  4.002751
3842  1  4.621977 33.499357  8.005502
3843  1  4.621977 33.499357 12.008253
3844  1  4.621977 33.499357 16.011004
3845  1  4.621977 33.499357 20.013755
3846  1  4.621977 33.499357 24.016506
3847  1  4.621977 33.499357 28.019257
3848  1  4.621977 33.499357 32.022007
3849  1  4.621977 33.499357 36.024758
3850  1  4.621977 33.499357 40.027509
3851  1  4.621977 35.950529  0.000000
3852  1  4.621977 35.950529  4.002751
3853  1  4.621977 35.950529  8.005502
3854  1  4.621977 35.950529 12.008253
3855  1  4.621977 35.950529 16.011004
3856  1  4.621977 35.950529 20.013755
3857  1  4.621977 35.950529 24.016506
3858  1  4.621977 35.950529 28.019257
3859  1  4.621977 35.950529 32.022007
3860  1  4.621977 35.950529 36.024758
3861  1  4.621977 35.950529 40.027509
3862  1  4.621977 38.401701  0.000000
3863  1  4.621977 38.401701  4.002751
3864  1  4.621977 38.401701  8.005502
3865  1  4.621977 38.401701 12.008253
3866  1  4.621977 38.401701 16.011004
3867  1  4.621977 38.401701 20.013755
3868  1  4.621977 38.401701 24.016506
3869  1  4.621977 38.401701 28.019257
3870  1  4.621977 38.401701 32.022007
3871  1  4.621977 38.401701 36.024758
3872  1  4.621977 38.401701 40.027509
3873  1 11.554943  1.634115  0.000000
3874  1 11.554943  1.634115  4.002751
3875  1 11.554943  1.634115  8.005502
3876  1 11.554943  1.634115 12.008253
3877  1 11.554943  1.634115 16.011004
3878  1 11.554943  1.634115 20.013755
3879  1 11.554943  1.634115 24.016506
3880  1 11.554943  1.634115 28.019257
3881  1 11.554943  1.634115 32.022007
3882  1 11.554943  1.634115 36.024758
3883  1 11.554943  1.634115 40.027509
3884  1 11.554943  4.085287  0.000000
3885  1 11.554943  4.085287  4.002751
3886  1 11.554943  4.085287  8.005502
3887  1 11.554943  4.085287 12.008253
3888  1 11.554943  4.085287 16.011004
3889  1 11.554943  4.085287 20.013755
3890  1 11.554943  4.085287 24.016506
3891  1 11.554943  4.085287 28.019257
3892  1 11.554943  4.085287 32.022007
3893  1 11.554943  4.085287 36.024758
3894  1 11.554943  4.085287 40.027509
3895  1 11.554943  6.536460  0.000000
3896  1 11.554943  6.536460  4.002751
3897  1 11.554943  6.536460  8.005502
3898  1 11.554943  6.536460 12.008253
3899  1 11.554943  6.536460 16.011004
3900  1 11.554943  6.536460 20.013755
3901  1 11.554943  6.536460 24.016506
3902  1 11.554943  6.536460 28.019257
3903  1 11.554943  6.536460 32.022007
3904  1 11.554943  6.536460 36.024758
3905  1 11.554943  6.536460 40.027509
3906  1 11.554943  8.987632  0.000000
3907  1 11.554943  8.987632  4.002751
3908  1 11.554943  8.987632  8.005502
3909  1 11.554943  8.987632 12.008253
3910  1 11.554943  8.987632 16.011004
3911  1 11.554943  8.987632 20.013755
3912  1 11.554943  8.987632 24.016506
3913  1 11.554943  8.987632 28.019257
3914  1 11.554943  8.987632 32.022007
3915  1 11.554943  8.987632 36.024758
3916  1 11.554943  8.987632 40.027509
3917  1 11.554943 11.438805  0.000000
3918  1 11.554943 11.438805  4.002751
3919  1 11.554943 11.438805  8.005502
3920  1 11.554943 11.438805 12.008253
3921  1 11.554943 11.438805 16.011004
3922  1 11.554943 11.438805 20.013755
3923  1 11.554943 11.438805 24.016506
3924  1 11.554943 11.438805 28.019257
3925  1 11.554943 11.438805 32.022007
3926  1 11.554943 11.438805 36.024758
3927  1 11.554943 11.438805 40.027509
3928  1 11.554943 13.889977  0.000000
3929  1 11.554943 13.889977  4.002751
3930  1 11.554943 13.889977  8.005502
3931  1 11.554943 13.889977 12.008253
3932  1 11.554943 13.889977 16.011004
3933  1 11.554943 13.889977 20.013755
3934  1 11.554943 13.889977 24.016506
3935  1 11.554943 13.889977 28.019257
3936  1 11.554943 13.889977 32.022007
3937  1 11.554943 13.889977 36.024758
3938  1 11.554943 13.889977 40.027509
3939  1 11.554943 16.341150  0.000000
3940  1 11.554943 16.341150  4.002751
3941  1 11.554943 16.341150  8.005502
3942  1 11.554943 16.341150 12.008253
3943  1 11.554943 16.341150 16.011004
3944  1 11.554943 16.341150 20.013755
3945  1 11.554943 16.341150 24.016506
3946  1 11.554943 16.341150 28.019257
3947  1 11.554943 16.341150 32.022007
3948  1 11.554943 16.341150 36.024758
3949  1 11.554943 16.341150 40.027509
3950  1 11.554943 18.792322  0.000000
3951  1 11.554943 18.792322  4.002751
3952  1 11.554943 18.792322  8.005502
3953  1 11.554943 18.792322 12.008253
3954  1 11.554943 18.792322 16.011004
3955  1 11.554943 18.792322 20.013755
3956  1 11.554943 18.792322 24.016506
3957  1 11.554943 18.792322 28.019257
3958  1 11.554943 18.792322 32.022007
3959  1 11.554943 18.792322 36.024758
3960  1 11.554943 18.792322 40.027509
3961  1 11.554943 21.243494  0.000000
3962  1 11.554943 21.243494  4.002751
3963  1 11.554943 21.243494  8.005502
3964  1 11.554943 21.243494 12.008253
3965  1 11.554943 21.243494 16.011004
3966  1 11.554943 21.243494 20.013755
3967  1 11.554943 21.243494 24.016506
3968  1 11.554943 21.243494 28.019257
3969  1 11.554943 21.243494 32.022007
3970  1 11.554943 21.243494 36.024758
3971  1 11.554943 21.243494 40.027509
3972  1 11.554943 23.694667  0.000000
3973  1 11.554943 23.694667  4.002751
3974  1 11.554943 23.694667  8.005502
3975  1 11.554943 23.694667 12.008253
3976  1 11.554943 23.694667 16.011004
3977  1 11.554943 23.694667 20.013755
3978  1 11.554943 23.694667 24.016506
3979  1 11.554943 23.694667 28.019257
3980  1 11.554943 23.694667 32.022007
3981  1 11.554943 23.694667 36.024758
3982  1 11.554943 23.694667 40.027509
3983  1 11.554943 26.145839  0.000000
3984  1 11.554943 26.145839  4.002751
3985  1 11.554943 26.145839  8.005502
3986  1 11.554943 26.145839 12.008253
3987  1 11.554943 26.145839 16.011004
3988  1 11.554943 26.145839 20.013755
3989  1 11.554943 26.145839 24.016506
3990  1 11.554943 26.145839 28.019257
3991  1 11.554943 26.145839 32.022007
3992  1 11.554943 26.145839 36.024758
3993  1 11.554943 26.145839 40.027509
3994  1 11.554943 28.597012  0.000000
3995  1 11.554943 28.597012  4.002751
3996  1 11.554943 28.597012  8.005502
3997  1 11.554943 28.597012 12.008253
3998  1 11.554943 28.597012 16.011004
3999  1 11.554943 28.597012 20.013755
4000  1 11.554943 28.597012 24.016506
4001  1 11.554943 28.597012 28.019257
4002  1 11.554943 28.597012 32.022007
4003  1 11.554943 28.597012 36.024758
4004  1 11.554943 28.597012 40.027509
4005  1 11.554943 31.048184  0.000000
4006  1 11.554943 31.048184  4.002751
4007  1 11.554943 31.048184  8.005502
4008  1 11.554943 31.048184 12.008253
4009  1 11.554943 31.048184 16.011004
4010  1 11.554943 31.048184 20.013755
4011  1 11.554943 31.048184 24.016506
4012  1 11.554943 31.048184 28.019257
4013  1 11.554943 31.048184 32.022007
4014  1 11.554943 31.048184 36.024758
4015  1 11.554943 31.048184 40.027509
4016  1 11.554943 33.499357  0.000000
4017  1 11.554943 33.499357  4.002751
4018  1 11.554943 33.499357  8.005502
4019  1 11.554943 33.499357 12.008253
4020  1 11.554943 33.499357 16.011004
4021  1 11.554943 33.499357 20.013755
4022  1 11.554943 33.499357 24.016506
4023  1 11.554943 33.499357 28.019257
4024  1 11.554943 33.499357 32.022007
4025  1 11.554943 33.499357 36.024758
4026  1 11.554943 33.499357 40.027509
4027  1 11.554943 35.950529  0.000000
4028  1 11.554943 35.950529  4.002751
4029  1 11.554943 35.950529  8.005502
4030  1 11.554943 35.950529 12.008253
4031  1 11.554943 35.950529 16.011004
4032  1 11.554943 35.950529 20.013755
4033  1 11.554943 35.950529 24.016506
4034  1 11.554943 35.950529 28.019257
4035  1 11.554943 35.950529 32.022007
4036  1 11.554943 35.950529 36.024758
4037  1 11.554943 35.950529 40.027509
4038  1 11.554943 38.401701  0.000000
4039  1 11.554943 38.401701  4.002751
4040  1 11.554943 38.401701  8.005502
4041  1 11.554943 38.401701 12.008253
4042  1 11.554943 38.401701 16.011004
4043  1 11.554943 38.401701 20.013755
4044  1 11.554943 38.401701 24.016506
4045  1 11.554943 38.401701 28.019257
4046  1 11.554943 38.401701 32.022007
4047  1 11.554943 38.401701 36.024758
4048  1 11.554943 38.401701 40.027509
4049  1 18.487910  1.634115  0.000000
4050  1 18.487910  1.634115  4.002751
4051  1 18.487910  1.634115  8.005502
4052  1 18.487910  1.634115 12.008253
4053  1 18.487910  1.634115 16.011004
4054  1 18.487910  1.634115 20.013755
4055  1 18.487910  1.634115 24.016506
4056  1 18.487910  1.634115 28.019257
4057  1 18.487910  1.634115 32.022007
4058  1 18.487910  1.634115 36.024758
4059  1 18.487910  1.634115 40.027509
4060  1 18.487910  4.085287  0.000000
4061  1 18.487910  4.085287  4.002751
4062  1 18.487910  4.085287  8.005502
4063  1 18.487910  4.085287 12.008253
4064  1 18.487910  4.085287 16.011004
4065  1 18.487910  4.085287 20.013755
4066  1 18.487910  4.085287 24.016506
4067  1 18.487910  4.085287 28.019257
4068  1 18.487910  4.085287 32.022007
4069  1 18.487910  4.085287 36.024758
4070  1 18.487910  4.085287 40.027509
4071  1 18.487910  6.536460  0.000000
4072  1 18.487910  6.536460  4.002751
4073  1 18.487910  6.536460  8.005502
4074  1 18.487910  6.536460 12.008253
4075  1 18.487910  6.536460 16.011004
4076  1 18.487910  6.536460 20.013755
4077  1 18.487910  6.536460 24.016506
4078  1 18.487910  6.536460 28.019257
4079  1 18.487910  6.536460 32.022007
4080  1 18.487910  6.536460 36.024758
4081  1 18.487910  6.536460 40.027509
4082  1 18.487910  8.987632  0.000000
4083  1 18.487910  8.987632  4.002751
4084  1 18.487910  8.987632  8.005502
4085  1 18.487910  8.987632 12.008253
4086  1 18.487910  8.987632 16.011004
4087  1 18.487910  8.987632 20.013755
4088  1 18.487910  8.987632 24.016506
4089  1 18.487910  8.987632 28.019257
4090  1 18.487910  8.987632 32.022007
4091  1 18.487910  8.987632 36.024758
4092  1 18.487910  8.987632 40.027509
4093  1 18.487910 11.438805  0.000000
4094  1 18.487910 11.438805  4.002751
4095  1 18.487910 11.438805  8.005502
4096  1 18.487910 11.438805 12.008253
4097  1 18.487910 11.438805 16.011004
4098  1 18.487910 11.438805 20.013755
4099  1 18.487910 11.438805 24.016506
4100  1 18.487910 11.438805 28.019257
4101  1 18.487910 11.438805 32.022007
4102  1 18.487910 11.438805 36.024758
4103  1 18.487910 11.438805 40.027509
4104  1 18.487910 13.889977  0.000000
4105  1 18.487910 13.889977  4.002751
4106  1 18.487910 13.889977  8.005502
4107  1 18.487910 13.889977 12.008253
4108  1 18.487910 13.889977 16.011004
4109  1 18.487910 13.889977 20.013755
4110  1 18.487910 13.889977 24.016506
4111  1 18.487910 13.889977 28.019257
4112  1 18.487910 13.889977 32.022007
4113  1 18.487910 13.889977 36.024758
4114  1 18.487910 13.889977 40.027509
4115  1 18.487910 16.341150  0.000000
4116  1 18.487910 16.341150  4.002751
4117  1 18.487910 16.341150  8.005502
4118  1 18.487910 16.341150 12.008253
4119  1 18.487910 16.341150 16.011004
4120  1 18.487910 16.341150 20.013755
4121  1 18.487910 16.341150 24.016506
4122  1 18.487910 16.341150 28.019257
4123  1 18.487910 16.341150 32.022007
4124  1 18.487910 16.341150 36.024758
4125  1 18.487910 16.341150 40.027509
4126  1 18.487910 18.792322  0.000000
4127  1 18.487910 18.792322  4.002751
4128  1 18.487910 18.792322  8.005502
4129  1 18.487910 18.792322 12.008253
4130  1 18.487910 18.792322 16.011004
4131  1 18.487910 18.792322 20.013755
4132  1 18.487910 18.792322 24.016506
4133  1 18.487910 18.792322 28.019257
4134  1 18.487910 18.792322 32.022007
4135  1 18.487910 18.792322 36.024758
4136  1 18.487910 18.792322 40.027509
4137  1 18.487910 21.243494  0.000000
4138  1 18.487910 21.243494  4.002751
4139  1 18.487910 21.243494  8.005502
4140  1 18.487910 21.243494 12.008253
4141  1 18.487910 21.243494 16.011004
4142  1 18.487910 21.243494 20.013755
4143  1 18.487910 21.243494 24.016506
4144  1 18.487910 21.243494 28.019257
4145  1 18.487910 21.243494 32.022007
4146  1 18.487910 21.243494 36.024758
4147  1 18.487910 21.243494 40.027509
4148  1 18.487910 23.694667  0.000000
4149  1 18.487910 23.694667  4.002751
4150  1 18.487910 23.694667  8.005502
4151  1 18.487910 23.694667 12.008253
4152  1 18.487910 23.694667 16.011004
4153  1 18.487910 23.694667 20.013755
4154  1 18.487910 23.694667 24.016506
4155  1 18.487910 23.694667 28.019257
4156  1 18.487910 23.694667 32.022007
4157  1 18.487910 23.694667 36.024758
4158  1 18.487910 23.694667 40.027509
4159  1 18.487910 26.145839  0.000000
4160  1 18.487910 26.145839  4.002751
4161  1 18.487910 26.145839  8.005502
4162  1 18.487910 26.145839 12.008253
4163  1 18.487910 26.145839 16.011004
4164  1 18.487910 26.145839 20.013755
4165  1 18.487910 26.145839 24.016506
4166  1 18.487910 26.145839 28.019257
4167  1 18.487910 26.145839 32.022007
4168  1 18.487910 26.145839 36.024758
4169  1 18.487910 26.145839 40.027509
4170  1 18.487910 28.597012  0.000000
4171  1 18.487910 28.597012  4.002751
4172  1 18.487910 28.597012  8.005502
4173  1 18.487910 28.597012 12.008253
4174  1 18.487910 28.597012 16.011004
4175  1 18.487910 28.597012 20.013755
4176  1 18.487910 28.597012 24.016506
4177  1 18.487910 28.597012 28.019257
4178  1 18.487910 28.597012 32.022007
4179  1 18.487910 28.597012 36.024758
4180  1 18.487910 28.597012 40.027509
4181  1 18.487910 31.048184  0.000000
4182  1 18.487910 31.048184  4.002751
4183  1 18.487910 31.048184  8.005502
4184  1 18.487910 31.048184 12.008253
4185  1 18.487910 31.048184 16.011004
4186  1 18.487910 31.048184 20.013755
4187  1 18.487910 31.048184 24.016506
4188  1 18.487910 31.048184 28.019257
4189  1 18.487910 31.048184 32.022007
4190  1 18.487910 31.048184 36.024758
4191  1 18.487910 31.048184 40.027509
4192  1 18.487910 33.499357  0.000000
4193  1 18.487910 33.499357  4.002751
4194  1 18.487910 33.499357  8.005502
4195  1 18.487910 33.499357 12.008253
4196  1 18.487910 33.499357 16.011004
4197  1 18.487910 33.499357 20.013755
4198  1 18.487910 33.499357 24.016506
4199  1 18.487910 33.499357 28.019257
4200  1 18.487910 33.499357 32.022007
4201  1 18.487910 33.499357 36.024758
4202  1 18.487910 33.499357 40.027509
4203  1 18.487910 35.950529  0.000000
4204  1 18.487910 35.950529  4.002751
4205  1 18.487910 35.950529  8.005502
4206  1 18.487910 35.950529 12.008253
4207  1 18.487910 35.950529 16.011004
4208  1 18.487910 35.950529 20.013755
4209  1 18.487910 35.950529 24.016506
4210  1 18.487910 35.950529 28.019257
4211  1 18.487910 35.950529 32.022007
4212  1 18.487910 35.950529 36.024758
4213  1 18.487910 35.950529 40.027509
4214  1 18.487910 38.401701  0.000000
4215  1 18.487910 38.401701  4.002751
4216  1 18.487910 38.401701  8.005502
4217  1 18.487910 38.401701 12.008253
4218  1 18.487910 38.401701 16.011004
4219  1 18.487910 38.401701 20.013755
4220  1 18.487910 38.401701 24.016506
4221  1 18.487910 38.401701 28.019257
4222  1 18.487910 38.401701 32.022007
4223  1 18.487910 38.401701 36.024758
4224  1 18.487910 38.401701 40.027509
4225  1 25.420876  1.634115  0.000000
4226  1 25.420876  1.634115  4.002751
4227  1 25.420876  1.634115  8.005502
4228  1 25.420876  1.634115 12.008253
4229  1 25.420876  1.634115 16.011004
4230  1 25.420876  1.634115 20.013755
4231  1 25.420876  1.634115 24.016506
4232  1 25.420876  1.634115 28.019257
4233  1 25.420876  1.634115 32.022007
4234  1 25.420876  1.634115 36.024758
4235  1 25.420876  1.634115 40.027509
4236  1 25.420876  4.085287  0.000000
4237  1 25.420876  4.085287  4.002751
4238  1 25.420876  4.085287  8.005502
4239  1 25.420876  4.085287 12.008253
4240  1 25.420876  4.085287 16.011004
4241  1 25.420876  4.085287 20.013755
4242  1 25.420876  4.085287 24.016506
4243  1 25.420876  4.085287 28.019257
4244  1 25.420876  4.085287 32.022007
4245  1 25.420876  4.085287 36.024758
4246  1 25.420876  4.085287 40.027509
4247  1 25.420876  6.536460  0.000000
4248  1 25.420876  6.536460  4.002751
4249  1 25.420876  6.536460  8.005502
4250  1 25.420876  6.536460 12.008253
4251  1 25.420876  6.536460 16.011004
4252  1 25.420876  6.536460 20.013755
4253  1 25.420876  6.536460 24.016506
4254  1 25.420876  6.536460 28.019257
4255  1 25.420876  6.536460 32.022007
4256  1 25.420876  6.536460 36.024758
4257  1 25.420876  6.536460 40.027509
4258  1 25.420876  8.987632  0.000000
4259  1 25.420876  8.987632  4.002751
4260  1 25.420876  8.987632  8.005502
4261  1 25.420876  8.987632 12.008253
4262  1 25.420876  8.987632 16.011004
4263  1 25.420876  8.987632 20.013755
4264  1 25.420876  8.987632 24.016506
4265  1 25.420876  8.987632 28.019257
4266  1 25.420876  8.987632 32.022007
4267  1 25.420876  8.987632 36.024758
4268  1 25.420876  8.987632 40.027509
4269  1 25.420876 11.438805  0.000000
4270  1 25.420876 11.438805  4.002751
4271  1 25.420876 11.438805  8.005502
4272  1 25.420876 11.438805 12.008253
4273  1 25.420876 11.438805 16.011004
4274  1 25.420876 11.438805 20.013755
4275  1 25.420876 11.438805 24.016506
4276  1 25.420876 11.438805 28.019257
4277  1 25.420876 11.438805 32.022007
4278  1 25.420876 11.438805 36.024758
4279  1 25.420876 11.438805 40.027509
4280  1 25.420876 13.889977  0.000000
4281  1 25.420876 13.889977  4.002751
4282  1 25.420876 13.889977  8.005502
4283  1 25.420876 13.889977 12.008253
4284  1 25.420876 13.889977 16.011004
4285  1 25.420876 13.889977 20.013755
4286  1 25.420876 13.889977 24.016506
4287  1 25.420876 13.889977 28.019257
4288  1 25.420876 13.889977 32.022007
4289  1 25.420876 13.889977 36.024758
4290  1 25.420876 13.889977 40.027509
4291  1 25.420876 16.341150  0.000000
4292  1 25.420876 16.341150  4.002751
4293  1 25.420876 16.341150  8.005502
4294  1 25.420876 16.341150 12.008253
4295  1 25.420876 16.341150 16.011004
4296  1 25.420876 16.341150 20.013755
4297  1 25.420876 16.341150 24.016506
4298  1 25.420876 16.341150 28.019257
4299  1 25.420876 16.341150 32.022007
4300  1 25.420876 16.341150 36.024758
4301  1 25.420876 16.341150 40.027509
4302  1 25.420876 18.792322  0.000000
4303  1 25.420876 18.792322  4.002751
4304  1 25.420876 18.792322  8.005502
4305  1 25.420876 18.792322 12.008253
4306  1 25.420876 18.792322 16.011004
4307  1 25.420876 18.179529 20.626548
4308  1 25.420876 18.179529 24.629299
4309  1 25.420876 18.792322 28.019257
4310  1 25.420876 18.792322 32.022007
4311  1 25.420876 18.792322 36.024758
4312  1 25.420876 18.792322 40.027509
4313  1 25.420876 21.243494  0.000000
4314  1 25.420876 21.243494  4.002751
4315  1 25.420876 21.243494  8.005502
4316  1 25.420876 21.243494 12.008253
4317  1 25.420876 21.243494 16.011004
4318  1 25.420876 21.243494 20.013755
4319  1 25.420876 21.243494 24.016506
4320  1 25.420876 21.243494 28.019257
4321  1 25.420876 21.243494 32.022007
4322  1 25.420876 21.243494 36.024758
4323  1 25.420876 21.243494 40.027509
4324  1 25.420876 23.694667  0.000000
4325  1 25.420876 23.694667  4.002751
4326  1 25.420876 23.694667  8.005502
4327  1 25.420876 23.694667 12.008253
4328  1 25.420876 23.694667 16.011004
4329  1 25.420876 23.694667 20.013755
4330  1 25.420876 23.694667 24.016506
4331  1 25.420876 23.694667 28.019257
4332  1 25.420876 23.694667 32.022007
4333  1 25.420876 23.694667 36.024758
4334  1 25.420876 23.694667 40.027509
4335  1 25.420876 26.145839  0.000000
4336  1 25.420876 26.145839  4.002751
4337  1 25.420876 26.145839  8.005502
4338  1 25.420876 26.145839 12.008253
4339  1 25.420876 26.145839 16.011004
4340  1 25.420876 26.145839 20.013755
4341  1 25.420876 26.145839 24.016506
4342  1 25.420876 26.145839 28.019257
4343  1 25.420876 26.145839 32.022007
4344  1 25.420876 26.145839 36.024758
4345  1 25.420876 26.145839 40.027509
4346  1 25.420876 28.597012  0.000000
4347  1 25.420876 28.597012  4.002751
4348  1 25.420876 28.597012  8.005502
4349  1 25.420876 28.597012 12.008253
4350  1 25.420876 28.597012 16.011004
4351  1 25.420876 28.597012 20.013755
4352  1 25.420876 28.597012 24.016506
4353  1 25.420876 28.597012 28.019257
4354  1 25.420876 28.597012 32.022007
4355  1 25.420876 28.597012 36.024758
4356  1 25.420876 28.597012 40.027509
4357  1 25.420876 31.048184  0.000000
4358  1 25.420876 31.048184  4.002751
4359  1 25.420876 31.048184  8.005502
4360  1 25.420876 31.048184 12.008253
4361  1 25.420876 31.048184 16.011004
4362  1 25.420876 31.048184 20.013755
4363  1 25.420876 31.048184 24.016506
4364  1 25.420876 31.048184 28.019257
4365  1 25.420876 31.048184 32.022007
4366  1 25.420876 31.048184 36.024758
4367  1 25.420876 31.048184 40.027509
4368  1 25.420876 33.499357  0.000000
4369  1 25.420876 33.499357  4.002751
4370  1 25.420876 33.499357  8.005502
4371  1 25.420876 33.499357 12.008253
4372  1 25.420876 33.499357 16.011004
4373  1 25.420876 33.499357 20.013755
4374  1 25.420876 33.499357 24.016506
4375  1 25.420876 33.499357 28.019257
4376  1 25.420876 33.499357 32.022007
4377  1 25.420876 33.499357 36.024758
4378  1 25.420876 33.499357 40.027509
4379  1 25.420876 35.950529  0.000000
4380  1 25.420876 35.950529  4.002751
4381  1 25.420876 35.950529  8.005502
4382  1 25.420876 35.950529 12.008253
4383  1 25.420876 35.950529 16.011004
4384  1 25.420876 35.950529 20.013755
4385  1 25.420876 35.950529 24.016506
4386  1 25.420876 35.950529 28.019257
4387  1 25.420876 35.950529 32.022007
4388  1 25.420876 35.950529 36.024758
4389  1 25.420876 35.950529 40.027509
4390  1 25.420876 38.401701  0.000000
4391  1 25.420876 38.401701  4.002751
4392  1 25.420876 38.401701  8.005502
4393  1 25.420876 38.401701 12.008253
4394  1 25.420876 38.401701 16.011004
4395  1 25.420876 38.401701 20.013755
4396  1 25.420876 38.401701 24.016506
4397  1 25.420876 38.401701 28.019257
4398  1 25.420876 38.401701 32.022007
4399  1 25.420876 38.401701 36.024758
4400  1 25.420876 38.401701 40.027509
4401  1 32.353843  1.634115  0.000000
4402  1 32.353843  1.634115  4.002751
4403  1 32.353843  1.634115  8.005502
4404  1 32.353843  1.634115 12.008253
4405  1 32.353843  1.634115 16.011004
4406  1 32.353843  1.634115 20.013755
4407  1 32.353843  1.634115 24.016506
4408  1 32.353843  1.634115 28.019257
4409  1 32.353843  1.634115 32.022007
4410  1 32.353843  1.634115 36.024758
4411  1 32.353843  1.634115 40.027509
4412  1 32.353843  4.085287  0.000000
4413  1 32.353843  4.085287  4.002751
4414  1 32.353843  4.085287  8.005502
4415  1 32.353843  4.085287 12.008253
4416  1 32.353843  4.085287 16.011004
4417  1 32.353843  4.085287 20.013755
4418  1 32.353843  4.085287 24.016506
4419  1 32.353843  4.085287 28.019257
4420  1 32.353843  4.085287 32.022007
4421  1 32.353843  4.085287 36.024758
4422  1 32.353843  4.085287 40.027509
4423  1 32.353843  6.536460  0.000000
4424  1 32.353843  6.536460  4.002751
4425  1 32.353843  6.536460  8.005502
4426  1 32.353843  6.536460 12.008253
4427  1 32.353843  6.536460 16.011004
4428  1 32.353843  6.536460 20.013755
4429  1 32.353843  6.536460 24.016506
4430  1 32.353843  6.536460 28.019257
4431  1 32.353843  6.536460 32.022007
4432  1 32.353843  6.536460 36.024758
4433  1 32.353843  6.536460 40.027509
4434  1 32.353843  8.987632  0.000000
4435  1 32.353843  8.987632  4.002751
4436  1 32.353843  8.987632  8.005502
4437  1 32.353843  8.987632 12.008253
4438  1 32.353843  8.987632 16.011004
4439  1 32.353843  8.987632 20.013755
4440  1 32.353843  8.987632 24.016506
4441  1 32.353843  8.987632 28.019257
4442  1 32.353843  8.987632 32.022007
4443  1 32.353843  8.987632 36.024758
4444  1 32.353843  8.987632 40.027509
4445  1 32.353843 11.438805  0.000000
4446  1 32.353843 11.438805  4.002751
4447  1 32.353843 11.438805  8.005502
4448  1 32.353843 11.438805 12.008253
4449  1 32.353843 11.438805 16.011004
4450  1 32.353843 11.438805 20.013755
4451  1 32.353843 11.438805 24.016506
4452  1 32.353843 11.438805 28.019257
4453  1 32.353843 11.438805 32.022007
4454  1 32.353843 11.438805 36.024758
4455  1 32.353843 11.438805 40.027509
4456  1 32.353843 13.889977  0.000000
4457  1 32.353843 13.889977  4.002751
4458  1 32.353843 13.889977  8.005502
4459  1 32.353843 13.889977 12.008253
4460  1 32.353843 13.889977 16.011004
4461  1 32.353843 13.889977 20.013755
4462  1 32.353843 13.889977 24.016506
4463  1 32.353843 13.889977 28.019257
4464  1 32.353843 13.889977 32.022007
4465  1 32.353843 13.889977 36.024758
4466  1 32.353843 13.889977 40.027509
4467  1 32.353843 16.341150  0.000000
4468  1 32.353843 16.341150  4.002751
4469  1 32.353843 16.341150  8.005502
4470  1 32.353843 16.341150 12.008253
4471  1 32.353843 16.341150 16.011004
4472  1 32.353843 16.341150 20.013755
4473  1 32.353843 16.341150 24.016506
4474  1 32.353843 16.341150 28.019257
4475  1 32.353843 16.341150 32.022007
4476  1 32.353843 16.341150 36.024758
4477  1 32.353843 16.341150 40.027509
4478  1 32.353843 18.792322  0.000000
4479  1 32.353843 18.792322  4.002751
4480  1 32.353843 18.792322  8.005502
4481  1 32.353843 18.792322 12.008253
4482  1 32.353843 18.792322 16.011004
4483  1 32.353843 18.792322 20.013755
4484  1 32.353843 18.792322 24.016506
4485  1 32.353843 18.792322 28.019257
4486  1 32.353843 18.792322 32.022007
4487  1 32.353843 18.792322 36.024758
4488  1 32.353843 18.792322 40.027509
4489  1 32.353843 21.243494  0.000000
4490  1 32.353843 21.243494  4.002751
4491  1 32.353843 21.243494  8.005502
4492  1 32.353843 21.243494 12.008253
4493  1 32.353843 21.243494 16.011004
4494  1 32.353843 21.243494 20.013755
4495  1 32.353843 21.243494 24.016506
4496  1 32.353843 21.243494 28.019257
4497  1 32.353843 21.243494 32.022007
4498  1 32.353843 21.243494 36.024758
4499  1 32.353843 21.243494 40.027509
4500  1 32.353843 23.694667  0.000000
4501  1 32.353843 23.694667  4.002751
4502  1 32.353843 23.694667  8.005502
4503  1 32.353843 23.694667 12.008253
4504  1 32.353843 23.694667 16.011004
4505  1 32.353843 23.694667 20.013755
4506  1 32.353843 23.694667 24.016506
4507  1 32.353843 23.694667 28.019257
4508  1 32.353843 23.694667 32.022007
4509  1 32.353843 23.694667 36.024758
4510  1 32.353843 23.694667 40.027509
4511  1 32.353843 26.145839  0.000000
4512  1 32.353843 26.145839  4.002751
4513  1 32.353843 26.145839  8.005502
4514  1 32.353843 26.145839 12.008253
4515  1 32.353843 26.145839 16.011004
4516  1 32.353843 26.145839 20.013755
4517  1 32.353843 26.145839 24.016506
4518  1 32.353843 26.145839 28.019257
4519  1 32.353843 26.145839 32.022007
4520  1 32.353843 26.145839 36.024758
4521  1 32.353843 26.145839 40.027509
4522  1 32.353843 28.597012  0.000000
4523  1 32.353843 28.597012  4.002751
4524  1 32.353843 28.597012  8.005502
4525  1 32.353843 28.597012 12.008253
4526  1 32.353843 28.597012 16.011004
4527  1 32.353843 28.597012 20.013755
4528  1 32.353843 28.597012 24.016506
4529  1 32.353843 28.597012 28.019257
4530  1 32.353843 28.597012 32.022007
4531  1 32.353843 28.597012 36.024758
4532  1 32.353843 28.597012 40.027509
4533  1 32.353843 31.048184  0.000000
4534  1 32.353843 31.048184  4.002751
4535  1 32.353843 31.048184  8.005502
4536  1 32.353843 31.048184 12.008253
4537  1 32.353843 31.048184 16.011004
4538  1 32.353843 31.048184 20.013755
4539  1 32.353843 31.048184 24.016506
4540  1 32.353843 31.048184 28.019257
4541  1 32.353843 31.048184 32.022007
4542  1 32.353843 31.048184 36.024758
4543  1 32.353843 31.048184 40.027509
4544  1 32.353843 33.499357  0.000000
4545  1 32.353843 33.499357  4.002751
4546  1 32.353843 33.499357  8.005502
4547  1 32.353843 33.499357 12.008253
4548  1 32.353843 33.499357 16.011004
4549  1 32.353843 33.499357 20.013755
4550  1 32.353843 33.499357 24.016506
4551  1 32.353843 33.499357 28.019257
4552  1 32.353843 33.499357 32.022007
4553  1 32.353843 33.499357 36.024758
4554  1 32.353843 33.499357 40.027509
4555  1 32.353843 35.950529  0.000000
4556  1 32.353843 35.950529  4.002751
4557  1 32.353843 35.950529  8.005502
4558  1 32.353843 35.950529 12.008253
4559  1 32.353843 35.950529 16.011004
4560  1 32.353843 35.950529 20.013755
4561  1 32.353843 35.950529 24.016506
4562  1 32.353843 35.950529 28.019257
4563  1 32.353843 35.950529 32.022007
4564  1 32.353843 35.950529 36.024758
4565  1 32.353843 35.950529 40.027509
4566  1 32.353843 38.401701  0.000000
4567  1 32.353843 38.401701  4.002751
4568  1 32.353843 38.401701  8.005502
4569  1 32.353843 38.401701 12.008253
4570  1 32.353843 38.401701 16.011004
4571  1 32.353843 38.401701 20.013755
4572  1 32.353843 38.401701 24.016506
4573  1 32.353843 38.401701 28.019257
4574  1 32.353843 38.401701 32.022007
4575  1 32.353843 38.401701 36.024758
4576  1 32.353843 38.401701 40.027509
4577  1 39.286810  1.634115  0.000000
4578  1 39.286810  1.634115  4.002751
4579  1 39.286810  1.634115  8.005502
4580  1 39.286810  1.634115 12.008253
4581  1 39.286810  1.634115 16.011004
4582  1 39.286810  1.634115 20.013755
4583  1 39.286810  1.634115 24.016506
4584  1 39.286810  1.634115 28.019257
4585  1 39.286810  1.634115 32.022007
4586  1 39.286810  1.634115 36.024758
4587  1 39.286810  1.634115 40.027509
4588  1 39.286810  4.085287  0.000000
4589  1 39.286810  4.085287  4.002751
4590  1 39.286810  4.085287  8.005502
4591  1 39.286810  4.085287 12.008253
4592  1 39.286810  4.085287 16.011004
4593  1 39.286810  4.085287 20.013755
4594  1 39.286810  4.085287 24.016506
4595  1 39.286810  4.085287 28.019257
4596  1 39.286810  4.085287 32.022007
4597  1 39.286810  4.085287 36.024758
4598  1 39.286810  4.085287 40.027509
4599  1 39.286810  6.536460  0.000000
4600  1 39.286810  6.536460  4.002751
4601  1 39.286810  6.536460  8.005502
4602  1 39.286810  6.536460 12.008253
4603  1 39.286810  6.536460 16.011004
4604  1 39.286810  6.536460 20.013755
4605  1 39.286810  6.536460 24.016506
4606  1 39.286810  6.536460 28.019257
4607  1 39.286810  6.536460 32.022007
4608  1 39.286810  6.536460 36.024758
4609  1 39.286810  6.536460 40.027509
4610  1 39.286810  8.987632  0.000000
4611  1 39.286810  8.987632  4.002751
4612  1 39.286810  8.987632  8.005502
4613  1 39.286810  8.987632 12.008253
4614  1 39.286810  8.987632 16.011004
4615  1 39.286810  8.987632 20.013755
4616  1 39.286810  8.987632 24.016506
4617  1 39.286810  8.987632 28.019257
4618  1 39.286810  8.987632 32.022007
4619  1 39.286810  8.987632 36.024758
4620  1 39.286810  8.987632 40.027509
4621  1 39.286810 11.438805  0.000000
4622  1 39.286810 11.438805  4.002751
4623  1 39.286810 11.438805  8.005502
4624  1 39.286810 11.438805 12.008253
4625  1 39.286810 11.438805 16.011004
4626  1 39.286810 11.438805 20.013755
4627  1 39.286810 11.438805 24.016506
4628  1 39.286810 11.438805 28.019257
4629  1 39.286810 11.438805 32.022007
4630  1 39.286810 11.438805 36.024758
4631  1 39.286810 11.438805 40.027509
4632  1 39.286810 13.889977  0.000000
4633  1 39.286810 13.889977  4.002751
4634  1 39.286810 13.889977  8.005502
4635  1 39.286810 13.889977 12.008253
4636  1 39.286810 13.889977 16.011004
4637  1 39.286810 13.889977 20.013755
4638  1 39.286810 13.889977 24.016506
4639  1 39.286810 13.889977 28.019257
4640  1 39.286810 13.889977 32.022007
4641  1 39.286810 13.889977 36.024758
4642  1 39.286810 13.889977 40.027509
4643  1 39.286810 16.341150  0.000000
4644  1 39.286810 16.341150  4.002751
4645  1 39.286810 16.341150  8.005502
4646  1 39.286810 16.341150 12.008253
4647  1 39.286810 16.341150 16.011004
4648  1 39.286810 16.341150 20.013755
4649  1 39.286810 16.341150 24.016506
4650  1 39.286810 16.341150 28.019257
4651  1 39.286810 16.341150 32.022007
4652  1 39.286810 16.341150 36.024758
4653  1 39.286810 16.341150 40.027509
4654  1 39.286810 18.792322  0.000000
4655  1 39.286810 18.792322  4.002751
4656  1 39.286810 18.792322  8.005502
4657  1 39.286810 18.792322 12.008253
4658  1 39.286810 18.792322 16.011004
4659  1 39.286810 18.792322 20.013755
4660  1 39.286810 18.792322 24.016506
4661  1 39.286810 18.792322 28.019257
4662  1 39.286810 18.792322 32.022007
4663  1 39.286810 18.792322 36.024758
4664  1 39.286810 18.792322 40.027509
4665  1 39.286810 21.243494  0.000000
4666  1 39.286810 21.243494  4.002751
4667  1 39.286810 21.243494  8.005502
4668  1 39.286810 21.243494 12.008253
4669  1 39.286810 21.243494 16.011004
4670  1 39.286810 21.243494 20.013755
4671  1 39.286810 21.243494 24.016506
4672  1 39.286810 21.243494 28.019257
4673  1 39.286810 21.243494 32.022007
4674  1 39.286810 21.243494 36.024758
4675  1 39.286810 21.243494 40.027509
4676  1 39.286810 23.694667  0.000000
4677  1 39.286810 23.694667  4.002751
4678  1 39.286810 23.694667  8.005502
4679  1 39.286810 23.694667 12.008253
4680  1 39.286810 23.694667 16.011004
4681  1 39.286810 23.694667 20.013755
4682  1 39.286810 23.694667 24.016506
4683  1 39.286810 23.694667 28.019257
4684  1 39.286810 23.694667 32.022007
4685  1 39.286810 23.694667 36.024758
4686  1 39.286810 23.694667 40.027509
4687  1 39.286810 26.145839  0.000000
4688  1 39.286810 26.145839  4.002751
4689  1 39.286810 26.145839  8.005502
4690  1 39.286810 26.145839 12.008253
4691  1 39.286810 26.145839 16.011004
4692  1 39.286810 26.145839 20.013755
4693  1 39.286810 26.145839 24.016506
4694  1 39.286810 26.145839 28.019257
4695  1 39.286810 26.145839 32.022007
4696  1 39.286810 26.145839 36.024758
4697  1 39.286810 26.145839 40.027509
4698  1 39.286810 28.597012  0.000000
4699  1 39.286810 28.597012  4.002751
4700  1 39.286810 28.597012  8.005502
4701  1 39.286810 28.597012 12.008253
4702  1 39.286810 28.597012 16.011004
4703  1 39.286810 28.597012 20.013755
4704  1 39.286810 28.597012 24.016506
4705  1 39.286810 28.597012 28.019257
4706  1 39.286810 28.597012 32.022007
4707  1 39.286810 28.597012 36.024758
4708  1 39.286810 28.597012 40.027509
4709  1 39.286810 31.048184  0.000000
4710  1 39.286810 31.048184  4.002751
4711  1 39.286810 31.048184  8.005502
4712  1 39.286810 31.048184 12.008253
4713  1 39.286810 31.048184 16.011004
4714  1 39.286810 31.048184 20.013755
4715  1 39.286810 31.048184 24.016506
4716  1 39.286810 31.048184 28.019257
4717  1 39.286810 31.048184 32.022007
4718  1 39.286810 31.048184 36.024758
4719  1 39.286810 31.048184 40.027509
4720  1 39.286810 33.499357  0.000000
4721  1 39.286810 33.499357  4.002751
4722  1 39.286810 33.499357  8.005502
4723  1 39.286810 33.499357 12.008253
4724  1 39.286810 33.499357 16.011004
4725  1 39.286810 33.499357 20.013755
4726  1 39.286810 33.499357 24.016506
4727  1 39.286810 33.499357 28.019257
4728  1 39.286810 33.499357 32.022007
4729  1 39.286810 33.499357 36.024758
4730  1 39.286810 33.499357 40.027509
4731  1 39.286810 35.950529  0.000000
4732  1 39.286810 35.950529  4.002751
4733  1 39.286810 35.950529  8.005502
4734  1 39.286810 35.950529 12.008253
4735  1 39.286810 35.950529 16.011004
4736  1 39.286810 35.950529 20.013755
4737  1 39.286810 35.950529 24.016506
4738  1 39.286810 35.950529 28.019257
4739  1 39.286810 35.950529 32.022007
4740  1 39.286810 35.950529 36.024758
4741  1 39.286810 35.950529 40.027509
4742  1 39.286810 38.401701  0.000000
4743  1 39.286810 38.401701  4.002751
4744  1 39.286810 38.401701  8.005502
4745  1 39.286810 38.401701 12.008253
4746  1 39.286810 38.401701 16.011004
4747  1 39.286810 38.401701 20.013755
4748  1 39.286810 38.401701 24.016506
4749  1 39.286810 38.401701 28.019257
4750  1 39.286810 38.401701 32.022007
4751  1 39.286810 38.401701 36.024758
4752  1 39.286810 38.401701 40.027509
4753  1 46.219776  1.634115  0.000000
4754  1 46.219776  1.634115  4.002751
4755  1 46.219776  1.634115  8.005502
4756  1 46.219776  1.634115 12.008253
4757  1 46.219776  1.634115 16.011004
4758  1 46.219776  1.634115 20.013755
4759  1 46.219776  1.634115 24.016506
4760  1 46.219776  1.634115 28.019257
4761  1 46.219776  1.634115 32.022007
4762  1 46.219776  1.634115 36.024758
4763  1 46.219776  1.634115 40.027509
4764  1 46.219776  4.085287  0.000000
4765  1 46.219776  4.085287  4.002751
4766  1 46.219776  4.085287  8.005502
4767  1 46.219776  4.085287 12.008253
4768  1 46.219776  4.085287 16.011004
4769  1 46.219776  4.085287 20.013755
4770  1 46.219776  4.085287 24.016506
4771  1 46.219776  4.085287 28.019257
4772  1 46.219776  4.085287 32.022007
4773  1 46.219776  4.085287 36.024758
4774  1 46.219776  4.085287 40.027509
4775  1 46.219776  6.536460  0.000000
4776  1 46.219776  6.536460  4.002751
4777  1 46.219776  6.536460  8.005502
4778  1 46.219776  6.536460 12.008253
4779  1 46.219776  6.536460 16.011004
4780  1 46.219776  6.536460 20.013755
4781  1 46.219776  6.536460 24.016506
4782  1 46.219776  6.536460 28.019257
4783  1 46.219776  6.536460 32.022007
4784  1 46.219776  6.536460 36.024758
4785  1 46.219776  6.536460 40.027509
4786  1 46.219776  8.987632  0.000000
4787  1 46.219776  8.987632  4.002751
4788  1 46.219776  8.987632  8.005502
4789  1 46.219776  8.987632 12.008253
4790  1 46.219776  8.987632 16.011004
4791  1 46.219776  8.987632 20.013755
4792  1 46.219776  8.987632 24.016506
4793  1 46.219776  8.987632 28.019257
4794  1 46.219776  8.987632 32.022007
4795  1 46.219776  8.987632 36.024758
4796  1 46.219776  8.987632 40.027509
4797  1 46.219776 11.438805  0.000000
4798  1 46.219776 11.438805  4.002751
4799  1 46.219776 11.438805  8.005502
4800  1 46.219776 11.438805 12.008253
4801  1 46.219776 11.438805 16.011004
4802  1 46.219776 11.438805 20.013755
4803  1 46.219776 11.438805 24.016506
4804  1 46.219776 11.438805 28.019257
4805  1 46.219776 11.438805 32.022007
4806  1 46.219776 11.438805 36.024758
4807  1 46.219776 11.438805 40.027509
4808  1 46.219776 13.889977  0.000000
4809  1 46.219776 13.889977  4.002751
4810  1 46.219776 13.889977  8.005502
4811  1 46.219776 13.889977 12.008253
4812  1 46.219776 13.889977 16.011004
4813  1 46.219776 13.889977 20.013755
4814  1 46.219776 13.889977 24.016506
4815  1 46.219776 13.889977 28.019257
4816  1 46.219776 13.889977 32.022007
4817  1 46.219776 13.889977 36.024758
4818  1 46.219776 13.889977 40.027509
4819  1 46.219776 16.341150  0.000000
4820  1 46.219776 16.341150  4.002751
4821  1 46.219776 16.341150  8.005502
4822  1 46.219776 16.341150 12.008253
4823  1 46.219776 16.341150 16.011004
4824  1 46.219776 16.341150 20.013755
4825  1 46.219776 16.341150 24.016506
4826  1 46.219776 16.341150 28.019257
4827  1 46.219776 16.341150 32.022007
4828  1 46.219776 16.341150 36.024758
4829  1 46.219776 16.341150 40.027509
4830  1 46.219776 18.792322  0.000000
4831  1 46.219776 18.792322  4.002751
4832  1 46.219776 18.792322  8.005502
4833  1 46.219776 18.792322 12.008253
4834  1 46.219776 18.792322 16.011004
4835  1 46.219776 18.792322 20.013755
4836  1 46.219776 18.792322 24.016506
4837  1 46.219776 18.792322 28.019257
4838  1 46.219776 18.792322 32.022007
4839  1 46.219776 18.792322 36.024758
4840  1 46.219776 18.792322 40.027509
4841  1 46.219776 21.243494  0.000000
4842  1 46.219776 21.243494  4.002751
4843  1 46.219776 21.243494  8.005502
4844  1 46.219776 21.243494 12.008253
4845  1 46.219776 21.243494 16.011004
4846  1 46.219776 21.243494 20.013755
4847  1 46.219776 21.243494 24.016506
4848  1 46.219776 21.243494 28.019257
4849  1 46.219776 21.243494 32.022007
4850  1 46.219776 21.243494 36.024758
4851  1 46.219776 21.243494 40.027509
4852  1 46.219776 23.694667  0.000000
4853  1 46.219776 23.694667  4.002751
4854  1 46.219776 23.694667  8.005502
4855  1 46.219776 23.694667 12.008253
4856  1 46.219776 23.694667 16.011004
4857  1 46.219776 23.694667 20.013755
4858  1 46.219776 23.694667 24.016506
4859  1 46.219776 23.694667 28.019257
4860  1 46.219776 23.694667 32.022007
4861  1 46.219776 23.694667 36.024758
4862  1 46.219776 23.694667 40.027509
4863  1 46.219776 26.145839  0.000000
4864  1 46.219776 26.145839  4.002751
4865  1 46.219776 26.145839  8.005502
4866  1 46.219776 26.145839 12.008253
4867  1 46.219776 26.145839 16.011004
4868  1 46.219776 26.145839 20.013755
4869  1 46.219776 26.145839 24.016506
4870  1 46.219776 26.145839 28.019257
4871  1 46.219776 26.145839 32.022007
4872  1 46.219776 26.145839 36.024758
4873  1 46.219776 26.145839 40.027509
4874  1 46.219776 28.597012  0.000000
4875  1 46.219776 28.597012  4.002751
4876  1 46.219776 28.597012  8.005502
4877  1 46.219776 28.597012 12.008253
4878  1 46.219776 28.597012 16.011004
4879  1 46.219776 28.597012 20.013755
4880  1 46.219776 28.597012 24.016506
4881  1 46.219776 28.597012 28.019257
4882  1 46.219776 28.597012 32.022007
4883  1 46.219776 28.597012 36.024758
4884  1 46.219776 28.597012 40.027509
4885  1 46.219776 31.048184  0.000000
4886  1 46.219776 31.048184  4.002751
4887  1 46.219776 31.048184  8.005502
4888  1 46.219776 31.048184 12.008253
4889  1 46.219776 31.048184 16.011004
4890  1 46.219776 31.048184 20.013755
4891  1 46.219776 31.048184 24.016506
4892  1 46.219776 31.048184 28.019257
4893  1 46.219776 31.048184 32.022007
4894  1 46.219776 31.048184 36.024758
4895  1 46.219776 31.048184 40.027509
4896  1 46.219776 33.499357  0.000000
4897  1 46.219776 33.499357  4.002751
4898  1 46.219776 33.499357  8.005502
4899  1 46.219776 33.499357 12.008253
4900  1 46.219776 33.499357 16.011004
4901  1 46.219776 33.499357 20.013755
4902  1 46.219776 33.499357 24.016506
4903  1 46.219776 33.499357 28.019257
4904  1 46.219776 33.499357 32.022007
4905  1 46.219776 33.499357 36.024758
4906  1 46.219776 33.499357 40.027509
4907  1 46.219776 35.950529  0.000000
4908  1 46.219776 35.950529  4.002751
4909  1 46.219776 35.950529  8.005502
4910  1 46.219776 35.950529 12.008253
4911  1 46.219776 35.950529 16.011004
4912  1 46.219776 35.950529 20.013755
4913  1 46.219776 35.950529 24.016506
4914  1 46.219776 35.950529 28.019257
4915  1 46.219776 35.950529 32.022007
4916  1 46.219776 35.950529 36.024758
4917  1 46.219776 35.950529 40.027509
4918  1 46.219776 38.401701  0.000000
4919  1 46.219776 38.401701  4.002751
4920  1 46.219776 38.401701  8.005502
4921  1 46.219776 38.401701 12.008253
4922  1 46.219776 38.401701 16.011004
4923  1 46.219776 38.401701 20.013755
4924  1 46.219776 38.401701 24.016506
4925  1 46.219776 38.401701 28.019257
4926  1 46.219776 38.401701 32.022007
4927  1 46.219776 38.401701 36.024758
4928  1 46.219776 38.401701 40.027509
4929  1  2.310990  0.817057  0.000000
4930  1  2.310990  0.817057  4.002751
4931  1  2.310990  0.817057  8.005502
4932  1  2.310990  0.817057 12.008253
4933  1  2.310990  0.817057 16.011004
4934  1  2.310990  0.817057 20.013755
4935  1  2.310990  0.817057 24.016506
4936  1  2.310990  0.817057 28.019257
4937  1  2.310990  0.817057 32.022007
4938  1  2.310990  0.817057 36.024758
4939  1  2.310990  0.817057 40.027509
4940  1  2.310990  3.268230  0.000000
4941  1  2.310990  3.268230  4.002751
4942  1  2.310990  3.268230  8.005502
4943  1  2.310990  3.268230 12.008253
4944  1  2.310990  3.268230 16.011004
4945  1  2.310990  3.268230 20.013755
4946  1  2.310990  3.268230 24.016506
4947  1  2.310990  3.268230 28.019257
4948  1  2.310990  3.268230 32.022007
4949  1  2.310990  3.268230 36.024758
4950  1  2.310990  3.268230 40.027509
4951  1  2.310990  5.719402  0.000000
4952  1  2.310990  5.719402  4.002751
4953  1  2.310990  5.719402  8.005502
4954  1  2.310990  5.719402 12.008253
4955  1  2.310990  5.719402 16.011004
4956  1  2.310990  5.719402 20.013755
4957  1  2.310990  5.719402 24.016506
4958  1  2.310990  5.719402 28.019257
4959  1  2.310990  5.719402 32.022007
4960  1  2.310990  5.719402 36.024758
4961  1  2.310990  5.719402 40.027509
4962  1  2.310990  8.170575  0.000000
4963  1  2.310990  8.170575  4.002751
4964  1  2.310990  8.170575  8.005502
4965  1  2.310990  8.170575 12.008253
4966  1  2.310990  8.170575 16.011004
4967  1  2.310990  8.170575 20.013755
4968  1  2.310990  8.170575 24.016506
4969  1  2.310990  8.170575 28.019257
4970  1  2.310990  8.170575 32.022007
4971  1  2.310990  8.170575 36.024758
4972  1  2.310990  8.170575 40.027509
4973  1  2.310990 10.621747  0.000000
4974  1  2.310990 10.621747  4.002751
4975  1  2.310990 10.621747  8.005502
4976  1  2.310990 10.621747 12.008253
4977  1  2.310990 10.621747 16.011004
4978  1  2.310990 10.621747 20.013755
4979  1  2.310990 10.621747 24.016506
4980  1  2.310990 10.621747 28.019257
4981  1  2.310990 10.621747 32.022007
4982  1  2.310990 10.621747 36.024758
4983  1  2.310990 10.621747 40.027509
4984  1  2.310990 13.072920  0.000000
4985  1  2.310990 13.072920  4.002751
4986  1  2.310990 13.072920  8.005502
4987  1  2.310990 13.072920 12.008253
4988  1  2.310990 13.072920 16.011004
4989  1  2.310990 13.072920 20.013755
4990  1  2.310990 13.072920 24.016506
4991  1  2.310990 13.072920 28.019257
4992  1  2.310990 13.072920 32.022007
4993  1  2.310990 13.072920 36.024758
4994  1  2.310990 13.072920 40.027509
4995  1  2.310990 15.524092  0.000000
4996  1  2.310990 15.524092  4.002751
4997  1  2.310990 15.524092  8.005502
4998  1  2.310990 15.524092 12.008253
4999  1  2.310990 15.524092 16.011004
5000  1  2.310990 15.524092 20.013755
5001  1  2.310990 15.524092 24.016506
5002  1  2.310990 15.524092 28.019257
5003  1  2.310990 15.524092 32.022007
5004  1  2.310990 15.524092 36.024758
5005  1  2.310990 15.524092 40.027509
5006  1  2.310990 17.975265  0.000000
5007  1  2.310990 17.975265  4.002751
5008  1  2.310990 17.975265  8.005502
5009  1  2.310990 17.975265 12.008253
5010  1  2.310990 17.975265 16.011004
5011  1  2.310990 17.975265 20.013755
5012  1  2.310990 17.975265 24.016506
5013  1  2.310990 17.975265 28.019257
5014  1  2.310990 17.975265 32.022007
5015  1  2.310990 17.975265 36.024758
5016  1  2.310990 17.975265 40.027509
5017  1  2.310990 20.426437  0.000000
5018  1  2.310990 20.426437  4.002751
5019  1  2.310990 20.426437  8.005502
5020  1  2.310990 20.426437 12.008253
5021  1  2.310990 20.426437 16.011004
5022  1  2.310990 20.426437 20.013755
5023  1  2.310990 20.426437 24.016506
5024  1  2.310990 20.426437 28.019257
5025  1  2.310990 20.426437 32.022007
5026  1  2.310990 20.426437 36.024758
5027  1  2.310990 20.426437 40.027509
5028  1  2.310990 22.877609  0.000000
5029  1  2.310990 22.877609  4.002751
5030  1  2.310990 22.877609  8.005502
5031  1  2.310990 22.877609 12.008253
5032  1  2.310990 22.877609 16.011004
5033  1  2.310990 22.877609 20.013755
5034  1  2.310990 22.877609 24.016506
5035  1  2.310990 22.877609 28.019257
5036  1  2.310990 22.877609 32.022007
5037  1  2.310990 22.877609 36.024758
5038  1  2.310990 22.877609 40.027509
5039  1  2.310990 25.328782  0.000000
5040  1  2.310990 25.328782  4.002751
5041  1  2.310990 25.328782  8.005502
5042  1  2.310990 25.328782 12.008253
5043  1  2.310990 25.328782 16.011004
5044  1  2.310990 25.328782 20.013755
5045  1  2.310990 25.328782 24.016506
5046  1  2.310990 25.328782 28.019257
5047  1  2.310990 25.328782 32.022007
5048  1  2.310990 25.328782 36.024758
5049  1  2.310990 25.328782 40.027509
5050  1  2.310990 27.779954  0.000000
5051  1  2.310990 27.779954  4.002751
5052  1  2.310990 27.779954  8.005502
5053  1  2.310990 27.779954 12.008253
5054  1  2.310990 27.779954 16.011004
5055  1  2.310990 27.779954 20.013755
5056  1  2.310990 27.779954 24.016506
5057  1  2.310990 27.779954 28.019257
5058  1  2.310990 27.779954 32.022007
5059  1  2.310990 27.779954 36.024758
5060  1  2.310990 27.779954 40.027509
5061  1  2.310990 30.231127  0.000000
5062  1  2.310990 30.231127  4.002751
5063  1  2.310990 30.231127  8.005502
5064  1  2.310990 30.231127 12.008253
5065  1  2.310990 30.231127 16.011004
5066  1  2.310990 30.231127 20.013755
5067  1  2.310990 30.231127 24.016506
5068  1  2.310990 30.231127 28.019257
5069  1  2.310990 30.231127 32.022007
5070  1  2.310990 30.231127 36.024758
5071  1  2.310990 30.231127 40.027509
5072  1  2.310990 32.682299  0.000000
5073  1  2.310990 32.682299  4.002751
5074  1  2.310990 32.682299  8.005502
5075  1  2.310990 32.682299 12.008253
5076  1  2.310990 32.682299 16.011004
5077  1  2.310990 32.682299 20.013755
5078  1  2.310990 32.682299 24.016506
5079  1  2.310990 32.682299 28.019257
5080  1  2.310990 32.682299 32.022007
5081  1  2.310990 32.682299 36.024758
5082  1  2.310990 32.682299 40.027509
5083  1  2.310990 35.133472  0.000000
5084  1  2.310990 35.133472  4.002751
5085  1  2.310990 35.133472  8.005502
5086  1  2.310990 35.133472 12.008253
5087  1  2.310990 35.133472 16.011004
5088  1  2.310990 35.133472 20.013755
5089  1  2.310990 35.133472 24.016506
5090  1  2.310990 35.133472 28.019257
5091  1  2.310990 35.133472 32.022007
5092  1  2.310990 35.133472 36.024758
5093  1  2.310990 35.133472 40.027509
5094  1  2.310990 37.584644  0.000000
5095  1  2.310990 37.584644  4.002751
5096  1  2.310990 37.584644  8.005502
5097  1  2.310990 37.584644 12.008253
5098  1  2.310990 37.584644 16.011004
5099  1  2.310990 37.584644 20.013755
5100  1  2.310990 37.584644 24.016506
5101  1  2.310990 37.584644 28.019257
5102  1  2.310990 37.584644 32.022007
5103  1  2.310990 37.584644 36.024758
5104  1  2.310990 37.584644 40.027509
5105  1  9.243956  0.817057  0.000000
5106  1  9.243956  0.817057  4.002751
5107  1  9.243956  0.817057  8.005502
5108  1  9.243956  0.817057 12.008253
5109  1  9.243956  0.817057 16.011004
5110  1  9.243956  0.817057 20.013755
5111  1  9.243956  0.817057 24.016506
5112  1  9.243956  0.817057 28.019257
5113  1  9.243956  0.817057 32.022007
5114  1  9.243956  0.817057 36.024758
5115  1  9.243956  0.817057 40.027509
5116  1  9.243956  3.268230  0.000000
5117  1  9.243956  3.268230  4.002751
5118  1  9.243956  3.268230  8.005502
5119  1  9.243956  3.268230 12.008253
5120  1  9.243956  3.268230 16.011004
5121  1  9.243956  3.268230 20.013755
5122  1  9.243956  3.268230 24.016506
5123  1  9.243956  3.268230 28.019257
5124  1  9.243956  3.268230 32.022007
5125  1  9.243956  3.268230 36.024758
5126  1  9.243956  3.268230 40.027509
5127  1  9.243956  5.719402  0.000000
5128  1  9.243956  5.719402  4.002751
5129  1  9.243956  5.719402  8.005502
5130  1  9.243956  5.719402 12.008253
5131  1  9.243956  5.719402 16.011004
5132  1  9.243956  5.719402 20.013755
5133  1  9.243956  5.719402 24.016506
5134  1  9.243956  5.719402 28.019257
5135  1  9.243956  5.719402 32.022007
5136  1  9.243956  5.719402 36.024758
5137  1  9.243956  5.719402 40.027509
5138  1  9.243956  8.170575  0.000000
5139  1  9.243956  8.170575  4.002751
5140  1  9.243956  8.170575  8.005502
5141  1  9.243956  8.170575 12.008253
5142  1  9.243956  8.170575 16.011004
5143  1  9.243956  8.170575 20.013755
5144  1  9.243956  8.170575 24.016506
5145  1  9.243956  8.170575 28.019257
5146  1  9.243956  8.170575 32.022007
5147  1  9.243956  8.170575 36.024758
5148  1  9.243956  8.170575 40.027509
5149  1  9.243956 10.621747  0.000000
5150  1  9.243956 10.621747  4.002751
5151  1  9.243956 10.621747  8.005502
5152  1  9.243956 10.621747 12.008253
5153  1  9.243956 10.621747 16.011004
5154  1  9.243956 10.621747 20.013755
5155  1  9.243956 10.621747 24.016506
5156  1  9.243956 10.621747 28.019257
5157  1  9.243956 10.621747 32.022007
5158  1  9.243956 10.621747 36.024758
5159  1  9.243956 10.621747 40.027509
5160  1  9.243956 13.072920  0.000000
5161  1  9.243956 13.072920  4.002751
5162  1  9.243956 13.072920  8.005502
5163  1  9.243956 13.072920 12.008253
5164  1  9.243956 13.072920 16.011004
5165  1  9.243956 13.072920 20.013755
5166  1  9.243956 13.072920 24.016506
5167  1  9.243956 13.072920 28.019257
5168  1  9.243956 13.072920 32.022007
5169  1  9.243956 13.072920 36.024758
5170  1  9.243956 13.072920 40.027509
5171  1  9.243956 15.524092  0.000000
5172  1  9.243956 15.524092  4.002751
5173  1  9.243956 15.524092  8.005502
5174  1  9.243956 15.524092 12.008253
5175  1  9.243956 15.524092 16.011004
5176  1  9.243956 15.524092 20.013755
5177  1  9.243956 15.524092 24.016506
5178  1  9.243956 15.524092 28.019257
5179  1  9.243956 15.524092 32.022007
5180  1  9.243956 15.524092 36.024758
5181  1  9.243956 15.524092 40.027509
5182  1  9.243956 17.975265  0.000000
5183  1  9.243956 17.975265  4.002751
5184  1  9.243956 17.975265  8.005502
5185  1  9.243956 17.975265 12.008253
5186  1  9.243956 17.975265 16.011004
5187  1  9.243956 17.975265 20.013755
5188  1  9.243956 17.975265 24.016506
5189  1  9.243956 17.975265 28.019257
5190  1  9.243956 17.975265 32.022007
5191  1  9.243956 17.975265 36.024758
5192  1  9.243956 17.975265 40.027509
5193  1  9.243956 20.426437  0.000000
5194  1  9.243956 20.426437  4.002751
5195  1  9.243956 20.426437  8.005502
5196  1  9.243956 20.426437 12.008253
5197  1  9.243956 20.426437 16.011004
5198  1  9.243956 20.426437 20.013755
5199  1  9.243956 20.426437 24.016506
5200  1  9.243956 20.426437 28.019257
5201  1  9.243956 20.426437 32.022007
5202  1  9.243956 20.426437 36.024758
5203  1  9.243956 20.426437 40.027509
5204  1  9.243956 22.877609  0.000000
5205  1  9.243956 22.877609  4.002751
5206  1  9.243956 22.877609  8.005502
5207  1  9.243956 22.877609 12.008253
5208  1  9.243956 22.877609 16.011004
5209  1  9.243956 22.877609 20.013755
5210  1  9.243956 22.877609 24.016506
5211  1  9.243956 22.877609 28.019257
5212  1  9.243956 22.877609 32.022007
5213  1  9.243956 22.877609 36.024758
5214  1  9.243956 22.877609 40.027509
5215  1  9.243956 25.328782  0.000000
5216  1  9.243956 25.328782  4.002751
5217  1  9.243956 25.328782  8.005502
5218  1  9.243956 25.328782 12.008253
5219  1  9.243956 25.328782 16.011004
5220  1  9.243956 25.328782 20.013755
5221  1  9.243956 25.328782 24.016506
5222  1  9.243956 25.328782 28.019257
5223  1  9.243956 25.328782 32.022007
5224  1  9.243956 25.328782 36.024758
5225  1  9.243956 25.328782 40.027509
5226  1  9.243956 27.779954  0.000000
5227  1  9.243956 27.779954  4.002751
5228  1  9.243956 27.779954  8.005502
5229  1  9.243956 27.779954 12.008253
5230  1  9.243956 27.779954 16.011004
5231  1  9.243956 27.779954 20.013755
5232  1  9.243956 27.779954 24.016506
5233  1  9.243956 27.779954 28.019257
5234  1  9.243956 27.779954 32.022007
5235  1  9.243956 27.779954 36.024758
5236  1  9.243956 27.779954 40.027509
5237  1  9.243956 30.231127  0.000000
5238  1  9.243956 30.231127  4.002751
5239  1  9.243956 30.231127  8.005502
5240  1  9.243956 30.231127 12.008253
5241  1  9.243956 30.231127 16.011004
5242  1  9.243956 30.231127 20.013755
5243  1  9.243956 30.231127 24.016506
5244  1  9.243956 30.231127 28.019257
5245  1  9.243956 30.231127 32.022007
5246  1  9.243956 30.231127 36.024758
5247  1  9.243956 30.231127 40.027509
5248  1  9.243956 32.682299  0.000000
5249  1  9.243956 32.682299  4.002751
5250  1  9.243956 32.682299  8.005502
5251  1  9.243956 32.682299 12.008253
5252  1  9.243956 32.682299 16.011004
5253  1  9.243956 32.682299 20.013755
5254  1  9.243956 32.682299 24.016506
5255  1  9.243956 32.682299 28.019257
5256  1  9.243956 32.682299 32.022007
5257  1  9.243956 32.682299 36.024758
5258  1  9.243956 32.682299 40.027509
5259  1  9.243956 35.133472  0.000000
5260  1  9.243956 35.133472  4.002751
5261  1  9.243956 35.133472  8.005502
5262  1  9.243956 35.133472 12.008253
5263  1  9.243956 35.133472 16.011004
5264  1  9.243956 35.133472 20.013755
5265  1  9.243956 35.133472 24.016506
5266  1  9.243956 35.133472 28.019257
5267  1  9.243956 35.133472 32.022007
5268  1  9.243956 35.133472 36.024758
5269  1  9.243956 35.133472 40.027509
5270  1  9.243956 37.584644  0.000000
5271  1  9.243956 37.584644  4.002751
5272  1  9.243956 37.584644  8.005502
5273  1  9.243956 37.584644 12.008253
5274  1  9.243956 37.584644 16.011004
5275  1  9.243956 37.584644 20.013755
5276  1  9.243956 37.584644 24.016506
5277  1  9.243956 37.584644 28.019257
5278  1  9.243956 37.584644 32.022007
5279  1  9.243956 37.584644 36.024758
5280  1  9.243956 37.584644 40.027509
5281  1 16.176923  0.817057  0.000000
5282  1 16.176923  0.817057  4.002751
5283  1 16.176923  0.817057  8.005502
5284  1 16.176923  0.817057 12.008253
5285  1 16.176923  0.817057 16.011004
5286  1 16.176923  0.817057 20.013755
5287  1 16.176923  0.817057 24.016506
5288  1 16.176923  0.817057 28.019257
5289  1 16.176923  0.817057 32.022007
5290  1 16.176923  0.817057 36.024758
5291  1 16.176923  0.817057 40.027509
5292  1 16.176923  3.268230  0.000000
5293  1 16.176923  3.268230  4.002751
5294  1 16.176923  3.268230  8.005502
5295  1 16.176923  3.268230 12.008253
5296  1 16.176923  3.268230 16.011004
5297  1 16.176923  3.268230 20.013755
5298  1 16.176923  3.268230 24.016506
5299  1 16.176923  3.268230 28.019257
5300  1 16.176923  3.268230 32.022007
5301  1 16.176923  3.268230 36.024758
5302  1 16.176923  3.268230 40.027509
5303  1 16.176923  5.719402  0.000000
5304  1 16.176923  5.719402  4.002751
5305  1 16.176923  5.719402  8.005502
5306  1 16.176923  5.719402 12.008253
5307  1 16.176923  5.719402 16.011004
5308  1 16.176923  5.719402 20.013755
5309  1 16.176923  5.719402 24.016506
5310  1 16.176923  5.719402 28.019257
5311  1 16.176923  5.719402 32.022007
5312  1 16.176923  5.719402 36.024758
5313  1 16.176923  5.719402 40.027509
5314  1 16.176923  8.170575  0.000000
5315  1 16.176923  8.170575  4.002751
5316  1 16.176923  8.170575  8.005502
5317  1 16.176923  8.170575 12.008253
5318  1 16.176923  8.170575 16.011004
5319  1 16.176923  8.170575 20.013755
5320  1 16.176923  8.170575 24.016506
5321  1 16.176923  8.170575 28.019257
5322  1 16.176923  8.170575 32.022007
5323  1 16.176923  8.170575 36.024758
5324  1 16.176923  8.170575 40.027509
5325  1 16.176923 10.621747  0.000000
5326  1 16.176923 10.621747  4.002751
5327  1 16.176923 10.621747  8.005502
5328  1 16.176923 10.621747 12.008253
5329  1 16.176923 10.621747 16.011004
5330  1 16.176923 10.621747 20.013755
5331  1 16.176923 10.621747 24.016506
5332  1 16.176923 10.621747 28.019257
5333  1 16.176923 10.621747 32.022007
5334  1 16.176923 10.621747 36.024758
5335  1 16.176923 10.621747 40.027509
5336  1 16.176923 13.072920  0.000000
5337  1 16.176923 13.072920  4.002751
5338  1 16.176923 13.072920  8.005502
5339  1 16.176923 13.072920 12.008253
5340  1 16.176923 13.072920 16.011004
5341  1 16.176923 13.072920 20.013755
5342  1 16.176923 13.072920 24.016506
5343  1 16.176923 13.072920 28.019257
5344  1 16.176923 13.072920 32.022007
5345  1 16.176923 13.072920 36.024758
5346  1 16.176923 13.072920 40.027509
5347  1 16.176923 15.524092  0.000000
5348  1 16.176923 15.524092  4.002751
5349  1 16.176923 15.524092  8.005502
5350  1 16.176923 15.524092 12.008253
5351  1 16.176923 15.524092 16.011004
5352  1 16.176923 15.524092 20.013755
5353  1 16.176923 15.524092 24.016506
5354  1 16.176923 15.524092 28.019257
5355  1 16.176923 15.524092 32.022007
5356  1 16.176923 15.524092 36.024758
5357  1 16.176923 15.524092 40.027509
5358  1 16.176923 17.975265  0.000000
5359  1 16.176923 17.975265  4.002751
5360  1 16.176923 17.975265  8.005502
5361  1 16.176923 17.975265 12.008253
5362  1 16.176923 17.975265 16.011004
5363  1 16.176923 17.975265 20.013755
5364  1 16.176923 17.975265 24.016506
5365  1 16.176923 17.975265 28.019257
5366  1 16.176923 17.975265 32.022007
5367  1 16.176923 17.975265 36.024758
5368  1 16.176923 17.975265 40.027509
5369  1 16.176923 20.426437  0.000000
5370  1 16.176923 20.426437  4.002751
5371  1 16.176923 20.426437  8.005502
5372  1 16.176923 20.426437 12.008253
5373  1 16.176923 20.426437 16.011004
5374  1 16.176923 20.426437 20.013755
5375  1 16.176923 20.426437 24.016506
5376  1 16.176923 20.426437 28.019257
5377  1 16.176923 20.426437 32.022007
5378  1 16.176923 20.426437 36.024758
5379  1 16.176923 20.426437 40.027509
5380  1 16.176923 22.877609  0.000000
5381  1 16.176923 22.877609  4.002751
5382  1 16.176923 22.877609  8.005502
5383  1 16.176923 22.877609 12.008253
5384  1 16.176923 22.877609 16.011004
5385  1 16.176923 22.877609 20.013755
5386  1 16.176923 22.877609 24.016506
5387  1 16.176923 22.877609 28.019257
5388  1 16.176923 22.877609 32.022007
5389  1 16.176923 22.877609 36.024758
5390  1 16.176923 22.877609 40.027509
5391  1 16.176923 25.328782  0.000000
5392  1 16.176923 25.328782  4.002751
5393  1 16.176923 25.328782  8.005502
5394  1 16.176923 25.328782 12.008253
5395  1 16.176923 25.328782 16.011004
5396  1 16.176923 25.328782 20.013755
5397  1 16.176923 25.328782 24.016506
5398  1 16.176923 25.328782 28.019257
5399  1 16.176923 25.328782 32.022007
5400  1 16.176923 25.328782 36.024758
5401  1 16.176923 25.328782 40.027509
5402  1 16.176923 27.779954  0.000000
5403  1 16.176923 27.779954  4.002751
5404  1 16.176923 27.779954  8.005502
5405  1 16.176923 27.779954 12.008253
5406  1 16.176923 27.779954 16.011004
5407  1 16.176923 27.779954 20.013755
5408  1 16.176923 27.779954 24.016506
5409  1 16.176923 27.779954 28.019257
5410  1 16.176923 27.779954 32.022007
5411  1 16.176923 27.779954 36.024758
5412  1 16.176923 27.779954 40.027509
5413  1 16.176923 30.231127  0.000000
5414  1 16.176923 30.231127  4.002751
5415  1 16.176923 30.231127  8.005502
5416  1 16.176923 30.231127 12.008253
5417  1 16.176923 30.231127 16.011004
5418  1 16.176923 30.231127 20.013755
5419  1 16.176923 30.231127 24.016506
5420  1 16.176923 30.231127 28.019257
5421  1 16.176923 30.231127 32.022007
5422  1 16.176923 30.231127 36.024758
5423  1 16.176923 30.231127 40.027509
5424  1 16.176923 32.682299  0.000000
5425  1 16.176923 32.682299  4.002751
5426  1 16.176923 32.682299  8.005502
5427  1 16.176923 32.682299 12.008253
5428  1 16.176923 32.682299 16.011004
5429  1 16.176923 32.682299 20.013755
5430  1 16.176923 32.682299 24.016506
5431  1 16.176923 32.682299 28.019257
5432  1 16.176923 32.682299 32.022007
5433  1 16.176923 32.682299 36.024758
5434  1 16.176923 32.682299 40.027509
5435  1 16.176923 35.133472  0.000000
5436  1 16.176923 35.133472  4.002751
5437  1 16.176923 35.133472  8.005502
5438  1 16.176923 35.133472 12.008253
5439  1 16.176923 35.133472 16.011004
5440  1 16.176923 35.133472 20.013755
5441  1 16.176923 35.133472 24.016506
5442  1 16.176923 35.133472 28.019257
5443  1 16.176923 35.133472 32.022007
5444  1 16.176923 35.133472 36.024758
5445  1 16.176923 35.133472 40.027509
5446  1 16.176923 37.584644  0.000000
5447  1 16.176923 37.584644  4.002751
5448  1 16.176923 37.584644  8.005502
5449  1 16.176923 37.584644 12.008253
5450  1 16.176923 37.584644 16.011004
5451  1 16.176923 37.584644 20.013755
5452  1 16.176923 37.584644 24.016506
5453  1 16.176923 37.584644 28.019257
5454  1 16.176923 37.584644 32.022007
5455  1 16.176923 37.584644 36.024758
5456  1 16.176923 37.584644 40.027509
5457  1 23.109889  0.817057  0.000000
5458  1 23.109889  0.817057  4.002751
5459  1 23.109889  0.817057  8.005502
5460  1 23.109889  0.817057 12.008253
5461  1 23.109889  0.817057 16.011004
5462  1 23.109889  0.817057 20.013755
5463  1 23.109889  0.817057 24.016506
5464  1 23.109889  0.817057 28.019257
5465  1 23.109889  0.817057 32.022007
5466  1 23.109889  0.817057 36.024758
5467  1 23.109889  0.817057 40.027509
5468  1 23.109889  3.268230  0.000000
5469  1 23.109889  3.268230  4.002751
5470  1 23.109889  3.268230  8.005502
5471  1 23.109889  3.268230 12.008253
5472  1 23.109889  3.268230 16.011004
5473  1 23.109889  3.268230 20.013755
5474  1 23.109889  3.268230 24.016506
5475  1 23.109889  3.268230 28.019257
5476  1 23.109889  3.268230 32.022007
5477  1 23.109889  3.268230 36.024758
5478  1 23.109889  3.268230 40.027509
5479  1 23.109889  5.719402  0.000000
5480  1 23.109889  5.719402  4.002751
5481  1 23.109889  5.719402  8.005502
5482  1 23.109889  5.719402 12.008253
5483  1 23.109889  5.719402 16.011004
5484  1 23.109889  5.719402 20.013755
5485  1 23.109889  5.719402 24.016506
5486  1 23.109889  5.719402 28.019257
5487  1 23.109889  5.719402 32.022007
5488  1 23.109889  5.719402 36.024758
5489  1 23.109889  5.719402 40.027509
5490  1 23.109889  8.170575  0.000000
5491  1 23.109889  8.170575  4.002751
5492  1 23.109889  8.170575  8.005502
5493  1 23.109889  8.170575 12.008253
5494  1 23.109889  8.170575 16.011004
5495  1 23.109889  8.170575 20.013755
5496  1 23.109889  8.170575 24.016506
5497  1 23.109889  8.170575 28.019257
5498  1 23.109889  8.170575 32.022007
5499  1 23.109889  8.170575 36.024758
5500  1 23.109889  8.170575 40.027509
5501  1 23.109889 10.621747  0.000000
5502  1 23.109889 10.621747  4.002751
5503  1 23.109889 10.621747  8.005502
5504  1 23.109889 10.621747 12.008253
5505  1 23.109889 10.621747 16.011004
5506  1 23.109889 10.621747 20.013755
5507  1 23.109889 10.621747 24.016506
5508  1 23.109889 10.621747 28.019257
5509  1 23.109889 10.621747 32.022007
5510  1 23.109889 10.621747 36.024758
5511  1 23.109889 10.621747 40.027509
5512  1 23.109889 13.072920  0.000000
5513  1 23.109889 13.072920  4.002751
5514  1 23.109889 13.072920  8.005502
5515  1 23.109889 13.072920 12.008253
5516  1 23.109889 13.072920 16.011004
5517  1 23.109889 13.072920 20.013755
5518  1 23.109889 13.072920 24.016506
5519  1 23.109889 13.072920 28.019257
5520  1 23.109889 13.072920 32.022007
5521  1 23.109889 13.072920 36.024758
5522  1 23.109889 13.072920 40.027509
5523  1 23.109889 15.524092  0.000000
5524  1 23.109889 15.524092  4.002751
5525  1 23.109889 15.524092  8.005502
5526  1 23.109889 15.524092 12.008253
5527  1 23.109889 15.524092 16.011004
5528  1 23.109889 15.524092 20.013755
5529  1 23.109889 15.524092 24.016506
5530  1 23.109889 15.524092 28.019257
5531  1 23.109889 15.524092 32.022007
5532  1 23.109889 15.524092 36.024758
5533  1 23.109889 15.524092 40.027509
5534  1 23.109889 17.975265  0.000000
5535  1 23.109889 17.975265  4.002751
5536  1 23.109889 17.975265  8.005502
5537  1 23.109889 17.975265 12.008253
5538  1 23.109889 17.975265 16.011004
5539  1 23.109889 17.362472 20.626548
5540  1 23.109889 17.362472 24.629299
5541  1 23.109889 17.975265 28.019257
5542  1 23.109889 17.975265 32.022007
5543  1 23.109889 17.975265 36.024758
5544  1 23.109889 17.975265 40.027509
5545  1 23.109889 20.426437  0.000000
5546  1 23.109889 20.426437  4.002751
5547  1 23.109889 20.426437  8.005502
5548  1 23.109889 20.426437 12.008253
5549  1 23.109889 20.426437 16.011004
5550  1 23.109889 20.426437 20.013755
5551  1 23.109889 20.426437 24.016506
5552  1 23.109889 20.426437 28.019257
5553  1 23.109889 20.426437 32.022007
5554  1 23.109889 20.426437 36.024758
5555  1 23.109889 20.426437 40.027509
5556  1 23.109889 22.877609  0.000000
5557  1 23.109889 22.877609  4.002751
5558  1 23.109889 22.877609  8.005502
5559  1 23.109889 22.877609 12.008253
5560  1 23.109889 22.877609 16.011004
5561  1 23.109889 22.877609 20.013755
5562  1 23.109889 22.877609 24.016506
5563  1 23.109889 22.877609 28.019257
5564  1 23.109889 22.877609 32.022007
5565  1 23.109889 22.877609 36.024758
5566  1 23.109889 22.877609 40.027509
5567  1 23.109889 25.328782  0.000000
5568  1 23.109889 25.328782  4.002751
5569  1 23.109889 25.328782  8.005502
5570  1 23.109889 25.328782 12.008253
5571  1 23.109889 25.328782 16.011004
5572  1 23.109889 25.328782 20.013755
5573  1 23.109889 25.328782 24.016506
5574  1 23.109889 25.328782 28.019257
5575  1 23.109889 25.328782 32.022007
5576  1 23.109889 25.328782 36.024758
5577  1 23.109889 25.328782 40.027509
5578  1 23.109889 27.779954  0.000000
5579  1 23.109889 27.779954  4.002751
5580  1 23.109889 27.779954  8.005502
5581  1 23.109889 27.779954 12.008253
5582  1 23.109889 27.779954 16.011004
5583  1 23.109889 27.779954 20.013755
5584  1 23.109889 27.779954 24.016506
5585  1 23.109889 27.779954 28.019257
5586  1 23.109889 27.779954 32.022007
5587  1 23.109889 27.779954 36.024758
5588  1 23.109889 27.779954 40.027509
5589  1 23.109889 30.231127  0.000000
5590  1 23.109889 30.231127  4.002751
5591  1 23.109889 30.231127  8.005502
5592  1 23.109889 30.231127 12.008253
5593  1 23.109889 30.231127 16.011004
5594  1 23.109889 30.231127 20.013755
5595  1 23.109889 30.231127 24.016506
5596  1 23.109889 30.231127 28.019257
5597  1 23.109889 30.231127 32.022007
5598  1 23.109889 30.231127 36.024758
5599  1 23.109889 30.231127 40.027509
5600  1 23.109889 32.682299  0.000000
5601  1 23.109889 32.682299  4.002751
5602  1 23.109889 32.682299  8.005502
5603  1 23.109889 32.682299 12.008253
5604  1 23.109889 32.682299 16.011004
5605  1 23.109889 32.682299 20.013755
5606  1 23.109889 32.682299 24.016506
5607  1 23.109889 32.682299 28.019257
5608  1 23.109889 32.682299 32.022007
5609  1 23.109889 32.682299 36.024758
5610  1 23.109889 32.682299 40.027509
5611  1 23.109889 35.133472  0.000000
5612  1 23.109889 35.133472  4.002751
5613  1 23.109889 35.133472  8.005502
5614  1 23.109889 35.133472 12.008253
5615  1 23.109889 35.133472 16.011004
5616  1 23.109889 35.133472 20.013755
5617  1 23.109889 35.133472 24.016506
5618  1 23.109889 35.133472 28.019257
5619  1 23.109889 35.133472 32.022007
5620  1 23.109889 35.133472 36.024758
5621  1 23.109889 35.133472 40.027509
5622  1 23.109889 37.584644  0.000000
5623  1 23.109889 37.584644  4.002751
5624  1 23.109889 37.584644  8.005502
5625  1 23.109889 37.584644 12.008253
5626  1 23.109889 37.584644 16.011004
5627  1 23.109889 37.584644 20.013755
5628  1 23.109889 37.584644 24.016506
5629  1 23.109889 37.584644 28.019257
5630  1 23.109889 37.584644 32.022007
5631  1 23.109889 37.584644 36.024758
5632  1 23.109889 37.584644 40.027509
5633  1 30.042856  0.817057  0.000000
5634  1 30.042856  0.817057  4.002751
5635  1 30.042856  0.817057  8.005502
5636  1 30.042856  0.817057 12.008253
5637  1 30.042856  0.817057 16.011004
5638  1 30.042856  0.817057 20.013755
5639  1 30.042856  0.817057 24.016506
5640  1 30.042856  0.817057 28.019257
5641  1 30.042856  0.817057 32.022007
5642  1 30.042856  0.817057 36.024758
5643  1 30.042856  0.817057 40.027509
5644  1 30.042856  3.268230  0.000000
5645  1 30.042856  3.268230  4.002751
5646  1 30.042856  3.268230  8.005502
5647  1 30.042856  3.268230 12.008253
5648  1 30.042856  3.268230 16.011004
5649  1 30.042856  3.268230 20.013755
5650  1 30.042856  3.268230 24.016506
5651  1 30.042856  3.268230 28.019257
5652  1 30.042856  3.268230 32.022007
5653  1 30.042856  3.268230 36.024758
5654  1 30.042856  3.268230 40.027509
5655  1 30.042856  5.719402  0.000000
5656  1 30.042856  5.719402  4.002751
5657  1 30.042856  5.719402  8.005502
5658  1 30.042856  5.719402 12.008253
5659  1 30.042856  5.719402 16.011004
5660  1 30.042856  5.719402 20.013755
5661  1 30.042856  5.719402 24.016506
5662  1 30.042856  5.719402 28.019257
5663  1 30.042856  5.719402 32.022007
5664  1 30.042856  5.719402 36.024758
5665  1 30.042856  5.719402 40.027509
5666  1 30.042856  8.170575  0.000000
5667  1 30.042856  8.170575  4.002751
5668  1 30.042856  8.170575  8.005502
5669  1 30.042856  8.170575 12.008253
5670  1 30.042856  8.170575 16.011004
5671  1 30.042856  8.170575 20.013755
5672  1 30.042856  8.170575 24.016506
5673  1 30.042856  8.170575 28.019257
5674  1 30.042856  8.170575 32.022007
5675  1 30.042856  8.170575 36.024758
5676  1 30.042856  8.170575 40.027509
5677  1 30.042856 10.621747  0.000000
5678  1 30.042856 10.621747  4.002751
5679  1 30.042856 10.621747  8.005502
5680  1 30.042856 10.621747 12.008253
5681  1 30.042856 10.621747 16.011004
5682  1 30.042856 10.621747 20.013755
5683  1 30.042856 10.621747 24.016506
5684  1 30.042856 10.621747 28.019257
5685  1 30.042856 10.621747 32.022007
5686  1 30.042856 10.621747 36.024758
5687  1 30.042856 10.621747 40.027509
5688  1 30.042856 13.072920  0.000000
5689  1 30.042856 13.072920  4.002751
5690  1 30.042856 13.072920  8.005502
5691  1 30.042856 13.072920 12.008253
5692  1 30.042856 13.072920 16.011004
5693  1 30.042856 13.072920 20.013755
5694  1 30.042856 13.072920 24.016506
5695  1 30.042856 13.072920 28.019257
5696  1 30.042856 13.072920 32.022007
5697  1 30.042856 13.072920 36.024758
5698  1 30.042856 13.072920 40.027509
5699  1 30.042856 15.524092  0.000000
5700  1 30.042856 15.524092  4.002751
5701  1 30.042856 15.524092  8.005502
5702  1 30.042856 15.524092 12.008253
5703  1 30.042856 15.524092 16.011004
5704  1 30.042856 15.524092 20.013755
5705  1 30.042856 15.524092 24.016506
5706  1 30.042856 15.524092 28.019257
5707  1 30.042856 15.524092 32.022007
5708  1 30.042856 15.524092 36.024758
5709  1 30.042856 15.524092 40.027509
5710  1 30.042856 17.975265  0.000000
5711  1 30.042856 17.975265  4.002751
5712  1 30.042856 17.975265  8.005502
5713  1 30.042856 17.975265 12.008253
5714  1 30.042856 17.975265 16.011004
5715  1 30.042856 17.975265 20.013755
5716  1 30.042856 17.975265 24.016506
5717  1 30.042856 17.975265 28.019257
5718  1 30.042856 17.975265 32.022007
5719  1 30.042856 17.975265 36.024758
5720  1 30.042856 17.975265 40.027509
5721  1 30.042856 20.426437  0.000000
5722  1 30.042856 20.426437  4.002751
5723  1 30.042856 20.426437  8.005502
5724  1 30.042856 20.426437 12.008253
5725  1 30.042856 20.426437 16.011004
5726  1 30.042856 20.426437 20.013755
5727  1 30.042856 20.426437 24.016506
5728  1 30.042856 20.426437 28.019257
5729  1 30.042856 20.426437 32.022007
5730  1 30.042856 20.426437 36.024758
5731  1 30.042856 20.426437 40.027509
5732  1 30.042856 22.877609  0.000000
5733  1 30.042856 22.877609  4.002751
5734  1 30.042856 22.877609  8.005502
5735  1 30.042856 22.877609 12.008253
5736  1 30.042856 22.877609 16.011004
5737  1 30.042856 22.877609 20.013755
5738  1 30.042856 22.877609 24.016506
5739  1 30.042856 22.877609 28.019257
5740  1 30.042856 22.877609 32.022007
5741  1 30.042856 22.877609 36.024758
5742  1 30.042856 22.877609 40.027509
5743  1 30.042856 25.328782  0.000000
5744  1 30.042856 25.328782  4.002751
5745  1 30.042856 25.328782  8.005502
5746  1 30.042856 25.328782 12.008253
5747  1 30.042856 25.328782 16.011004
5748  1 30.042856 25.328782 20.013755
5749  1 30.042856 25.328782 24.016506
5750  1 30.042856 25.328782 28.019257
5751  1 30.042856 25.328782 32.022007
5752  1 30.042856 25.328782 36.024758
5753  1 30.042856 25.328782 40.027509
5754  1 30.042856 27.779954  0.000000
5755  1 30.042856 27.779954  4.002751
5756  1 30.042856 27.779954  8.005502
5757  1 30.042856 27.779954 12.008253
5758  1 30.042856 27.779954 16.011004
5759  1 30.042856 27.779954 20.013755
5760  1 30.042856 27.779954 24.016506
5761  1 30.042856 27.779954 28.019257
5762  1 30.042856 27.779954 32.022007
5763  1 30.042856 27.779954 36.024758
5764  1 30.042856 27.779954 40.027509
5765  1 30.042856 30.231127  0.000000
5766  1 30.042856 30.231127  4.002751
5767  1 30.042856 30.231127  8.005502
5768  1 30.042856 30.231127 12.008253
5769  1 30.042856 30.231127 16.011004
5770  1 30.042856 30.231127 20.013755
5771  1 30.042856 30.231127 24.016506
5772  1 30.042856 30.231127 28.019257
5773  1 30.042856 30.231127 32.022007
5774  1 30.042856 30.231127 36.024758
5775  1 30.042856 30.231127 40.027509
5776  1 30.042856 32.682299  0.000000
5777  1 30.042856 32.682299  4.002751
5778  1 30.042856 32.682299  8.005502
5779  1 30.042856 32.682299 12.008253
5780  1 30.042856 32.682299 16.011004
5781  1 30.042856 32.682299 20.013755
5782  1 30.042856 32.682299 24.016506
5783  1 30.042856 32.682299 28.019257
5784  1 30.042856 32.682299 32.022007
5785  1 30.042856 32.682299 36.024758
5786  1 30.042856 32.682299 40.027509
5787  1 30.042856 35.133472  0.000000
5788  1 30.042856 35.133472  4.002751
5789  1 30.042856 35.133472  8.005502
5790  1 30.042856 35.133472 12.008253
5791  1 30.042856 35.133472 16.011004
5792  1 30.042856 35.133472 20.013755
5793  1 30.042856 35.133472 24.016506
5794  1 30.042856 35.133472 28.019257
5795  1 30.042856 35.133472 32.022007
5796  1 30.042856 35.133472 36.024758
5797  1 30.042856 35.133472 40.027509
5798  1 30.042856 37.584644  0.000000
5799  1 30.042856 37.584644  4.002751
5800  1 30.042856 37.584644  8.005502
5801  1 30.042856 37.584644 12.008253
5802  1 30.042856 37.584644 16.011004
5803  1 30.042856 37.584644 20.013755
5804  1 30.042856 37.584644 24.016506
5805  1 30.042856 37.584644 28.019257
5806  1 30.042856 37.584644 32.022007
5807  1 30.042856 37.584644 36.024758
5808  1 30.042856 37.584644 40.027509
5809  1 36.975823  0.817057  0.000000
5810  1 36.975823  0.817057  4.002751
5811  1 36.975823  0.817057  8.005502
5812  1 36.975823  0.817057 12.008253
5813  1 36.975823  0.817057 16.011004
5814  1 36.975823  0.817057 20.013755
5815  1 36.975823  0.817057 24.016506
5816  1 36.975823  0.817057 28.019257
5817  1 36.975823  0.817057 32.022007
5818  1 36.975823  0.817057 36.024758
5819  1 36.975823  0.817057 40.027509
5820  1 36.975823  3.268230  0.000000
5821  1 36.975823  3.268230  4.002751
5822  1 36.975823  3.268230  8.005502
5823  1 36.975823  3.268230 12.008253
5824  1 36.975823  3.268230 16.011004
5825  1 36.975823  3.268230 20.013755
5826  1 36.975823  3.268230 24.016506
5827  1 36.975823  3.268230 28.019257
5828  1 36.975823  3.268230 32.022007
5829  1 36.975823  3.268230 36.024758
5830  1 36.975823  3.268230 40.027509
5831  1 36.975823  5.719402  0.000000
5832  1 36.975823  5.719402  4.002751
5833  1 36.975823  5.719402  8.005502
5834  1 36.975823  5.719402 12.008253
5835  1 36.975823  5.719402 16.011004
5836  1 36.975823  5.719402 20.013755
5837  1 36.975823  5.719402 24.016506
5838  1 36.975823  5.719402 28.019257
5839  1 36.975823  5.719402 32.022007
5840  1 36.975823  5.719402 36.024758
5841  1 36.975823  5.719402 40.027509
5842  1 36.975823  8.170575  0.000000
5843  1 36.975823  8.170575  4.002751
5844  1 36.975823  8.170575  8.005502
5845  1 36.975823  8.170575 12.008253
5846  1 36.975823  8.170575 16.011004
5847  1 36.975823  8.170575 20.013755
5848  1 36.975823  8.170575 24.016506
5849  1 36.975823  8.170575 28.019257
5850  1 36.975823  8.170575 32.022007
5851  1 36.975823  8.170575 36.024758
5852  1 36.975823  8.170575 40.027509
5853  1 36.975823 10.621747  0.000000
5854  1 36.975823 10.621747  4.002751
5855  1 36.975823 10.621747  8.005502
5856  1 36.975823 10.621747 12.008253
5857  1 36.975823 10.621747 16.011004
5858  1 36.975823 10.621747 20.013755
5859  1 36.975823 10.621747 24.016506
5860  1 36.975823 10.621747 28.019257
5861  1 36.975823 10.621747 32.022007
5862  1 36.975823 10.621747 36.024758
5863  1 36.975823 10.621747 40.027509
5864  1 36.975823 13.072920  0.000000
5865  1 36.975823 13.072920  4.002751
5866  1 36.975823 13.072920  8.005502
5867  1 36.975823 13.072920 12.008253
5868  1 36.975823 13.072920 16.011004
5869  1 36.975823 13.072920 20.013755
5870  1 36.975823 13.072920 24.016506
5871  1 36.975823 13.072920 28.019257
5872  1 36.975823 13.072920 32.022007
5873  1 36.975823 13.072920 36.024758
5874  1 36.975823 13.072920 40.027509
5875  1 36.975823 15.524092  0.000000
5876  1 36.975823 15.524092  4.002751
5877  1 36.975823 15.524092  8.005502
5878  1 36.975823 15.524092 12.008253
5879  1 36.975823 15.524092 16.011004
5880  1 36.975823 15.524092 20.013755
5881  1 36.975823 15.524092 24.016506
5882  1 36.975823 15.524092 28.019257
5883  1 36.975823 15.524092 32.022007
5884  1 36.975823 15.524092 36.024758
5885  1 36.975823 15.524092 40.027509
5886  1 36.975823 17.975265  0.000000
5887  1 36.975823 17.975265  4.002751
5888  1 36.975823 17.975265  8.005502
5889  1 36.975823 17.975265 12.008253
5890  1 36.975823 17.975265 16.011004
5891  1 36.975823 17.975265 20.013755
5892  1 36.975823 17.975265 24.016506
5893  1 36.975823 17.975265 28.019257
5894  1 36.975823 17.975265 32.022007
5895  1 36.975823 17.975265 36.024758
5896  1 36.975823 17.975265 40.027509
5897  1 36.975823 20.426437  0.000000
5898  1 36.975823 20.426437  4.002751
5899  1 36.975823 20.426437  8.005502
5900  1 36.975823 20.426437 12.008253
5901  1 36.975823 20.426437 16.011004
5902  1 36.975823 20.426437 20.013755
5903  1 36.975823 20.426437 24.016506
5904  1 36.975823 20.426437 28.019257
5905  1 36.975823 20.426437 32.022007
5906  1 36.975823 20.426437 36.024758
5907  1 36.975823 20.426437 40.027509
5908  1 36.975823 22.877609  0.000000
5909  1 36.975823 22.877609  4.002751
5910  1 36.975823 22.877609  8.005502
5911  1 36.975823 22.877609 12.008253
5912  1 36.975823 22.877609 16.011004
5913  1 36.975823 22.877609 20.013755
5914  1 36.975823 22.877609 24.016506
5915  1 36.975823 22.877609 28.019257
5916  1 36.975823 22.877609 32.022007
5917  1 36.975823 22.877609 36.024758
5918  1 36.975823 22.877609 40.027509
5919  1 36.975823 25.328782  0.000000
5920  1 36.975823 25.328782  4.002751
5921  1 36.975823 25.328782  8.005502
5922  1 36.975823 25.328782 12.008253
5923  1 36.975823 25.328782 16.011004
5924  1 36.975823 25.328782 20.013755
5925  1 36.975823 25.328782 24.016506
5926  1 36.975823 25.328782 28.019257
5927  1 36.975823 25.328782 32.022007
5928  1 36.975823 25.328782 36.024758
5929  1 36.975823 25.328782 40.027509
5930  1 36.975823 27.779954  0.000000
5931  1 36.975823 27.779954  4.002751
5932  1 36.975823 27.779954  8.005502
5933  1 36.975823 27.779954 12.008253
5934  1 36.975823 27.779954 16.011004
5935  1 36.975823 27.779954 20.013755
5936  1 36.975823 27.779954 24.016506
5937  1 36.975823 27.779954 28.019257
5938  1 36.975823 27.779954 32.022007
5939  1 36.975823 27.779954 36.024758
5940  1 36.975823 27.779954 40.027509
5941  1 36.975823 30.231127  0.000000
5942  1 36.975823 30.231127  4.002751
5943  1 36.975823 30.231127  8.005502
5944  1 36.975823 30.231127 12.008253
5945  1 36.975823 30.231127 16.011004
5946  1 36.975823 30.231127 20.013755
5947  1 36.975823 30.231127 24.016506
5948  1 36.975823 30.231127 28.019257
5949  1 36.975823 30.231127 32.022007
5950  1 36.975823 30.231127 36.024758
5951  1 36.975823 30.231127 40.027509
5952  1 36.975823 32.682299  0.000000
5953  1 36.975823 32.682299  4.002751
5954  1 36.975823 32.682299  8.005502
5955  1 36.975823 32.682299 12.008253
5956  1 36.975823 32.682299 16.011004
5957  1 36.975823 32.682299 20.013755
5958  1 36.975823 32.682299 24.016506
5959  1 36.975823 32.682299 28.019257
5960  1 36.975823 32.682299 32.022007
5961  1 36.975823 32.682299 36.024758
5962  1 36.975823 32.682299 40.027509
5963  1 36.975823 35.133472  0.000000
5964  1 36.975823 35.133472  4.002751
5965  1 36.975823 35.133472  8.005502
5966  1 36.975823 35.133472 12.008253
5967  1 36.975823 35.133472 16.011004
5968  1 36.975823 35.133472 20.013755
5969  1 36.975823 35.133472 24.016506
5970  1 36.975823 35.133472 28.019257
5971  1 36.975823 35.133472 32.022007
5972  1 36.975823 35.133472 36.024758
5973  1 36.975823 35.133472 40.027509
5974  1 36.975823 37.584644  0.000000
5975  1 36.975823 37.584644  4.002751
5976  1 36.975823 37.584644  8.005502
5977  1 36.975823 37.584644 12.008253
5978  1 36.975823 37.584644 16.011004
5979  1 36.975823 37.584644 20.013755
5980  1 36.975823 37.584644 24.016506
5981  1 36.975823 37.584644 28.019257
5982  1 36.975823 37.584644 32.022007
5983  1 36.975823 37.584644 36.024758
5984  1 36.975823 37.584644 40.027509
5985  1 43.908789  0.817057  0.000000
5986  1 43.908789  0.817057  4.002751
5987  1 43.908789  0.817057  8.005502
5988  1 43.908789  0.817057 12.008253
5989  1 43.908789  0.817057 16.011004
5990  1 43.908789  0.817057 20.013755
5991  1 43.908789  0.817057 24.016506
5992  1 43.908789  0.817057 28.019257
5993  1 43.908789  0.817057 32.022007
5994  1 43.908789  0.817057 36.024758
5995  1 43.908789  0.817057 40.027509
5996  1 43.908789  3.268230  0.000000
5997  1 43.908789  3.268230  4.002751
5998  1 43.908789  3.268230  8.005502
5999  1 43.908789  3.268230 12.008253
6000  1 43.908789  3.268230 16.011004
6001  1 43.908789  3.268230 20.013755
6002  1 43.908789  3.268230 24.016506
6003  1 43.908789  3.268230 28.019257
6004  1 43.908789  3.268230 32.022007
6005  1 43.908789  3.268230 36.024758
6006  1 43.908789  3.268230 40.027509
6007  1 43.908789  5.719402  0.000000
6008  1 43.908789  5.719402  4.002751
6009  1 43.908789  5.719402  8.005502
6010  1 43.908789  5.719402 12.008253
6011  1 43.908789  5.719402 16.011004
6012  1 43.908789  5.719402 20.013755
6013  1 43.908789  5.719402 24.016506
6014  1 43.908789  5.719402 28.019257
6015  1 43.908789  5.719402 32.022007
6016  1 43.908789  5.719402 36.024758
6017  1 43.908789  5.719402 40.027509
6018  1 43.908789  8.170575  0.000000
6019  1 43.908789  8.170575  4.002751
6020  1 43.908789  8.170575  8.005502
6021  1 43.908789  8.170575 12.008253
6022  1 43.908789  8.170575 16.011004
6023  1 43.908789  8.170575 20.013755
6024  1 43.908789  8.170575 24.016506
6025  1 43.908789  8.170575 28.019257
6026  1 43.908789  8.170575 32.022007
6027  1 43.908789  8.170575 36.024758
6028  1 43.908789  8.170575 40.027509
6029  1 43.908789 10.621747  0.000000
6030  1 43.908789 10.621747  4.002751
6031  1 43.908789 10.621747  8.005502
6032  1 43.908789 10.621747 12.008253
6033  1 43.908789 10.621747 16.011004
6034  1 43.908789 10.621747 20.013755
6035  1 43.908789 10.621747 24.016506
6036  1 43.908789 10.621747 28.019257
6037  1 43.908789 10.621747 32.022007
6038  1 43.908789 10.621747 36.024758
6039  1 43.908789 10.621747 40.027509
6040  1 43.908789 13.072920  0.000000
6041  1 43.908789 13.072920  4.002751
6042  1 43.908789 13.072920  8.005502
6043  1 43.908789 13.072920 12.008253
6044  1 43.908789 13.072920 16.011004
6045  1 43.908789 13.072920 20.013755
6046  1 43.908789 13.072920 24.016506
6047  1 43.908789 13.072920 28.019257
6048  1 43.908789 13.072920 32.022007
6049  1 43.908789 13.072920 36.024758
6050  1 43.908789 13.072920 40.027509
6051  1 43.908789 15.524092  0.000000
6052  1 43.908789 15.524092  4.002751
6053  1 43.908789 15.524092  8.005502
6054  1 43.908789 15.524092 12.008253
6055  1 43.908789 15.524092 16.011004
6056  1 43.908789 15.524092 20.013755
6057  1 43.908789 15.524092 24.016506
6058  1 43.908789 15.524092 28.019257
6059  1 43.908789 15.524092 32.022007
6060  1 43.908789 15.524092 36.024758
6061  1 43.908789 15.524092 40.027509
6062  1 43.908789 17.975265  0.000000
6063  1 43.908789 17.975265  4.002751
6064  1 43.908789 17.975265  8.005502
6065  1 43.908789 17.975265 12.008253
6066  1 43.908789 17.975265 16.011004
6067  1 43.908789 17.975265 20.013755
6068  1 43.908789 17.975265 24.016506
6069  1 43.908789 17.975265 28.019257
6070  1 43.908789 17.975265 32.022007
6071  1 43.908789 17.975265 36.024758
6072  1 43.908789 17.975265 40.027509
6073  1 43.908789 20.426437  0.000000
6074  1 43.908789 20.426437  4.002751
6075  1 43.908789 20.426437  8.005502
6076  1 43.908789 20.426437 12.008253
6077  1 43.908789 20.426437 16.011004
6078  1 43.908789 20.426437 20.013755
6079  1 43.908789 20.426437 24.016506
6080  1 43.908789 20.426437 28.019257
6081  1 43.908789 20.426437 32.022007
6082  1 43.908789 20.426437 36.024758
6083  1 43.908789 20.426437 40.027509
6084  1 43.908789 22.877609  0.000000
6085  1 43.908789 22.877609  4.002751
6086  1 43.908789 22.877609  8.005502
6087  1 43.908789 22.877609 12.008253
6088  1 43.908789 22.877609 16.011004
6089  1 43.908789 22.877609 20.013755
6090  1 43.908789 22.877609 24.016506
6091  1 43.908789 22.877609 28.019257
6092  1 43.908789 22.877609 32.022007
6093  1 43.908789 22.877609 36.024758
6094  1 43.908789 22.877609 40.027509
6095  1 43.908789 25.328782  0.000000
6096  1 43.908789 25.328782  4.002751
6097  1 43.908789 25.328782  8.005502
6098  1 43.908789 25.328782 12.008253
6099  1 43.908789 25.328782 16.011004
6100  1 43.908789 25.328782 20.013755
6101  1 43.908789 25.328782 24.016506
6102  1 43.908789 25.328782 28.019257
6103  1 43.908789 25.328782 32.022007
6104  1 43.908789 25.328782 36.024758
6105  1 43.908789 25.328782 40.027509
6106  1 43.908789 27.779954  0.000000
6107  1 43.908789 27.779954  4.002751
6108  1 43.908789 27.779954  8.005502
6109  1 43.908789 27.779954 12.008253
6110  1 43.908789 27.779954 16.011004
6111  1 43.908789 27.779954 20.013755
6112  1 43.908789 27.779954 24.016506
6113  1 43.908789 27.779954 28.019257
6114  1 43.908789 27.779954 32.022007
6115  1 43.908789 27.779954 36.024758
6116  1 43.908789 27.779954 40.027509
6117  1 43.908789 30.231127  0.000000
6118  1 43.908789 30.231127  4.002751
6119  1 43.908789 30.231127  8.005502
6120  1 43.908789 30.231127 12.008253
6121  1 43.908789 30.231127 16.011004
6122  1 43.908789 30.231127 20.013755
6123  1 43.908789 30.231127 24.016506
6124  1 43.908789 30.231127 28.019257
6125  1 43.908789 30.231127 32.022007
6126  1 43.908789 30.231127 36.024758
6127  1 43.908789 30.231127 40.027509
6128  1 43.908789 32.682299  0.000000
6129  1 43.908789 32.682299  4.002751
6130  1 43.908789 32.682299  8.005502
6131  1 43.908789 32.682299 12.008253
6132  1 43.908789 32.682299 16.011004
6133  1 43.908789 32.682299 20.013755
6134  1 43.908789 32.682299 24.016506
6135  1 43.908789 32.682299 28.019257
6136  1 43.908789 32.682299 32.022007
6137  1 43.908789 32.682299 36.024758
6138  1 43.908789 32.682299 40.027509
6139  1 43.908789 35.133472  0.000000
6140  1 43.908789 35.133472  4.002751
6141  1 43.908789 35.133472  8.005502
6142  1 43.908789 35.133472 12.008253
6143  1 43.908789 35.133472 16.011004
6144  1 43.908789 35.133472 20.013755
6145  1 43.908789 35.133472 24.016506
6146  1 43.908789 35.133472 28.019257
6147  1 43.908789 35.133472 32.022007
6148  1 43.908789 35.133472 36.024758
6149  1 43.908789 35.133472 40.027509
6150  1 43.908789 37.584644  0.000000
6151  1 43.908789 37.584644  4.002751
6152  1 43.908789 37.584644  8.005502
6153  1 43.908789 37.584644 12.008253
6154  1 43.908789 37.584644 16.011004
6155  1 43.908789 37.584644 20.013755
6156  1 43.908789 37.584644 24.016506
6157  1 43.908789 37.584644 28.019257
6158  1 43.908789 37.584644 32.022007
6159  1 43.908789 37.584644 36.024758
6160  1 43.908789 37.584644 40.027509
6161  1  5.777470  0.817057  2.001375
6162  1  5.777470  0.817057  6.004126
6163  1  5.777470  0.817057 10.006877
6164  1  5.777470  0.817057 14.009628
6165  1  5.777470  0.817057 18.012379
6166  1  5.777470  0.817057 22.015130
6167  1  5.777470  0.817057 26.017881
6168  1  5.777470  0.817057 30.020632
6169  1  5.777470  0.817057 34.023383
6170  1  5.777470  0.817057 38.026134
6171  1  5.777470  0.817057 42.028885
6172  1  5.777470  3.268230  2.001375
6173  1  5.777470  3.268230  6.004126
6174  1  5.777470  3.268230 10.006877
6175  1  5.777470  3.268230 14.009628
6176  1  5.777470  3.268230 18.012379
6177  1  5.777470  3.268230 22.015130
6178  1  5.777470  3.268230 26.017881
6179  1  5.777470  3.268230 30.020632
6180  1  5.777470  3.268230 34.023383
6181  1  5.777470  3.268230 38.026134
6182  1  5.777470  3.268230 42.028885
6183  1  5.777470  5.719402  2.001375
6184  1  5.777470  5.719402  6.004126
6185  1  5.777470  5.719402 10.006877
6186  1  5.777470  5.719402 14.009628
6187  1  5.777470  5.719402 18.012379
6188  1  5.777470  5.719402 22.015130
6189  1  5.777470  5.719402 26.017881
6190  1  5.777470  5.719402 30.020632
6191  1  5.777470  5.719402 34.023383
6192  1  5.777470  5.719402 38.026134
6193  1  5.777470  5.719402 42.028885
6194  1  5.777470  8.170575  2.001375
6195  1  5.777470  8.170575  6.004126
6196  1  5.777470  8.170575 10.006877
6197  1  5.777470  8.170575 14.009628
6198  1  5.777470  8.170575 18.012379
6199  1  5.777470  8.170575 22.015130
6200  1  5.777470  8.170575 26.017881
6201  1  5.777470  8.170575 30.020632
6202  1  5.777470  8.170575 34.023383
6203  1  5.777470  8.170575 38.026134
6204  1  5.777470  8.170575 42.028885
6205  1  5.777470 10.621747  2.001375
6206  1  5.777470 10.621747  6.004126
6207  1  5.777470 10.621747 10.006877
6208  1  5.777470 10.621747 14.009628
6209  1  5.777470 10.621747 18.012379
6210  1  5.777470 10.621747 22.015130
6211  1  5.777470 10.621747 26.017881
6212  1  5.777470 10.621747 30.020632
6213  1  5.777470 10.621747 34.023383
6214  1  5.777470 10.621747 38.026134
6215  1  5.777470 10.621747 42.028885
6216  1  5.777470 13.072920  2.001375
6217  1  5.777470 13.072920  6.004126
6218  1  5.777470 13.072920 10.006877
6219  1  5.777470 13.072920 14.009628
6220  1  5.777470 13.072920 18.012379
6221  1  5.777470 13.072920 22.015130
6222  1  5.777470 13.072920 26.017881
6223  1  5.777470 13.072920 30.020632
6224  1  5.777470 13.072920 34.023383
6225  1  5.777470 13.072920 38.026134
6226  1  5.777470 13.072920 42.028885
6227  1  5.777470 15.524092  2.001375
6228  1  5.777470 15.524092  6.004126
6229  1  5.777470 15.524092 10.006877
6230  1  5.777470 15.524092 14.009628
6231  1  5.777470 15.524092 18.012379
6232  1  5.777470 15.524092 22.015130
6233  1  5.777470 15.524092 26.017881
6234  1  5.777470 15.524092 30.020632
6235  1  5.777470 15.524092 34.023383
6236  1  5.777470 15.524092 38.026134
6237  1  5.777470 15.524092 42.028885
6238  1  5.777470 17.975265  2.001375
6239  1  5.777470 17.975265  6.004126
6240  1  5.777470 17.975265 10.006877
6241  1  5.777470 17.975265 14.009628
6242  1  5.777470 17.975265 18.012379
6243  1  5.777470 17.975265 22.015130
6244  1  5.777470 17.975265 26.017881
6245  1  5.777470 17.975265 30.020632
6246  1  5.777470 17.975265 34.023383
6247  1  5.777470 17.975265 38.026134
6248  1  5.777470 17.975265 42.028885
6249  1  5.777470 20.426437  2.001375
6250  1  5.777470 20.426437  6.004126
6251  1  5.777470 20.426437 10.006877
6252  1  5.777470 20.426437 14.009628
6253  1  5.777470 20.426437 18.012379
6254  1  5.777470 20.426437 22.015130
6255  1  5.777470 20.426437 26.017881
6256  1  5.777470 20.426437 30.020632
6257  1  5.777470 20.426437 34.023383
6258  1  5.777470 20.426437 38.026134
6259  1  5.777470 20.426437 42.028885
6260  1  5.777470 22.877609  2.001375
6261  1  5.777470 22.877609  6.004126
6262  1  5.777470 22.877609 10.006877
6263  1  5.777470 22.877609 14.009628
6264  1  5.777470 22.877609 18.012379
6265  1  5.777470 22.877609 22.015130
6266  1  5.777470 22.877609 26.017881
6267  1  5.777470 22.877609 30.020632
6268  1  5.777470 22.877609 34.023383
6269  1  5.777470 22.877609 38.026134
6270  1  5.777470 22.877609 42.028885
6271  1  5.777470 25.328782  2.001375
6272  1  5.777470 25.328782  6.004126
6273  1  5.777470 25.328782 10.006877
6274  1  5.777470 25.328782 14.009628
6275  1  5.777470 25.328782 18.012379
6276  1  5.777470 25.328782 22.015130
6277  1  5.777470 25.328782 26.017881
6278  1  5.777470 25.328782 30.020632
6279  1  5.777470 25.328782 34.023383
6280  1  5.777470 25.328782 38.026134
6281  1  5.777470 25.328782 42.028885
6282  1  5.777470 27.779954  2.001375
6283  1  5.777470 27.779954  6.004126
6284  1  5.777470 27.779954 10.006877
6285  1  5.777470 27.779954 14.009628
6286  1  5.777470 27.779954 18.012379
6287  1  5.777470 27.779954 22.015130
6288  1  5.777470 27.779954 26.017881
6289  1  5.777470 27.779954 30.020632
6290  1  5.777470 27.779954 34.023383
6291  1  5.777470 27.779954 38.026134
6292  1  5.777470 27.779954 42.028885
6293  1  5.777470 30.231127  2.001375
6294  1  5.777470 30.231127  6.004126
6295  1  5.777470 30.231127 10.006877
6296  1  5.777470 30.231127 14.009628
6297  1  5.777470 30.231127 18.012379
6298  1  5.777470 30.231127 22.015130
6299  1  5.777470 30.231127 26.017881
6300  1  5.777470 30.231127 30.020632
6301  1  5.777470 30.231127 34.023383
6302  1  5.777470 30.231127 38.026134
6303  1  5.777470 30.231127 42.028885
6304  1  5.777470 32.682299  2.001375
6305  1  5.777470 32.682299  6.004126
6306  1  5.777470 32.682299 10.006877
6307  1  5.777470 32.682299 14.009628
6308  1  5.777470 32.682299 18.012379
6309  1  5.777470 32.682299 22.015130
6310  1  5.777470 32.682299 26.017881
6311  1  5.777470 32.682299 30.020632
6312  1  5.777470 32.682299 34.023383
6313  1  5.777470 32.682299 38.026134
6314  1  5.777470 32.682299 42.028885
6315  1  5.777470 35.133472  2.001375
6316  1  5.777470 35.133472  6.004126
6317  1  5.777470 35.133472 10.006877
6318  1  5.777470 35.133472 14.009628
6319  1  5.777470 35.133472 18.012379
6320  1  5.777470 35.133472 22.015130
6321  1  5.777470 35.133472 26.017881
6322  1  5.777470 35.133472 30.020632
6323  1  5.777470 35.133472 34.023383
6324  1  5.777470 35.133472 38.026134
6325  1  5.777470 35.133472 42.028885
6326  1  5.777470 37.584644  2.001375
6327  1  5.777470 37.584644  6.004126
6328  1  5.777470 37.584644 10.006877
6329  1  5.777470 37.584644 14.009628
6330  1  5.777470 37.584644 18.012379
6331  1  5.777470 37.584644 22.015130
6332  1  5.777470 37.584644 26.017881
6333  1  5.777470 37.584644 30.020632
6334  1  5.777470 37.584644 34.023383
6335  1  5.777470 37.584644 38.026134
6336  1  5.777470 37.584644 42.028885
6337  1 12.710437  0.817057  2.001375
6338  1 12.710437  0.817057  6.004126
6339  1 12.710437  0.817057 10.006877
6340  1 12.710437  0.817057 14.009628
6341  1 12.710437  0.817057 18.012379
6342  1 12.710437  0.817057 22.015130
6343  1 12.710437  0.817057 26.017881
6344  1 12.710437  0.817057 30.020632
6345  1 12.710437  0.817057 34.023383
6346  1 12.710437  0.817057 38.026134
6347  1 12.710437  0.817057 42.028885
6348  1 12.710437  3.268230  2.001375
6349  1 12.710437  3.268230  6.004126
6350  1 12.710437  3.268230 10.006877
6351  1 12.710437  3.268230 14.009628
6352  1 12.710437  3.268230 18.012379
6353  1 12.710437  3.268230 22.015130
6354  1 12.710437  3.268230 26.017881
6355  1 12.710437  3.268230 30.020632
6356  1 12.710437  3.268230 34.023383
6357  1 12.710437  3.268230 38.026134
6358  1 12.710437  3.268230 42.028885
6359  1 12.710437  5.719402  2.001375
6360  1 12.710437  5.719402  6.004126
6361  1 12.710437  5.719402 10.006877
6362  1 12.710437  5.719402 14.009628
6363  1 12.710437  5.719402 18.012379
6364  1 12.710437  5.719402 22.015130
6365  1 12.710437  5.719402 26.017881
6366  1 12.710437  5.719402 30.020632
6367  1 12.710437  5.719402 34.023383
6368  1 12.710437  5.719402 38.026134
6369  1 12.710437  5.719402 42.028885
6370  1 12.710437  8.170575  2.001375
6371  1 12.710437  8.170575  6.004126
6372  1 12.710437  8.170575 10.006877
6373  1 12.710437  8.170575 14.009628
6374  1 12.710437  8.170575 18.012379
6375  1 12.710437  8.170575 22.015130
6376  1 12.710437  8.170575 26.017881
6377  1 12.710437  8.170575 30.020632
6378  1 12.710437  8.170575 34.023383
6379  1 12.710437  8.170575 38.026134
6380  1 12.710437  8.170575 42.028885
6381  1 12.710437 10.621747  2.001375
6382  1 12.710437 10.621747  6.004126
6383  1 12.710437 10.621747 10.006877
6384  1 12.710437 10.621747 14.009628
6385  1 12.710437 10.621747 18.012379
6386  1 12.710437 10.621747 22.015130
6387  1 12.710437 10.621747 26.017881
6388  1 12.710437 10.621747 30.020632
6389  1 12.710437 10.621747 34.023383
6390  1 12.710437 10.621747 38.026134
6391  1 12.710437 10.621747 42.028885
6392  1 12.710437 13.072920  2.001375
6393  1 12.710437 13.072920  6.004126
6394  1 12.710437 13.072920 10.006877
6395  1 12.710437 13.072920 14.009628
6396  1 12.710437 13.072920 18.012379
6397  1 12.710437 13.072920 22.015130
6398  1 12.710437 13.072920 26.017881
6399  1 12.710437 13.072920 30.020632
6400  1 12.710437 13.072920 34.023383
6401  1 12.710437 13.072920 38.026134
6402  1 12.710437 13.072920 42.028885
6403  1 12.710437 15.524092  2.001375
6404  1 12.710437 15.524092  6.004126
6405  1 12.710437 15.524092 10.006877
6406  1 12.710437 15.524092 14.009628
6407  1 12.710437 15.524092 18.012379
6408  1 12.710437 15.524092 22.015130
6409  1 12.710437 15.524092 26.017881
6410  1 12.710437 15.524092 30.020632
6411  1 12.710437 15.524092 34.023383
6412  1 12.710437 15.524092 38.026134
6413  1 12.710437 15.524092 42.028885
6414  1 12.710437 17.975265  2.001375
6415  1 12.710437 17.975265  6.004126
6416  1 12.710437 17.975265 10.006877
6417  1 12.710437 17.975265 14.009628
6418  1 12.710437 17.975265 18.012379
6419  1 12.710437 17.975265 22.015130
6420  1 12.710437 17.975265 26.017881
6421  1 12.710437 17.975265 30.020632
6422  1 12.710437 17.975265 34.023383
6423  1 12.710437 17.975265 38.026134
6424  1 12.710437 17.975265 42.028885
6425  1 12.710437 20.426437  2.001375
6426  1 12.710437 20.426437  6.004126
6427  1 12.710437 20.426437 10.006877
6428  1 12.710437 20.426437 14.009628
6429  1 12.710437 20.426437 18.012379
6430  1 12.710437 20.426437 22.015130
6431  1 12.710437 20.426437 26.017881
6432  1 12.710437 20.426437 30.020632
6433  1 12.710437 20.426437 34.023383
6434  1 12.710437 20.426437 38.026134
6435  1 12.710437 20.426437 42.028885
6436  1 12.710437 22.877609  2.001375
6437  1 12.710437 22.877609  6.004126
6438  1 12.710437 22.877609 10.006877
6439  1 12.710437 22.877609 14.009628
6440  1 12.710437 22.877609 18.012379
6441  1 12.710437 22.877609 22.015130
6442  1 12.710437 22.877609 26.017881
6443  1 12.710437 22.877609 30.020632
6444  1 12.710437 22.877609 34.023383
6445  1 12.710437 22.877609 38.026134
6446  1 12.710437 22.877609 42.028885
6447  1 12.710437 25.328782  2.001375
6448  1 12.710437 25.328782  6.004126
6449  1 12.710437 25.328782 10.006877
6450  1 12.710437 25.328782 14.009628
6451  1 12.710437 25.328782 18.012379
6452  1 12.710437 25.328782 22.015130
6453  1 12.710437 25.328782 26.017881
6454  1 12.710437 25.328782 30.020632
6455  1 12.710437 25.328782 34.023383
6456  1 12.710437 25.328782 38.026134
6457  1 12.710437 25.328782 42.028885
6458  1 12.710437 27.779954  2.001375
6459  1 12.710437 27.779954  6.004126
6460  1 12.710437 27.779954 10.006877
6461  1 12.710437 27.779954 14.009628
6462  1 12.710437 27.779954 18.012379
6463  1 12.710437 27.779954 22.015130
6464  1 12.710437 27.779954 26.017881
6465  1 12.710437 27.779954 30.020632
6466  1 12.710437 27.779954 34.023383
6467  1 12.710437 27.779954 38.026134
6468  1 12.710437 27.779954 42.028885
6469  1 12.710437 30.231127  2.001375
6470  1 12.710437 30.231127  6.004126
6471  1 12.710437 30.231127 10.006877
6472  1 12.710437 30.231127 14.009628
6473  1 12.710437 30.231127 18.012379
6474  1 12.710437 30.231127 22.015130
6475  1 12.710437 30.231127 26.017881
6476  1 12.710437 30.231127 30.020632
6477  1 12.710437 30.231127 34.023383
6478  1 12.710437 30.231127 38.026134
6479  1 12.710437 30.231127 42.028885
6480  1 12.710437 32.682299  2.001375
6481  1 12.710437 32.682299  6.004126
6482  1 12.710437 32.682299 10.006877
6483  1 12.710437 32.682299 14.009628
6484  1 12.710437 32.682299 18.012379
6485  1 12.710437 32.682299 22.015130
6486  1 12.710437 32.682299 26.017881
6487  1 12.710437 32.682299 30.020632
6488  1 12.710437 32.682299 34.023383
6489  1 12.710437 32.682299 38.026134
6490  1 12.710437 32.682299 42.028885
6491  1 12.710437 35.133472  2.001375
6492  1 12.710437 35.133472  6.004126
6493  1 12.710437 35.133472 10.006877
6494  1 12.710437 35.133472 14.009628
6495  1 12.710437 35.133472 18.012379
6496  1 12.710437 35.133472 22.015130
6497  1 12.710437 35.133472 26.017881
6498  1 12.710437 35.133472 30.020632
6499  1 12.710437 35.133472 34.023383
6500  1 12.710437 35.133472 38.026134
6501  1 12.710437 35.133472 42.028885
6502  1 12.710437 37.584644  2.001375
6503  1 12.710437 37.584644  6.004126
6504  1 12.710437 37.584644 10.006877
6505  1 12.710437 37.584644 14.009628
6506  1 12.710437 37.584644 18.012379
6507  1 12.710437 37.584644 22.015130
6508  1 12.710437 37.584644 26.017881
6509  1 12.710437 37.584644 30.020632
6510  1 12.710437 37.584644 34.023383
6511  1 12.710437 37.584644 38.026134
6512  1 12.710437 37.584644 42.028885
6513  1 19.643403  0.817057  2.001375
6514  1 19.643403  0.817057  6.004126
6515  1 19.643403  0.817057 10.006877
6516  1 19.643403  0.817057 14.009628
6517  1 19.643403  0.817057 18.012379
6518  1 19.643403  0.817057 22.015130
6519  1 19.643403  0.817057 26.017881
6520  1 19.643403  0.817057 30.020632
6521  1 19.643403  0.817057 34.023383
6522  1 19.643403  0.817057 38.026134
6523  1 19.643403  0.817057 42.028885
6524  1 19.643403  3.268230  2.001375
6525  1 19.643403  3.268230  6.004126
6526  1 19.643403  3.268230 10.006877
6527  1 19.643403  3.268230 14.009628
6528  1 19.643403  3.268230 18.012379
6529  1 19.643403  3.268230 22.015130
6530  1 19.643403  3.268230 26.017881
6531  1 19.643403  3.268230 30.020632
6532  1 19.643403  3.268230 34.023383
6533  1 19.643403  3.268230 38.026134
6534  1 19.643403  3.268230 42.028885
6535  1 19.643403  5.719402  2.001375
6536  1 19.643403  5.719402  6.004126
6537  1 19.643403  5.719402 10.006877
6538  1 19.643403  5.719402 14.009628
6539  1 19.643403  5.719402 18.012379
6540  1 19.643403  5.719402 22.015130
6541  1 19.643403  5.719402 26.017881
6542  1 19.643403  5.719402 30.020632
6543  1 19.643403  5.719402 34.023383
6544  1 19.643403  5.719402 38.026134
6545  1 19.643403  5.719402 42.028885
6546  1 19.643403  8.170575  2.001375
6547  1 19.643403  8.170575  6.004126
6548  1 19.643403  8.170575 10.006877
6549  1 19.643403  8.170575 14.009628
6550  1 19.643403  8.170575 18.012379
6551  1 19.643403  8.170575 22.015130
6552  1 19.643403  8.170575 26.017881
6553  1 19.643403  8.170575 30.020632
6554  1 19.643403  8.170575 34.023383
6555  1 19.643403  8.170575 38.026134
6556  1 19.643403  8.170575 42.028885
6557  1 19.643403 10.621747  2.001375
6558  1 19.643403 10.621747  6.004126
6559  1 19.643403 10.621747 10.006877
6560  1 19.643403 10.621747 14.009628
6561  1 19.643403 10.621747 18.012379
6562  1 19.643403 10.621747 22.015130
6563  1 19.643403 10.621747 26.017881
6564  1 19.643403 10.621747 30.020632
6565  1 19.643403 10.621747 34.023383
6566  1 19.643403 10.621747 38.026134
6567  1 19.643403 10.621747 42.028885
6568  1 19.643403 13.072920  2.001375
6569  1 19.643403 13.072920  6.004126
6570  1 19.643403 13.072920 10.006877
6571  1 19.643403 13.072920 14.009628
6572  1 19.643403 13.072920 18.012379
6573  1 19.643403 13.072920 22.015130
6574  1 19.643403 13.072920 26.017881
6575  1 19.643403 13.072920 30.020632
6576  1 19.643403 13.072920 34.023383
6577  1 19.643403 13.072920 38.026134
6578  1 19.643403 13.072920 42.028885
6579  1 19.643403 15.524092  2.001375
6580  1 19.643403 15.524092  6.004126
6581  1 19.643403 15.524092 10.006877
6582  1 19.643403 15.524092 14.009628
6583  1 19.643403 15.524092 18.012379
6584  1 19.643403 15.524092 22.015130
6585  1 19.643403 15.524092 26.017881
6586  1 19.643403 15.524092 30.020632
6587  1 19.643403 15.524092 34.023383
6588  1 19.643403 15.524092 38.026134
6589  1 19.643403 15.524092 42.028885
6590  1 19.643403 17.975265  2.001375
6591  1 19.643403 17.975265  6.004126
6592  1 19.643403 17.975265 10.006877
6593  1 19.643403 17.975265 14.009628
6594  1 19.643403 17.975265 18.012379
6595  1 19.643403 17.975265 22.015130
6596  1 19.643403 17.975265 26.017881
6597  1 19.643403 17.975265 30.020632
6598  1 19.643403 17.975265 34.023383
6599  1 19.643403 17.975265 38.026134
6600  1 19.643403 17.975265 42.028885
6601  1 19.643403 20.426437  2.001375
6602  1 19.643403 20.426437  6.004126
6603  1 19.643403 20.426437 10.006877
6604  1 19.643403 20.426437 14.009628
6605  1 19.643403 20.426437 18.012379
6606  1 19.643403 20.426437 22.015130
6607  1 19.643403 20.426437 26.017881
6608  1 19.643403 20.426437 30.020632
6609  1 19.643403 20.426437 34.023383
6610  1 19.643403 20.426437 38.026134
6611  1 19.643403 20.426437 42.028885
6612  1 19.643403 22.877609  2.001375
6613  1 19.643403 22.877609  6.004126
6614  1 19.643403 22.877609 10.006877
6615  1 19.643403 22.877609 14.009628
6616  1 19.643403 22.877609 18.012379
6617  1 19.643403 22.877609 22.015130
6618  1 19.643403 22.877609 26.017881
6619  1 19.643403 22.877609 30.020632
6620  1 19.643403 22.877609 34.023383
6621  1 19.643403 22.877609 38.026134
6622  1 19.643403 22.877609 42.028885
6623  1 19.643403 25.328782  2.001375
6624  1 19.643403 25.328782  6.004126
6625  1 19.643403 25.328782 10.006877
6626  1 19.643403 25.328782 14.009628
6627  1 19.643403 25.328782 18.012379
6628  1 19.643403 25.328782 22.015130
6629  1 19.643403 25.328782 26.017881
6630  1 19.643403 25.328782 30.020632
6631  1 19.643403 25.328782 34.023383
6632  1 19.643403 25.328782 38.026134
6633  1 19.643403 25.328782 42.028885
6634  1 19.643403 27.779954  2.001375
6635  1 19.643403 27.779954  6.004126
6636  1 19.643403 27.779954 10.006877
6637  1 19.643403 27.779954 14.009628
6638  1 19.643403 27.779954 18.012379
6639  1 19.643403 27.779954 22.015130
6640  1 19.643403 27.779954 26.017881
6641  1 19.643403 27.779954 30.020632
6642  1 19.643403 27.779954 34.023383
6643  1 19.643403 27.779954 38.026134
6644  1 19.643403 27.779954 42.028885
6645  1 19.643403 30.231127  2.001375
6646  1 19.643403 30.231127  6.004126
6647  1 19.643403 30.231127 10.006877
6648  1 19.643403 30.231127 14.009628
6649  1 19.643403 30.231127 18.012379
6650  1 19.643403 30.231127 22.015130
6651  1 19.643403 30.231127 26.017881
6652  1 19.643403 30.231127 30.020632
6653  1 19.643403 30.231127 34.023383
6654  1 19.643403 30.231127 38.026134
6655  1 19.643403 30.231127 42.028885
6656  1 19.643403 32.682299  2.001375
6657  1 19.643403 32.682299  6.004126
6658  1 19.643403 32.682299 10.006877
6659  1 19.643403 32.682299 14.009628
6660  1 19.643403 32.682299 18.012379
6661  1 19.643403 32.682299 22.015130
6662  1 19.643403 32.682299 26.017881
6663  1 19.643403 32.682299 30.020632
6664  1 19.643403 32.682299 34.023383
6665  1 19.643403 32.682299 38.026134
6666  1 19.643403 32.682299 42.028885
6667  1 19.643403 35.133472  2.001375
6668  1 19.643403 35.133472  6.004126
6669  1 19.643403 35.133472 10.006877
6670  1 19.643403 35.133472 14.009628
6671  1 19.643403 35.133472 18.012379
6672  1 19.643403 35.133472 22.015130
6673  1 19.643403 35.133472 26.017881
6674  1 19.643403 35.133472 30.020632
6675  1 19.643403 35.133472 34.023383
6676  1 19.643403 35.133472 38.026134
6677  1 19.643403 35.133472 42.028885
6678  1 19.643403 37.584644  2.001375
6679  1 19.643403 37.584644  6.004126
6680  1 19.643403 37.584644 10.006877
6681  1 19.643403 37.584644 14.009628
6682  1 19.643403 37.584644 18.012379
6683  1 19.643403 37.584644 22.015130
6684  1 19.643403 37.584644 26.017881
6685  1 19.643403 37.584644 30.020632
6686  1 19.643403 37.584644 34.023383
6687  1 19.643403 37.584644 38.026134
6688  1 19.643403 37.584644 42.028885
6689  1 26.576370  0.817057  2.001375
6690  1 26.576370  0.817057  6.004126
6691  1 26.576370  0.817057 10.006877
6692  1 26.576370  0.817057 14.009628
6693  1 26.576370  0.817057 18.012379
6694  1 26.576370  0.817057 22.015130
6695  1 26.576370  0.817057 26.017881
6696  1 26.576370  0.817057 30.020632
6697  1 26.576370  0.817057 34.023383
6698  1 26.576370  0.817057 38.026134
6699  1 26.576370  0.817057 42.028885
6700  1 26.576370  3.268230  2.001375
6701  1 26.576370  3.268230  6.004126
6702  1 26.576370  3.268230 10.006877
6703  1 26.576370  3.268230 14.009628
6704  1 26.576370  3.268230 18.012379
6705  1 26.576370  3.268230 22.015130
6706  1 26.576370  3.268230 26.017881
6707  1 26.576370  3.268230 30.020632
6708  1 26.576370  3.268230 34.023383
6709  1 26.576370  3.268230 38.026134
6710  1 26.576370  3.268230 42.028885
6711  1 26.576370  5.719402  2.001375
6712  1 26.576370  5.719402  6.004126
6713  1 26.576370  5.719402 10.006877
6714  1 26.576370  5.719402 14.009628
6715  1 26.576370  5.719402 18.012379
6716  1 26.576370  5.719402 22.015130
6717  1 26.576370  5.719402 26.017881
6718  1 26.576370  5.719402 30.020632
6719  1 26.576370  5.719402 34.023383
6720  1 26.576370  5.719402 38.026134
6721  1 26.576370  5.719402 42.028885
6722  1 26.576370  8.170575  2.001375
6723  1 26.576370  8.170575  6.004126
6724  1 26.576370  8.170575 10.006877
6725  1 26.576370  8.170575 14.009628
6726  1 26.576370  8.170575 18.012379
6727  1 26.576370  8.170575 22.015130
6728  1 26.576370  8.170575 26.017881
6729  1 26.576370  8.170575 30.020632
6730  1 26.576370  8.170575 34.023383
6731  1 26.576370  8.170575 38.026134
6732  1 26.576370  8.170575 42.028885
6733  1 26.576370 10.621747  2.001375
6734  1 26.576370 10.621747  6.004126
6735  1 26.576370 10.621747 10.006877
6736  1 26.576370 10.621747 14.009628
6737  1 26.576370 10.621747 18.012379
6738  1 26.576370 10.621747 22.015130
6739  1 26.576370 10.621747 26.017881
6740  1 26.576370 10.621747 30.020632
6741  1 26.576370 10.621747 34.023383
6742  1 26.576370 10.621747 38.026134
6743  1 26.576370 10.621747 42.028885
6744  1 26.576370 13.072920  2.001375
6745  1 26.576370 13.072920  6.004126
6746  1 26.576370 13.072920 10.006877
6747  1 26.576370 13.072920 14.009628
6748  1 26.576370 13.072920 18.012379
6749  1 26.576370 13.072920 22.015130
6750  1 26.576370 13.072920 26.017881
6751  1 26.576370 13.072920 30.020632
6752  1 26.576370 13.072920 34.023383
6753  1 26.576370 13.072920 38.026134
6754  1 26.576370 13.072920 42.028885
6755  1 26.576370 15.524092  2.001375
6756  1 26.576370 15.524092  6.004126
6757  1 26.576370 15.524092 10.006877
6758  1 26.576370 15.524092 14.009628
6759  1 26.576370 15.524092 18.012379
6760  1 26.576370 15.524092 22.015130
6761  1 26.576370 15.524092 26.017881
6762  1 26.576370 15.524092 30.020632
6763  1 26.576370 15.524092 34.023383
6764  1 26.576370 15.524092 38.026134
6765  1 26.576370 15.524092 42.028885
6766  1 26.576370 17.975265  2.001375
6767  1 26.576370 17.975265  6.004126
6768  1 26.576370 17.975265 10.006877
6769  1 26.576370 17.975265 14.009628
6770  1 26.576370 17.975265 18.012379
6771  1 26.576370 17.362472 22.627923
6772  1 26.576370 17.975265 26.017881
6773  1 26.576370 17.975265 30.020632
6774  1 26.576370 17.975265 34.023383
6775  1 26.576370 17.975265 38.026134
6776  1 26.576370 17.975265 42.028885
6777  1 26.576370 20.426437  2.001375
6778  1 26.576370 20.426437  6.004126
6779  1 26.576370 20.426437 10.006877
6780  1 26.576370 20.426437 14.009628
6781  1 26.576370 20.426437 18.012379
6782  1 26.576370 20.426437 22.015130
6783  1 26.576370 20.426437 26.017881
6784  1 26.576370 20.426437 30.020632
6785  1 26.576370 20.426437 34.023383
6786  1 26.576370 20.426437 38.026134
6787  1 26.576370 20.426437 42.028885
6788  1 26.576370 22.877609  2.001375
6789  1 26.576370 22.877609  6.004126
6790  1 26.576370 22.877609 10.006877
6791  1 26.576370 22.877609 14.009628
6792  1 26.576370 22.877609 18.012379
6793  1 26.576370 22.877609 22.015130
6794  1 26.576370 22.877609 26.017881
6795  1 26.576370 22.877609 30.020632
6796  1 26.576370 22.877609 34.023383
6797  1 26.576370 22.877609 38.026134
6798  1 26.576370 22.877609 42.028885
6799  1 26.576370 25.328782  2.001375
6800  1 26.576370 25.328782  6.004126
6801  1 26.576370 25.328782 10.006877
6802  1 26.576370 25.328782 14.009628
6803  1 26.576370 25.328782 18.012379
6804  1 26.576370 25.328782 22.015130
6805  1 26.576370 25.328782 26.017881
6806  1 26.576370 25.328782 30.020632
6807  1 26.576370 25.328782 34.023383
6808  1 26.576370 25.328782 38.026134
6809  1 26.576370 25.328782 42.028885
6810  1 26.576370 27.779954  2.001375
6811  1 26.576370 27.779954  6.004126
6812  1 26.576370 27.779954 10.006877
6813  1 26.576370 27.779954 14.009628
6814  1 26.576370 27.779954 18.012379
6815  1 26.576370 27.779954 22.015130
6816  1 26.576370 27.779954 26.017881
6817  1 26.576370 27.779954 30.020632
6818  1 26.576370 27.779954 34.023383
6819  1 26.576370 27.779954 38.026134
6820  1 26.576370 27.779954 42.028885
6821  1 26.576370 30.231127  2.001375
6822  1 26.576370 30.231127  6.004126
6823  1 26.576370 30.231127 10.006877
6824  1 26.576370 30.231127 14.009628
6825  1 26.576370 30.231127 18.012379
6826  1 26.576370 30.231127 22.015130
6827  1 26.576370 30.231127 26.017881
6828  1 26.576370 30.231127 30.020632
6829  1 26.576370 30.231127 34.023383
6830  1 26.576370 30.231127 38.026134
6831  1 26.576370 30.231127 42.028885
6832  1 26.576370 32.682299  2.001375
6833  1 26.576370 32.682299  6.004126
6834  1 26.576370 32.682299 10.006877
6835  1 26.576370 32.682299 14.009628
6836  1 26.576370 32.682299 18.012379
6837  1 26.576370 32.682299 22.015130
6838  1 26.576370 32.682299 26.017881
6839  1 26.576370 32.682299 30.020632
6840  1 26.576370 32.682299 34.023383
6841  1 26.576370 32.682299 38.026134
6842  1 26.576370 32.682299 42.028885
6843  1 26.576370 35.133472  2.001375
6844  1 26.576370 35.133472  6.004126
6845  1 26.576370 35.133472 10.006877
6846  1 26.576370 35.133472 14.009628
6847  1 26.576370 35.133472 18.012379
6848  1 26.576370 35.133472 22.015130
6849  1 26.576370 35.133472 26.017881
6850  1 26.576370 35.133472 30.020632
6851  1 26.576370 35.133472 34.023383
6852  1 26.576370 35.133472 38.026134
6853  1 26.576370 35.133472 42.028885
6854  1 26.576370 37.584644  2.001375
6855  1 26.576370 37.584644  6.004126
6856  1 26.576370 37.584644 10.006877
6857  1 26.576370 37.584644 14.009628
6858  1 26.576370 37.584644 18.012379
6859  1 26.576370 37.584644 22.015130
6860  1 26.576370 37.584644 26.017881
6861  1 26.576370 37.584644 30.020632
6862  1 26.576370 37.584644 34.023383
6863  1 26.576370 37.584644 38.026134
6864  1 26.576370 37.584644 42.028885
6865  1 33.509337  0.817057  2.001375
6866  1 33.509337  0.817057  6.004126
6867  1 33.509337  0.817057 10.006877
6868  1 33.509337  0.817057 14.009628
6869  1 33.509337  0.817057 18.012379
6870  1 33.509337  0.817057 22.015130
6871  1 33.509337  0.817057 26.017881
6872  1 33.509337  0.817057 30.020632
6873  1 33.509337  0.817057 34.023383
6874  1 33.509337  0.817057 38.026134
6875  1 33.509337  0.817057 42.028885
6876  1 33.509337  3.268230  2.001375
6877  1 33.509337  3.268230  6.004126
6878  1 33.509337  3.268230 10.006877
6879  1 33.509337  3.268230 14.009628
6880  1 33.509337  3.268230 18.012379
6881  1 33.509337  3.268230 22.015130
6882  1 33.509337  3.268230 26.017881
6883  1 33.509337  3.268230 30.020632
6884  1 33.509337  3.268230 34.023383
6885  1 33.509337  3.268230 38.026134
6886  1 33.509337  3.268230 42.028885
6887  1 33.509337  5.719402  2.001375
6888  1 33.509337  5.719402  6.004126
6889  1 33.509337  5.719402 10.006877
6890  1 33.509337  5.719402 14.009628
6891  1 33.509337  5.719402 18.012379
6892  1 33.509337  5.719402 22.015130
6893  1 33.509337  5.719402 26.017881
6894  1 33.509337  5.719402 30.020632
6895  1 33.509337  5.719402 34.023383
6896  1 33.509337  5.719402 38.026134
6897  1 33.509337  5.719402 42.028885
6898  1 33.509337  8.170575  2.001375
6899  1 33.509337  8.170575  6.004126
6900  1 33.509337  8.170575 10.006877
6901  1 33.509337  8.170575 14.009628
6902  1 33.509337  8.170575 18.012379
6903  1 33.509337  8.170575 22.015130
6904  1 33.509337  8.170575 26.017881
6905  1 33.509337  8.170575 30.020632
6906  1 33.509337  8.170575 34.023383
6907  1 33.509337  8.170575 38.026134
6908  1 33.509337  8.170575 42.028885
6909  1 33.509337 10.621747  2.001375
6910  1 33.509337 10.621747  6.004126
6911  1 33.509337 10.621747 10.006877
6912  1 33.509337 10.621747 14.009628
6913  1 33.509337 10.621747 18.012379
6914  1 33.509337 10.621747 22.015130
6915  1 33.509337 10.621747 26.017881
6916  1 33.509337 10.621747 30.020632
6917  1 33.509337 10.621747 34.023383
6918  1 33.509337 10.621747 38.026134
6919  1 33.509337 10.621747 42.028885
6920  1 33.509337 13.072920  2.001375
6921  1 33.509337 13.072920  6.004126
6922  1 33.509337 13.072920 10.006877
6923  1 33.509337 13.072920 14.009628
6924  1 33.509337 13.072920 18.012379
6925  1 33.509337 13.072920 22.015130
6926  1 33.509337 13.072920 26.017881
6927  1 33.509337 13.072920 30.020632
6928  1 33.509337 13.072920 34.023383
6929  1 33.509337 13.072920 38.026134
6930  1 33.509337 13.072920 42.028885
6931  1 33.509337 15.524092  2.001375
6932  1 33.509337 15.524092  6.004126
6933  1 33.509337 15.524092 10.006877
6934  1 33.509337 15.524092 14.009628
6935  1 33.509337 15.524092 18.012379
6936  1 33.509337 15.524092 22.015130
6937  1 33.509337 15.524092 26.017881
6938  1 33.509337 15.524092 30.020632
6939  1 33.509337 15.524092 34.023383
6940  1 33.509337 15.524092 38.026134
6941  1 33.509337 15.524092 42.028885
6942  1 33.509337 17.975265  2.001375
6943  1 33.509337 17.975265  6.004126
6944  1 33.509337 17.975265 10.006877
6945  1 33.509337 17.975265 14.009628
6946  1 33.509337 17.975265 18.012379
6947  1 33.509337 17.975265 22.015130
6948  1 33.509337 17.975265 26.017881
6949  1 33.509337 17.975265 30.020632
6950  1 33.509337 17.975265 34.023383
6951  1 33.509337 17.975265 38.026134
6952  1 33.509337 17.975265 42.028885
6953  1 33.509337 20.426437  2.001375
6954  1 33.509337 20.426437  6.004126
6955  1 33.509337 20.426437 10.006877
6956  1 33.509337 20.426437 14.009628
6957  1 33.509337 20.426437 18.012379
6958  1 33.509337 20.426437 22.015130
6959  1 33.509337 20.426437 26.017881
6960  1 33.509337 20.426437 30.020632
6961  1 33.509337 20.426437 34.023383
6962  1 33.509337 20.426437 38.026134
6963  1 33.509337 20.426437 42.028885
6964  1 33.509337 22.877609  2.001375
6965  1 33.509337 22.877609  6.004126
6966  1 33.509337 22.877609 10.006877
6967  1 33.509337 22.877609 14.009628
6968  1 33.509337 22.877609 18.012379
6969  1 33.509337 22.877609 22.015130
6970  1 33.509337 22.877609 26.017881
6971  1 33.509337 22.877609 30.020632
6972  1 33.509337 22.877609 34.023383
6973  1 33.509337 22.877609 38.026134
6974  1 33.509337 22.877609 42.028885
6975  1 33.509337 25.328782  2.001375
6976  1 33.509337 25.328782  6.004126
6977  1 33.509337 25.328782 10.006877
6978  1 33.509337 25.328782 14.009628
6979  1 33.509337 25.328782 18.012379
6980  1 33.509337 25.328782 22.015130
6981  1 33.509337 25.328782 26.017881
6982  1 33.509337 25.328782 30.020632
6983  1 33.509337 25.328782 34.023383
6984  1 33.509337 25.328782 38.026134
6985  1 33.509337 25.328782 42.028885
6986  1 33.509337 27.779954  2.001375
6987  1 33.509337 27.779954  6.004126
6988  1 33.509337 27.779954 10.006877
6989  1 33.509337 27.779954 14.009628
6990  1 33.509337 27.779954 18.012379
6991  1 33.509337 27.779954 22.015130
6992  1 33.509337 27.779954 26.017881
6993  1 33.509337 27.779954 30.020632
6994  1 33.509337 27.779954 34.023383
6995  1 33.509337 27.779954 38.026134
6996  1 33.509337 27.779954 42.028885
6997  1 33.509337 30.231127  2.001375
6998  1 33.509337 30.231127  6.004126
6999  1 33.509337 30.231127 10.006877
7000  1 33.509337 30.231127 14.009628
7001  1 33.509337 30.231127 18.012379
7002  1 33.509337 30.231127 22.015130
7003  1 33.509337 30.231127 26.017881
7004  1 33.509337 30.231127 30.020632
7005  1 33.509337 30.231127 34.023383
7006  1 33.509337 30.231127 38.026134
7007  1 33.509337 30.231127 42.028885
7008  1 33.509337 32.682299  2.001375
7009  1 33.509337 32.682299  6.004126
7010  1 33.509337 32.682299 10.006877
7011  1 33.509337 32.682299 14.009628
7012  1 33.509337 32.682299 18.012379
7013  1 33.509337 32.682299 22.015130
7014  1 33.509337 32.682299 26.017881
7015  1 33.509337 32.682299 30.020632
7016  1 33.509337 32.682299 34.023383
7017  1 33.509337 32.682299 38.026134
7018  1 33.509337 32.682299 42.028885
7019  1 33.509337 35.133472  2.001375
7020  1 33.509337 35.133472  6.004126
7021  1 33.509337 35.133472 10.006877
7022  1 33.509337 35.133472 14.009628
7023  1 33.509337 35.133472 18.012379
7024  1 33.509337 35.133472 22.015130
7025  1 33.509337 35.133472 26.017881
7026  1 33.509337 35.133472 30.020632
7027  1 33.509337 35.133472 34.023383
7028  1 33.509337 35.133472 38.026134
7029  1 33.509337 35.133472 42.028885
7030  1 33.509337 37.584644  2.001375
7031  1 33.509337 37.584644  6.004126
7032  1 33.509337 37.584644 10.006877
7033  1 33.509337 37.584644 14.009628
7034  1 33.509337 37.584644 18.012379
7035  1 33.509337 37.584644 22.015130
7036  1 33.509337 37.584644 26.017881
7037  1 33.509337 37.584644 30.020632
7038  1 33.509337 37.584644 34.023383
7039  1 33.509337 37.584644 38.026134
7040  1 33.509337 37.584644 42.028885
7041  1 40.442303  0.817057  2.001375
7042  1 40.442303  0.817057  6.004126
7043  1 40.442303  0.817057 10.006877
7044  1 40.442303  0.817057 14.009628
7045  1 40.442303  0.817057 18.012379
7046  1 40.442303  0.817057 22.015130
7047  1 40.442303  0.817057 26.017881
7048  1 40.442303  0.817057 30.020632
7049  1 40.442303  0.817057 34.023383
7050  1 40.442303  0.817057 38.026134
7051  1 40.442303  0.817057 42.028885
7052  1 40.442303  3.268230  2.001375
7053  1 40.442303  3.268230  6.004126
7054  1 40.442303  3.268230 10.006877
7055  1 40.442303  3.268230 14.009628
7056  1 40.442303  3.268230 18.012379
7057  1 40.442303  3.268230 22.015130
7058  1 40.442303  3.268230 26.017881
7059  1 40.442303  3.268230 30.020632
7060  1 40.442303  3.268230 34.023383
7061  1 40.442303  3.268230 38.026134
7062  1 40.442303  3.268230 42.028885
7063  1 40.442303  5.719402  2.001375
7064  1 40.442303  5.719402  6.004126
7065  1 40.442303  5.719402 10.006877
7066  1 40.442303  5.719402 14.009628
7067  1 40.442303  5.719402 18.012379
7068  1 40.442303  5.719402 22.015130
7069  1 40.442303  5.719402 26.017881
7070  1 40.442303  5.719402 30.020632
7071  1 40.442303  5.719402 34.023383
7072  1 40.442303  5.719402 38.026134
7073  1 40.442303  5.719402 42.028885
7074  1 40.442303  8.170575  2.001375
7075  1 40.442303  8.170575  6.004126
7076  1 40.442303  8.170575 10.006877
7077  1 40.442303  8.170575 14.009628
7078  1 40.442303  8.170575 18.012379
7079  1 40.442303  8.170575 22.015130
7080  1 40.442303  8.170575 26.017881
7081  1 40.442303  8.170575 30.020632
7082  1 40.442303  8.170575 34.023383
7083  1 40.442303  8.170575 38.026134
7084  1 40.442303  8.170575 42.028885
7085  1 40.442303 10.621747  2.001375
7086  1 40.442303 10.621747  6.004126
7087  1 40.442303 10.621747 10.006877
7088  1 40.442303 10.621747 14.009628
7089  1 40.442303 10.621747 18.012379
7090  1 40.442303 10.621747 22.015130
7091  1 40.442303 10.621747 26.017881
7092  1 40.442303 10.621747 30.020632
7093  1 40.442303 10.621747 34.023383
7094  1 40.442303 10.621747 38.026134
7095  1 40.442303 10.621747 42.028885
7096  1 40.442303 13.072920  2.001375
7097  1 40.442303 13.072920  6.004126
7098  1 40.442303 13.072920 10.006877
7099  1 40.442303 13.072920 14.009628
7100  1 40.442303 13.072920 18.012379
7101  1 40.442303 13.072920 22.015130
7102  1 40.442303 13.072920 26.017881
7103  1 40.442303 13.072920 30.020632
7104  1 40.442303 13.072920 34.023383
7105  1 40.442303 13.072920 38.026134
7106  1 40.442303 13.072920 42.028885
7107  1 40.442303 15.524092  2.001375
7108  1 40.442303 15.524092  6.004126
7109  1 40.442303 15.524092 10.006877
7110  1 40.442303 15.524092 14.009628
7111  1 40.442303 15.524092 18.012379
7112  1 40.442303 15.524092 22.015130
7113  1 40.442303 15.524092 26.017881
7114  1 40.442303 15.524092 30.020632
7115  1 40.442303 15.524092 34.023383
7116  1 40.442303 15.524092 38.026134
7117  1 40.442303 15.524092 42.028885
7118  1 40.442303 17.975265  2.001375
7119  1 40.442303 17.975265  6.004126
7120  1 40.442303 17.975265 10.006877
7121  1 40.442303 17.975265 14.009628
7122  1 40.442303 17.975265 18.012379
7123  1 40.442303 17.975265 22.015130
7124  1 40.442303 17.975265 26.017881
7125  1 40.442303 17.975265 30.020632
7126  1 40.442303 17.975265 34.023383
7127  1 40.442303 17.975265 38.026134
7128  1 40.442303 17.975265 42.028885
7129  1 40.442303 20.426437  2.001375
7130  1 40.442303 20.426437  6.004126
7131  1 40.442303 20.426437 10.006877
7132  1 40.442303 20.426437 14.009628
7133  1 40.442303 20.426437 18.012379
7134  1 40.442303 20.426437 22.015130
7135  1 40.442303 20.426437 26.017881
7136  1 40.442303 20.426437 30.020632
7137  1 40.442303 20.426437 34.023383
7138  1 40.442303 20.426437 38.026134
7139  1 40.442303 20.426437 42.028885
7140  1 40.442303 22.877609  2.001375
7141  1 40.442303 22.877609  6.004126
7142  1 40.442303 22.877609 10.006877
7143  1 40.442303 22.877609 14.009628
7144  1 40.442303 22.877609 18.012379
7145  1 40.442303 22.877609 22.015130
7146  1 40.442303 22.877609 26.017881
7147  1 40.442303 22.877609 30.020632
7148  1 40.442303 22.877609 34.023383
7149  1 40.442303 22.877609 38.026134
7150  1 40.442303 22.877609 42.028885
7151  1 40.442303 25.328782  2.001375
7152  1 40.442303 25.328782  6.004126
7153  1 40.442303 25.328782 10.006877
7154  1 40.442303 25.328782 14.009628
7155  1 40.442303 25.328782 18.012379
7156  1 40.442303 25.328782 22.015130
7157  1 40.442303 25.328782 26.017881
7158  1 40.442303 25.328782 30.020632
7159  1 40.442303 25.328782 34.023383
7160  1 40.442303 25.328782 38.026134
7161  1 40.442303 25.328782 42.028885
7162  1 40.442303 27.779954  2.001375
7163  1 40.442303 27.779954  6.004126
7164  1 40.442303 27.779954 10.006877
7165  1 40.442303 27.779954 14.009628
7166  1 40.442303 27.779954 18.012379
7167  1 40.442303 27.779954 22.015130
7168  1 40.442303 27.779954 26.017881
7169  1 40.442303 27.779954 30.020632
7170  1 40.442303 27.779954 34.023383
7171  1 40.442303 27.779954 38.026134
7172  1 40.442303 27.779954 42.028885
7173  1 40.442303 30.231127  2.001375
7174  1 40.442303 30.231127  6.004126
7175  1 40.442303 30.231127 10.006877
7176  1 40.442303 30.231127 14.009628
7177  1 40.442303 30.231127 18.012379
7178  1 40.442303 30.231127 22.015130
7179  1 40.442303 30.231127 26.017881
7180  1 40.442303 30.231127 30.020632
7181  1 40.442303 30.231127 34.023383
7182  1 40.442303 30.231127 38.026134
7183  1 40.442303 30.231127 42.028885
7184  1 40.442303 32.682299  2.001375
7185  1 40.442303 32.682299  6.004126
7186  1 40.442303 32.682299 10.006877
7187  1 40.442303 32.682299 14.009628
7188  1 40.442303 32.682299 18.012379
7189  1 40.442303 32.682299 22.015130
7190  1 40.442303 32.682299 26.017881
7191  1 40.442303 32.682299 30.020632
7192  1 40.442303 32.682299 34.023383
7193  1 40.442303 32.682299 38.026134
7194  1 40.442303 32.682299 42.028885
7195  1 40.442303 35.133472  2.001375
7196  1 40.442303 35.133472  6.004126
7197  1 40.442303 35.133472 10.006877
7198  1 40.442303 35.133472 14.009628
7199  1 40.442303 35.133472 18.012379
7200  1 40.442303 35.133472 22.015130
7201  1 40.442303 35.133472 26.017881
7202  1 40.442303 35.133472 30.020632
7203  1 40.442303 35.133472 34.023383
7204  1 40.442303 35.133472 38.026134
7205  1 40.442303 35.133472 42.028885
7206  1 40.442303 37.584644  2.001375
7207  1 40.442303 37.584644  6.004126
7208  1 40.442303 37.584644 10.006877
7209  1 40.442303 37.584644 14.009628
7210  1 40.442303 37.584644 18.012379
7211  1 40.442303 37.584644 22.015130
7212  1 40.442303 37.584644 26.017881
7213  1 40.442303 37.584644 30.020632
7214  1 40.442303 37.584644 34.023383
7215  1 40.442303 37.584644 38.026134
7216  1 40.442303 37.584644 42.028885
7217  1 47.375270  0.817057  2.001375
7218  1 47.375270  0.817057  6.004126
7219  1 47.375270  0.817057 10.006877
7220  1 47.375270  0.817057 14.009628
7221  1 47.375270  0.817057 18.012379
7222  1 47.375270  0.817057 22.015130
7223  1 47.375270  0.817057 26.017881
7224  1 47.375270  0.817057 30.020632
7225  1 47.375270  0.817057 34.023383
7226  1 47.375270  0.817057 38.026134
7227  1 47.375270  0.817057 42.028885
7228  1 47.375270  3.268230  2.001375
7229  1 47.375270  3.268230  6.004126
7230  1 47.375270  3.268230 10.006877
7231  1 47.375270  3.268230 14.009628
7232  1 47.375270  3.268230 18.012379
7233  1 47.375270  3.268230 22.015130
7234  1 47.375270  3.268230 26.017881
7235  1 47.375270  3.268230 30.020632
7236  1 47.375270  3.268230 34.023383
7237  1 47.375270  3.268230 38.026134
7238  1 47.375270  3.268230 42.028885
7239  1 47.375270  5.719402  2.001375
7240  1 47.375270  5.719402  6.004126
7241  1 47.375270  5.719402 10.006877
7242  1 47.375270  5.719402 14.009628
7243  1 47.375270  5.719402 18.012379
7244  1 47.375270  5.719402 22.015130
7245  1 47.375270  5.719402 26.017881
7246  1 47.375270  5.719402 30.020632
7247  1 47.375270  5.719402 34.023383
7248  1 47.375270  5.719402 38.026134
7249  1 47.375270  5.719402 42.028885
7250  1 47.375270  8.170575  2.001375
7251  1 47.375270  8.170575  6.004126
7252  1 47.375270  8.170575 10.006877
7253  1 47.375270  8.170575 14.009628
7254  1 47.375270  8.170575 18.012379
7255  1 47.375270  8.170575 22.015130
7256  1 47.375270  8.170575 26.017881
7257  1 47.375270  8.170575 30.020632
7258  1 47.375270  8.170575 34.023383
7259  1 47.375270  8.170575 38.026134
7260  1 47.375270  8.170575 42.028885
7261  1 47.375270 10.621747  2.001375
7262  1 47.375270 10.621747  6.004126
7263  1 47.375270 10.621747 10.006877
7264  1 47.375270 10.621747 14.009628
7265  1 47.375270 10.621747 18.012379
7266  1 47.375270 10.621747 22.015130
7267  1 47.375270 10.621747 26.017881
7268  1 47.375270 10.621747 30.020632
7269  1 47.375270 10.621747 34.023383
7270  1 47.375270 10.621747 38.026134
7271  1 47.375270 10.621747 42.028885
7272  1 47.375270 13.072920  2.001375
7273  1 47.375270 13.072920  6.004126
7274  1 47.375270 13.072920 10.006877
7275  1 47.375270 13.072920 14.009628
7276  1 47.375270 13.072920 18.012379
7277  1 47.375270 13.072920 22.015130
7278  1 47.375270 13.072920 26.017881
7279  1 47.375270 13.072920 30.020632
7280  1 47.375270 13.072920 34.023383
7281  1 47.375270 13.072920 38.026134
7282  1 47.375270 13.072920 42.028885
7283  1 47.375270 15.524092  2.001375
7284  1 47.375270 15.524092  6.004126
7285  1 47.375270 15.524092 10.006877
7286  1 47.375270 15.524092 14.009628
7287  1 47.375270 15.524092 18.012379
7288  1 47.375270 15.524092 22.015130
7289  1 47.375270 15.524092 26.017881
7290  1 47.375270 15.524092 30.020632
7291  1 47.375270 15.524092 34.023383
7292  1 47.375270 15.524092 38.026134
7293  1 47.375270 15.524092 42.028885
7294  1 47.375270 17.975265  2.001375
7295  1 47.375270 17.975265  6.004126
7296  1 47.375270 17.975265 10.006877
7297  1 47.375270 17.975265 14.009628
7298  1 47.375270 17.975265 18.012379
7299  1 47.375270 17.975265 22.015130
7300  1 47.375270 17.975265 26.017881
7301  1 47.375270 17.975265 30.020632
7302  1 47.375270 17.975265 34.023383
7303  1 47.375270 17.975265 38.026134
7304  1 47.375270 17.975265 42.028885
7305  1 47.375270 20.426437  2.001375
7306  1 47.375270 20.426437  6.004126
7307  1 47.375270 20.426437 10.006877
7308  1 47.375270 20.426437 14.009628
7309  1 47.375270 20.426437 18.012379
7310  1 47.375270 20.426437 22.015130
7311  1 47.375270 20.426437 26.017881
7312  1 47.375270 20.426437 30.020632
7313  1 47.375270 20.426437 34.023383
7314  1 47.375270 20.426437 38.026134
7315  1 47.375270 20.426437 42.028885
7316  1 47.375270 22.877609  2.001375
7317  1 47.375270 22.877609  6.004126
7318  1 47.375270 22.877609 10.006877
7319  1 47.375270 22.877609 14.009628
7320  1 47.375270 22.877609 18.012379
7321  1 47.375270 22.877609 22.015130
7322  1 47.375270 22.877609 26.017881
7323  1 47.375270 22.877609 30.020632
7324  1 47.375270 22.877609 34.023383
7325  1 47.375270 22.877609 38.026134
7326  1 47.375270 22.877609 42.028885
7327  1 47.375270 25.328782  2.001375
7328  1 47.375270 25.328782  6.004126
7329  1 47.375270 25.328782 10.006877
7330  1 47.375270 25.328782 14.009628
7331  1 47.375270 25.328782 18.012379
7332  1 47.375270 25.328782 22.015130
7333  1 47.375270 25.328782 26.017881
7334  1 47.375270 25.328782 30.020632
7335  1 47.375270 25.328782 34.023383
7336  1 47.375270 25.328782 38.026134
7337  1 47.375270 25.328782 42.028885
7338  1 47.375270 27.779954  2.001375
7339  1 47.375270 27.779954  6.004126
7340  1 47.375270 27.779954 10.006877
7341  1 47.375270 27.779954 14.009628
7342  1 47.375270 27.779954 18.012379
7343  1 47.375270 27.779954 22.015130
7344  1 47.375270 27.779954 26.017881
7345  1 47.375270 27.779954 30.020632
7346  1 47.375270 27.779954 34.023383
7347  1 47.375270 27.779954 38.026134
7348  1 47.375270 27.779954 42.028885
7349  1 47.375270 30.231127  2.001375
7350  1 47.375270 30.231127  6.004126
7351  1 47.375270 30.231127 10.006877
7352  1 47.375270 30.231127 14.009628
7353  1 47.375270 30.231127 18.012379
7354  1 47.375270 30.231127 22.015130
7355  1 47.375270 30.231127 26.017881
7356  1 47.375270 30.231127 30.020632
7357  1 47.375270 30.231127 34.023383
7358  1 47.375270 30.231127 38.026134
7359  1 47.375270 30.231127 42.028885
7360  1 47.375270 32.682299  2.001375
7361  1 47.375270 32.682299  6.004126
7362  1 47.375270 32.682299 10.006877
7363  1 47.375270 32.682299 14.009628
7364  1 47.375270 32.682299 18.012379
7365  1 47.375270 32.682299 22.015130
7366  1 47.375270 32.682299 26.017881
7367  1 47.375270 32.682299 30.020632
7368  1 47.375270 32.682299 34.023383
7369  1 47.375270 32.682299 38.026134
7370  1 47.375270 32.682299 42.028885
7371  1 47.375270 35.133472  2.001375
7372  1 47.375270 35.133472  6.004126
7373  1 47.375270 35.133472 10.006877
7374  1 47.375270 35.133472 14.009628
7375  1 47.375270 35.133472 18.012379
7376  1 47.375270 35.133472 22.015130
7377  1 47.375270 35.133472 26.017881
7378  1 47.375270 35.133472 30.020632
7379  1 47.375270 35.133472 34.023383
7380  1 47.375270 35.133472 38.026134
7381  1 47.375270 35.133472 42.028885
7382  1 47.375270 37.584644  2.001375
7383  1 47.375270 37.584644  6.004126
7384  1 47.375270 37.584644 10.006877
7385  1 47.375270 37.584644 14.009628
7386  1 47.375270 37.584644 18.012379
7387  1 47.375270 37.584644 22.015130
7388  1 47.375270 37.584644 26.017881
7389  1 47.375270 37.584644 30.020632
7390  1 47.375270 37.584644 34.023383
7391  1 47.375270 37.584644 38.026134
7392  1 47.375270 37.584644 42.028885
7393  1 26.576373 21.039231 21.402337
7394  1 23.109890 21.039231 19.400961
7395  1 23.109890 21.039231 23.403712
7396  1 24.265383 22.673346 21.402337
7397  1 21.954396 21.856288 21.402337
7398  1 25.420877 21.856288 19.400961
7399  1 25.420877 21.856288 23.403712

