Ta32 Ti34 Nb32 W10                      
   1.00000000000000     
     9.1216997255111210    0.0000000000000000    0.0000000000000000
     0.0000000000000000    8.3788097184575001    0.0000000000000000
     0.0000000000000000   -1.3964693696492261   23.6988662189480195
   Ta   Ti   Nb   W 
    32    34    32    10
Selective dynamics
Direct
  0.4994571676000206  0.2593031912618144  0.2221844125832533   F   F   T
  0.0007011838891344  0.2591040310670323  0.2222969547399316   F   F   T
  0.2495600548973158  0.2311844590489898  0.0552218671863116   F   F   T
  0.4999658814041439  0.7960280677740457  0.1106250486140397   F   F   T
  0.0000479543384628  0.4631443358176526  0.1107595639448107   F   F   T
  0.0014814358292270  0.5188928935918398  0.4441870424789301   F   F   T
  0.2504715557544870  0.8792402113221556  0.6108685672411057   F   F   T
  0.0006088878015333  0.6666045246082248  0.0000564157924074   F   F   T
  0.7506980600066626  0.6202106510177217  0.7223370811846691   F   F   T
  0.4998717066019083  0.7223170063977449  0.3332488289665606   F   F   T
  0.2497759176542687  0.9533761566985675  0.7219820401393804   F   F   T
  0.9998461222754713  0.4080750945442162  0.7776772436159901   F   F   T
  0.0005745086022202  0.4448472229217231  0.6665706801487516   F   F   T
  0.2495106240223279  0.6391344113263315  0.8333599043358859   F   F   T
  0.7497640967820587  0.2129129007097603  0.6113127594073546   F   F   T
  0.0012324422402941  0.7775033067886739  0.6667589202653444   F   F   T
  0.2498146343417176  0.8241928721395197  0.2778721876399715   F   F   T
  0.4992161048643524  0.7781276104765240  0.6663259174694928   F   F   T
  0.5003964755988406  0.7410101052358087  0.7779960255058994   F   F   T
  0.4996118710759134  0.9988450211329010  0.0002092495871295   F   F   T
  0.5001801896752340  0.0740266822674087  0.7777102048961951   F   F   T
  0.4999855333282923  0.3886560700943065  0.3335002845253286   F   F   T
  0.0003203214657930  0.9260045362470635  0.2222758329792427   F   F   T
  0.2491167970940609  0.6206233497151672  0.3892463970274349   F   F   T
  0.4995821383535883  0.6669970036817645  0.0000962085192455   F   F   T
  0.7502763096117064  0.5471197647028134  0.6108467221356192   F   F   T
  0.7504420632422253  0.8793644703424803  0.6109905865278406   F   F   T
  0.0002089534286114  0.1295170271930530  0.1106420942708440   F   F   T
  0.2497824446881296  0.9719186770231119  0.8332720978506812   F   F   T
  0.5009183035403240  0.5374167644690004  0.8896547066661000   F   F   T
  0.9997743751242751  0.8715803666373176  0.8894052059858879   F   F   T
  0.2499611531302293  0.4903485454109031  0.2777786518139820   F   F   T
  0.4993217237138055  0.6484357104714746  0.5558412334762934   F   F   T
  0.0006181661184712  0.9815775561352709  0.5556698044370235   F   F   T
  0.5000270802090654  0.4439640944647323  0.6666470210034277   F   F   T
  0.7503350559090833  0.2312125891587513  0.0554064020510268   F   F   T
  0.5001069796275743  0.1853723282848563  0.4442993439930021   F   F   T
  0.7500853215986609  0.8240272166710625  0.2778550345578666   F   F   T
  0.7501204241673207  0.1573687339204781  0.2779134634888791   F   F   T
  0.7498964864102220  0.0276241549378966  0.1665200910555598   F   F   T
  0.9999488100767664  0.5372774459686838  0.8887023250580414   F   F   T
  0.7485847158406287  0.9546957733442412  0.3890418402806048   F   F   T
  0.5000746504558933  0.8697933084302676  0.8896041809652644   F   F   T
  0.4998462243517281  0.3339860148212495 -0.0000119449792849   F   F   T
  0.5002779828903812  0.2038229285329223  0.8889666155683641   F   F   T
  0.0004289236194879  0.7225493918159529  0.3334865845304975   F   F   T
  0.7492359320902082  0.2868098558590049  0.3892039890393448   F   F   T
  0.4990507496593892  0.8530034269438715  0.4445007074576210   F   F   T
  0.7504724678271089  0.1018921651234095  0.9444180717995393   F   F   T
  0.7502944376332223  0.9542685232974009  0.7222225599458342   F   F   T
  0.2495517935165452  0.6202284400140172  0.7218703431923998   F   F   T
  0.2492706110137775  0.9541215389333999  0.3894639861429140   F   F   T
  0.0004841176504584  0.3148564089027701  0.5558272347654523   F   F   T
  0.4998581739266967  0.1293100492033830  0.1107399222769629   F   F   T
  0.7495056616346218  0.6202531982410306  0.3890133779922068   F   F   T
  0.7498974037428923  0.7684918272725909  0.9442398911268411   F   F   T
  0.7502289433568023  0.7502278699359621  0.4998680576375490   F   F   T
  0.2498951653222576  0.3054627991154533  0.8333550674743505   F   F   T
  0.0007319690377372  0.0553137528167156  0.3333241389969999   F   F   T
  0.5005552856449071  0.5924138950648086  0.2219207200823022   F   F   T
  0.7498102399859761  0.4164236153081333  0.4999738191343894   F   F   T
  0.5003063270432619  0.4072406032671552  0.7778945817211705   F   F   T
  0.0003011545578602  0.3887559715313955  0.3333297782578199   F   F   T
  0.2500659537346763  0.3611471729230189  0.1666646156521310   F   F   T
  0.0004593157160002  0.6481110040042779  0.5556994616071549   F   F   T
  0.7499589664007402  0.4909243472314344  0.2778279007604567   F   F   T
  0.0034042081272148  0.8521104447848415  0.4443379516513986   F   F   T
  0.9992044502014608  0.2014706366209182  0.8889021362158046   F   F   T
  0.4998168687279900  0.4635116048298542  0.1108445805938914   F   F   T
  0.2529331584649555  0.0815206005481031  0.4991768249129435   F   F   T
  0.4975832870308210  0.3134604978518638  0.5556765570889015   F   F   T
  0.2514682671844923  0.2871878744268770  0.7228563909179330   F   F   T
  0.7498894854668166  0.0831548484487783  0.4999650255851761   F   F   T
  0.9999800691477887  0.0000800665754852  0.9998253215482436   F   F   T
  0.7503600807643522  0.6392213327510845  0.8337254542792182   F   F   T
  0.7513694862986284  0.2856854374311055  0.7229465459648523   F   F   T
  0.2501330520519929  0.7512234219323162  0.4998775633385435   F   F   T
  0.2504580636488072  0.7678464411160633  0.9442539053911148   F   F   T
  0.2492790023416731  0.4152106102205977  0.4994514799096095   F   F   T
  0.0009289644364827  0.3332920941329363 -0.0000259359246471   F   F   T
  0.9999297653457830  0.7960706725077031  0.1113915522971851   F   F   T
  0.7487214725870288  0.8992226656189786  0.0557467007561030   F   F   T
  0.5005938200933713  0.0555972715528412  0.3337247156851078   F   F   T
  0.5008810097877685  0.5201995133723329  0.4439628845172763   F   F   T
  0.7495892499497998  0.3051194939834332  0.8331660554124626   F   F   T
  0.7500503501359645  0.9694914397421286  0.8334601901535449   F   F   T
  0.0003188102599410  0.5925804045591363  0.2220188481800918   F   F   T
  0.9986838604704076  0.1102280782033063  0.6670689401932391   F   F   T
  0.7498685242076348  0.5650324237281765  0.0555269802144309   F   F   T
  0.4996707942471517  0.9256146675577597  0.2222487277888234   F   F   T
  0.7498829497651229  0.3614054821216399  0.1665311362689721   F   F   T
  0.4957225303476420  0.9825609739788774  0.5552737998694185   F   F   T
  0.2511062279074494  0.8982459220487158  0.0552915934497307   F   F   T
  0.0012608868751300  0.1848674715132930  0.4442796182522102   F   F   T
  0.2500160050277884  0.0277699546748664  0.1666748385297154   F   F   T
  0.2483608885329858  0.5492844411033957  0.6106357076716407   F   F   T
  0.2507630857270939  0.2124548009123473  0.6104611992979514   F   F   T
  0.7475495221513739  0.4355789822128600  0.9445207599043215   F   F   T
  0.2500587314067104  0.5648281542747995  0.0553548956246033   F   F   T
  0.2494184020951380  0.1017836108512640  0.9448121444358648   F   F   T
  0.2502745500970818  0.6944261153665536  0.1666768861842343   F   F   T
  0.2494411266852055  0.1583136459791135  0.2777928376900646   F   F   T
  0.9999629411264692  0.7399078622316537  0.7778233066028619   F   F   T
  0.2493584891262870  0.2863141447946447  0.3895648227731527   F   F   T
  0.9995397471666081  0.0743273481391356  0.7776907264989390   F   F   T
  0.2498069767961155  0.4355201963578850  0.9448492218075090   F   F   T
  0.7499436562060993  0.6942569597738455  0.1665267452015016   F   F   T
  0.4996546992342843  0.1120998380548315  0.6665379891809167   F   F   T
 
  0.00000000E+00  0.00000000E+00  0.00000000E+00
  0.00000000E+00  0.00000000E+00  0.00000000E+00
  0.00000000E+00  0.00000000E+00  0.00000000E+00
  0.00000000E+00  0.00000000E+00  0.00000000E+00
  0.00000000E+00  0.00000000E+00  0.00000000E+00
  0.00000000E+00  0.00000000E+00  0.00000000E+00
  0.00000000E+00  0.00000000E+00  0.00000000E+00
  0.00000000E+00  0.00000000E+00  0.00000000E+00
  0.00000000E+00  0.00000000E+00  0.00000000E+00
  0.00000000E+00  0.00000000E+00  0.00000000E+00
  0.00000000E+00  0.00000000E+00  0.00000000E+00
  0.00000000E+00  0.00000000E+00  0.00000000E+00
  0.00000000E+00  0.00000000E+00  0.00000000E+00
  0.00000000E+00  0.00000000E+00  0.00000000E+00
  0.00000000E+00  0.00000000E+00  0.00000000E+00
  0.00000000E+00  0.00000000E+00  0.00000000E+00
  0.00000000E+00  0.00000000E+00  0.00000000E+00
  0.00000000E+00  0.00000000E+00  0.00000000E+00
  0.00000000E+00  0.00000000E+00  0.00000000E+00
  0.00000000E+00  0.00000000E+00  0.00000000E+00
  0.00000000E+00  0.00000000E+00  0.00000000E+00
  0.00000000E+00  0.00000000E+00  0.00000000E+00
  0.00000000E+00  0.00000000E+00  0.00000000E+00
  0.00000000E+00  0.00000000E+00  0.00000000E+00
  0.00000000E+00  0.00000000E+00  0.00000000E+00
  0.00000000E+00  0.00000000E+00  0.00000000E+00
  0.00000000E+00  0.00000000E+00  0.00000000E+00
  0.00000000E+00  0.00000000E+00  0.00000000E+00
  0.00000000E+00  0.00000000E+00  0.00000000E+00
  0.00000000E+00  0.00000000E+00  0.00000000E+00
  0.00000000E+00  0.00000000E+00  0.00000000E+00
  0.00000000E+00  0.00000000E+00  0.00000000E+00
  0.00000000E+00  0.00000000E+00  0.00000000E+00
  0.00000000E+00  0.00000000E+00  0.00000000E+00
  0.00000000E+00  0.00000000E+00  0.00000000E+00
  0.00000000E+00  0.00000000E+00  0.00000000E+00
  0.00000000E+00  0.00000000E+00  0.00000000E+00
  0.00000000E+00  0.00000000E+00  0.00000000E+00
  0.00000000E+00  0.00000000E+00  0.00000000E+00
  0.00000000E+00  0.00000000E+00  0.00000000E+00
  0.00000000E+00  0.00000000E+00  0.00000000E+00
  0.00000000E+00  0.00000000E+00  0.00000000E+00
  0.00000000E+00  0.00000000E+00  0.00000000E+00
  0.00000000E+00  0.00000000E+00  0.00000000E+00
  0.00000000E+00  0.00000000E+00  0.00000000E+00
  0.00000000E+00  0.00000000E+00  0.00000000E+00
  0.00000000E+00  0.00000000E+00  0.00000000E+00
  0.00000000E+00  0.00000000E+00  0.00000000E+00
  0.00000000E+00  0.00000000E+00  0.00000000E+00
  0.00000000E+00  0.00000000E+00  0.00000000E+00
  0.00000000E+00  0.00000000E+00  0.00000000E+00
  0.00000000E+00  0.00000000E+00  0.00000000E+00
  0.00000000E+00  0.00000000E+00  0.00000000E+00
  0.00000000E+00  0.00000000E+00  0.00000000E+00
  0.00000000E+00  0.00000000E+00  0.00000000E+00
  0.00000000E+00  0.00000000E+00  0.00000000E+00
  0.00000000E+00  0.00000000E+00  0.00000000E+00
  0.00000000E+00  0.00000000E+00  0.00000000E+00
  0.00000000E+00  0.00000000E+00  0.00000000E+00
  0.00000000E+00  0.00000000E+00  0.00000000E+00
  0.00000000E+00  0.00000000E+00  0.00000000E+00
  0.00000000E+00  0.00000000E+00  0.00000000E+00
  0.00000000E+00  0.00000000E+00  0.00000000E+00
  0.00000000E+00  0.00000000E+00  0.00000000E+00
  0.00000000E+00  0.00000000E+00  0.00000000E+00
  0.00000000E+00  0.00000000E+00  0.00000000E+00
  0.00000000E+00  0.00000000E+00  0.00000000E+00
  0.00000000E+00  0.00000000E+00  0.00000000E+00
  0.00000000E+00  0.00000000E+00  0.00000000E+00
  0.00000000E+00  0.00000000E+00  0.00000000E+00
  0.00000000E+00  0.00000000E+00  0.00000000E+00
  0.00000000E+00  0.00000000E+00  0.00000000E+00
  0.00000000E+00  0.00000000E+00  0.00000000E+00
  0.00000000E+00  0.00000000E+00  0.00000000E+00
  0.00000000E+00  0.00000000E+00  0.00000000E+00
  0.00000000E+00  0.00000000E+00  0.00000000E+00
  0.00000000E+00  0.00000000E+00  0.00000000E+00
  0.00000000E+00  0.00000000E+00  0.00000000E+00
  0.00000000E+00  0.00000000E+00  0.00000000E+00
  0.00000000E+00  0.00000000E+00  0.00000000E+00
  0.00000000E+00  0.00000000E+00  0.00000000E+00
  0.00000000E+00  0.00000000E+00  0.00000000E+00
  0.00000000E+00  0.00000000E+00  0.00000000E+00
  0.00000000E+00  0.00000000E+00  0.00000000E+00
  0.00000000E+00  0.00000000E+00  0.00000000E+00
  0.00000000E+00  0.00000000E+00  0.00000000E+00
  0.00000000E+00  0.00000000E+00  0.00000000E+00
  0.00000000E+00  0.00000000E+00  0.00000000E+00
  0.00000000E+00  0.00000000E+00  0.00000000E+00
  0.00000000E+00  0.00000000E+00  0.00000000E+00
  0.00000000E+00  0.00000000E+00  0.00000000E+00
  0.00000000E+00  0.00000000E+00  0.00000000E+00
  0.00000000E+00  0.00000000E+00  0.00000000E+00
  0.00000000E+00  0.00000000E+00  0.00000000E+00
  0.00000000E+00  0.00000000E+00  0.00000000E+00
  0.00000000E+00  0.00000000E+00  0.00000000E+00
  0.00000000E+00  0.00000000E+00  0.00000000E+00
  0.00000000E+00  0.00000000E+00  0.00000000E+00
  0.00000000E+00  0.00000000E+00  0.00000000E+00
  0.00000000E+00  0.00000000E+00  0.00000000E+00
  0.00000000E+00  0.00000000E+00  0.00000000E+00
  0.00000000E+00  0.00000000E+00  0.00000000E+00
  0.00000000E+00  0.00000000E+00  0.00000000E+00
  0.00000000E+00  0.00000000E+00  0.00000000E+00
  0.00000000E+00  0.00000000E+00  0.00000000E+00
  0.00000000E+00  0.00000000E+00  0.00000000E+00
  0.00000000E+00  0.00000000E+00  0.00000000E+00
  0.00000000E+00  0.00000000E+00  0.00000000E+00
