Ta32 Ti34 Nb32 W10
1.0
   9.1216997255111210    0.0000000000000000    0.0000000000000000
   0.0000000000000000    8.3788097184575001    0.0000000000000000
   0.0000000000000000   -1.3964693696492261   23.6988662189480195
Ta Ti Nb W
32 34 32 10
Selective dynamics
direct
   0.4994571676000188    0.2593031912618143    0.2221844125832531 F F T Ta
   0.0007011838891362    0.2591040310670293    0.2222969547399315 F F T Ta
   0.2495600548973154    0.2311844590489892    0.0552218671863136 F F T Ta
   0.4999658814041453    0.7960280677740473    0.1106250486140423 F F T Ta
   0.0000479543384657    0.4631443358176506    0.1107595639448087 F F T Ta
   0.0014814358292294    0.5188928935918385    0.4441870424789326 F F T Ta
   0.2504715557544857    0.8792402113221547    0.6108685672411065 F F T Ta
   0.0006088878015314    0.6666045246082215    0.0000564157924039 F F T Ta
   0.7506980600066611    0.6202106510177187    0.7223370811846667 F F T Ta
   0.4998717066019089    0.7223170063977458    0.3332488289665618 F F T Ta
   0.2497759176542704    0.9533761566985682    0.7219820401393814 F F T Ta
  -0.0001538777245262    0.4080750945442129    0.7776772436159906 F F T Ta
   0.0005745086022187    0.4448472229217259    0.6665706801487550 F F T Ta
   0.2495106240223294    0.6391344113263281    0.8333599043358833 F F T Ta
   0.7497640967820619    0.2129129007097582    0.6113127594073537 F F T Ta
   0.0012324422402965    0.7775033067886726    0.6667589202653421 F F T Ta
   0.2498146343417189    0.8241928721395202    0.2778721876399691 F F T Ta
   0.4992161048643542    0.7781276104765250    0.6663259174694899 F F T Ta
   0.5003964755988403    0.7410101052358100    0.7779960255058993 F F T Ta
   0.4996118710759145   -0.0011549788671015    0.0002092495871261 F F T Ta
   0.5001801896752340    0.0740266822674113    0.7777102048961968 F F T Ta
   0.4999855333282915    0.3886560700943064    0.3335002845253261 F F T Ta
   0.0003203214657926    0.9260045362470607    0.2222758329792449 F F T Ta
   0.2491167970940612    0.6206233497151651    0.3892463970274340 F F T Ta
   0.4995821383535909    0.6669970036817628    0.0000962085192487 F F T Ta
   0.7502763096117065    0.5471197647028170    0.6108467221356220 F F T Ta
   0.7504420632422223    0.8793644703424834    0.6109905865278420 F F T Ta
   0.0002089534286128    0.1295170271930529    0.1106420942708451 F F T Ta
   0.2497824446881278   -0.0280813229768858    0.8332720978506815 F F T Ta
   0.5009183035403245    0.5374167644690017    0.8896547066660992 F F T Ta
  -0.0002256248757224    0.8715803666373143    0.8894052059858858 F F T Ta
   0.2499611531302305    0.4903485454109031    0.2777786518139822 F F T Ta
   0.4993217237138038    0.6484357104714754    0.5558412334762918 F F T Ti
   0.0006181661184688    0.9815775561352743    0.5556698044370203 F F T Ti
   0.5000270802090673    0.4439640944647344    0.6666470210034284 F F T Ti
   0.7503350559090847    0.2312125891587538    0.0554064020510288 F F T Ti
   0.5001069796275747    0.1853723282848529    0.4442993439930025 F F T Ti
   0.7500853215986627    0.8240272166710628    0.2778550345578690 F F T Ti
   0.7501204241673179    0.1573687339204785    0.2779134634888824 F F T Ti
   0.7498964864102219    0.0276241549378996    0.1665200910555622 F F T Ti
  -0.0000511899232333    0.5372774459686841    0.8887023250580404 F F T Ti
   0.7485847158406278    0.9546957733442437    0.3890418402806057 F F T Ti
   0.5000746504558943    0.8697933084302669    0.8896041809652653 F F T Ti
   0.4998462243517314    0.3339860148212463   -0.0000119449792834 F F T Ti
   0.5002779828903824    0.2038229285329205    0.8889666155683655 F F T Ti
   0.0004289236194867    0.7225493918159549    0.3334865845305007 F F T Ti
   0.7492359320902069    0.2868098558590081    0.3892039890393464 F F T Ti
   0.4990507496593882    0.8530034269438729    0.4445007074576243 F F T Ti
   0.7504724678271103    0.1018921651234068    0.9444180717995363 F F T Ti
   0.7502944376332240    0.9542685232973990    0.7222225599458375 F F T Ti
   0.2495517935165419    0.6202284400140200    0.7218703431924005 F F T Ti
   0.2492706110137771    0.9541215389333977    0.3894639861429106 F F T Ti
   0.0004841176504550    0.3148564089027680    0.5558272347654557 F F T Ti
   0.4998581739266997    0.1293100492033847    0.1107399222769636 F F T Ti
   0.7495056616346191    0.6202531982410290    0.3890133779922089 F F T Ti
   0.7498974037428945    0.7684918272725925    0.9442398911268398 F F T Ti
   0.7502289433568059    0.7502278699359588    0.4998680576375514 F F T Ti
   0.2498951653222598    0.3054627991154525    0.8333550674743501 F F T Ti
   0.0007319690377400    0.0553137528167126    0.3333241389969969 F F T Ti
   0.5005552856449084    0.5924138950648061    0.2219207200823024 F F T Ti
   0.7498102399859732    0.4164236153081302    0.4999738191343905 F F T Ti
   0.5003063270432624    0.4072406032671521    0.7778945817211680 F F T Ti
   0.0003011545578601    0.3887559715313938    0.3333297782578192 F F T Ti
   0.2500659537346776    0.3611471729230159    0.1666646156521340 F F T Ti
   0.0004593157159999    0.6481110040042779    0.5556994616071530 F F T Ti
   0.7499589664007379    0.4909243472314352    0.2778279007604584 F F T Ti
   0.0034042081272116    0.8521104447848409    0.4443379516513961 F F T Nb
  -0.0007955497985423    0.2014706366209197    0.8889021362158046 F F T Nb
   0.4998168687279926    0.4635116048298520    0.1108445805938887 F F T Nb
   0.2529331584649590    0.0815206005481064    0.4991768249129459 F F T Nb
   0.4975832870308235    0.3134604978518635    0.5556765570889036 F F T Nb
   0.2514682671844912    0.2871878744268767    0.7228563909179352 F F T Nb
   0.7498894854668198    0.0831548484487809    0.4999650255851756 F F T Nb
  -0.0000199308522110    0.0000800665754827   -0.0001746784517552 F F T Nb
   0.7503600807643558    0.6392213327510859    0.8337254542792184 F F T Nb
   0.7513694862986319    0.2856854374311036    0.7229465459648501 F F T Nb
   0.2501330520519929    0.7512234219323154    0.4998775633385416 F F T Nb
   0.2504580636488039    0.7678464411160656    0.9442539053911181 F F T Nb
   0.2492790023416740    0.4152106102205944    0.4994514799096101 F F T Nb
   0.0009289644364851    0.3332920941329359   -0.0000259359246489 F F T Nb
  -0.0000702346542182    0.7960706725077015    0.1113915522971861 F F T Nb
   0.7487214725870281    0.8992226656189750    0.0557467007561002 F F T Nb
   0.5005938200933709    0.0555972715528427    0.3337247156851078 F F T Nb
   0.5008810097877678    0.5201995133723295    0.4439628845172769 F F T Nb
   0.7495892499498003    0.3051194939834344    0.8331660554124600 F F T Nb
   0.7500503501359642   -0.0305085602578690    0.8334601901535476 F F T Nb
   0.0003188102599387    0.5925804045591371    0.2220188481800910 F F T Nb
  -0.0013161395295951    0.1102280782033038    0.6670689401932420 F F T Nb
   0.7498685242076365    0.5650324237281756    0.0555269802144306 F F T Nb
   0.4996707942471540    0.9256146675577628    0.2222487277888263 F F T Nb
   0.7498829497651244    0.3614054821216412    0.1665311362689704 F F T Nb
   0.4957225303476437    0.9825609739788806    0.5552737998694196 F F T Nb
   0.2511062279074470    0.8982459220487138    0.0552915934497340 F F T Nb
   0.0012608868751333    0.1848674715132936    0.4442796182522069 F F T Nb
   0.2500160050277864    0.0277699546748653    0.1666748385297163 F F T Nb
   0.2483608885329880    0.5492844411033967    0.6106357076716401 F F T Nb
   0.2507630857270932    0.2124548009123438    0.6104611992979506 F F T Nb
   0.7475495221513716    0.4355789822128627    0.9445207599043237 F F T Nb
   0.2500587314067091    0.5648281542747989    0.0553548956246068 F F T W
   0.2494184020951366    0.1017836108512671    0.9448121444358643 F F T W
   0.2502745500970799    0.6944261153665571    0.1666768861842307 F F T W
   0.2494411266852071    0.1583136459791102    0.2777928376900672 F F T W
  -0.0000370588735282    0.7399078622316565    0.7778233066028649 F F T W
   0.2493584891262904    0.2863141447946418    0.3895648227731496 F F T W
  -0.0004602528333926    0.0743273481391390    0.7776907264989419 F F T W
   0.2498069767961148    0.4355201963578885    0.9448492218075097 F F T W
   0.7499436562060972    0.6942569597738441    0.1665267452015047 F F T W
   0.4996546992342818    0.1120998380548326    0.6665379891809190 F F T W
