unknown system                          
           1
     9.121700    0.000000    0.000000
     0.000000    8.378810    0.000000
     0.000000   -1.396469   23.698866
   Ta   Ti   Nb   W 
  32  34  32  10
Direct configuration=     1
   0.49945717  0.25930319  0.22218441
   0.00070118  0.25910403  0.22229695
   0.24956005  0.23118446  0.05522187
   0.49996588  0.79602807  0.11062505
   0.00004795  0.46314434  0.11075956
   0.00148144  0.51889289  0.44418704
   0.25047156  0.87924021  0.61086857
   0.00060889  0.66660452  0.00005642
   0.75069806  0.62021065  0.72233708
   0.49987171  0.72231701  0.33324883
   0.24977592  0.95337616  0.72198204
   0.99984612  0.40807509  0.77767724
   0.00057451  0.44484722  0.66657068
   0.24951062  0.63913441  0.83335990
   0.74976410  0.21291290  0.61131276
   0.00123244  0.77750331  0.66675892
   0.24981463  0.82419287  0.27787219
   0.49921610  0.77812761  0.66632592
   0.50039648  0.74101011  0.77799603
   0.49961187  0.99884502  0.00020925
   0.50018019  0.07402668  0.77771020
   0.49998553  0.38865607  0.33350028
   0.00032032  0.92600454  0.22227583
   0.24911680  0.62062335  0.38924640
   0.49958214  0.66699700  0.00009621
   0.75027631  0.54711976  0.61084672
   0.75044206  0.87936447  0.61099059
   0.00020895  0.12951703  0.11064209
   0.24978244  0.97191868  0.83327210
   0.50091830  0.53741676  0.88965471
   0.99977438  0.87158037  0.88940521
   0.24996115  0.49034855  0.27777865
   0.49932172  0.64843571  0.55584123
   0.00061817  0.98157756  0.55566980
   0.50002708  0.44396409  0.66664702
   0.75033506  0.23121259  0.05540640
   0.50010698  0.18537233  0.44429934
   0.75008532  0.82402722  0.27785503
   0.75012042  0.15736873  0.27791346
   0.74989649  0.02762415  0.16652009
   0.99994881  0.53727745  0.88870233
   0.74858472  0.95469577  0.38904184
   0.50007465  0.86979331  0.88960418
   0.49984622  0.33398601  0.99998806
   0.50027798  0.20382293  0.88896662
   0.00042892  0.72254939  0.33348658
   0.74923593  0.28680986  0.38920399
   0.49905075  0.85300343  0.44450071
   0.75047247  0.10189217  0.94441807
   0.75029444  0.95426852  0.72222256
   0.24955179  0.62022844  0.72187034
   0.24927061  0.95412154  0.38946399
   0.00048412  0.31485641  0.55582723
   0.49985817  0.12931005  0.11073992
   0.74950566  0.62025320  0.38901338
   0.74989740  0.76849183  0.94423989
   0.75022894  0.75022787  0.49986806
   0.24989517  0.30546280  0.83335507
   0.00073197  0.05531375  0.33332414
   0.50055529  0.59241390  0.22192072
   0.74981024  0.41642362  0.49997382
   0.50030633  0.40724060  0.77789458
   0.00030115  0.38875597  0.33332978
   0.25006595  0.36114717  0.16666462
   0.00045932  0.64811100  0.55569946
   0.74995897  0.49092435  0.27782790
   0.00340421  0.85211044  0.44433795
   0.99920445  0.20147064  0.88890214
   0.49981687  0.46351160  0.11084458
   0.25293316  0.08152060  0.49917682
   0.49758329  0.31346050  0.55567656
   0.25146827  0.28718787  0.72285639
   0.74988949  0.08315485  0.49996503
   0.99998007  0.00008007  0.99982532
   0.75036008  0.63922133  0.83372545
   0.75136949  0.28568544  0.72294655
   0.25013305  0.75122342  0.49987756
   0.25045806  0.76784644  0.94425391
   0.24927900  0.41521061  0.49945148
   0.00092896  0.33329209  0.99997406
   0.99992977  0.79607067  0.11139155
   0.74872147  0.89922267  0.05574670
   0.50059382  0.05559727  0.33372472
   0.50088101  0.52019951  0.44396288
   0.74958925  0.30511949  0.83316606
   0.75005035  0.96949144  0.83346019
   0.00031881  0.59258040  0.22201885
   0.99868386  0.11022808  0.66706894
   0.74986852  0.56503242  0.05552698
   0.49967079  0.92561467  0.22224873
   0.74988295  0.36140548  0.16653114
   0.49572253  0.98256097  0.55527380
   0.25110623  0.89824592  0.05529159
   0.00126089  0.18486747  0.44427962
   0.25001601  0.02776995  0.16667484
   0.24836089  0.54928444  0.61063571
   0.25076309  0.21245480  0.61046120
   0.74754952  0.43557898  0.94452076
   0.25005873  0.56482815  0.05535490
   0.24941840  0.10178361  0.94481214
   0.25027455  0.69442612  0.16667689
   0.24944113  0.15831365  0.27779284
   0.99996294  0.73990786  0.77782331
   0.24935849  0.28631414  0.38956482
   0.99953975  0.07432735  0.77769073
   0.24980698  0.43552020  0.94484922
   0.74994366  0.69425696  0.16652675
   0.49965470  0.11209984  0.66653799
Direct configuration=     2
   0.49945717  0.25930319  0.22214715
   0.00070118  0.25910403  0.22231698
   0.24956005  0.23118446  0.05499145
   0.49996588  0.79602807  0.11119114
   0.00004795  0.46314434  0.11083157
   0.00148144  0.51889289  0.44452298
   0.25047156  0.87924021  0.61096617
   0.00060889  0.66660452  0.00014138
   0.75069806  0.62021065  0.72229898
   0.49987171  0.72231701  0.33329891
   0.24977592  0.95337616  0.72213921
   0.99984612  0.40807509  0.77764674
   0.00057451  0.44484722  0.66724521
   0.24951062  0.63913441  0.83317356
   0.74976410  0.21291290  0.61108304
   0.00123244  0.77750331  0.66749241
   0.24981463  0.82419287  0.27740120
   0.49921610  0.77812761  0.66639846
   0.50039648  0.74101011  0.77796933
   0.49961187  0.99884502  0.00037087
   0.50018019  0.07402668  0.77793100
   0.49998553  0.38865607  0.33358678
   0.00032032  0.92600454  0.22224999
   0.24911680  0.62062335  0.38954390
   0.49958214  0.66699700  0.00007720
   0.75027631  0.54711976  0.61085664
   0.75044206  0.87936447  0.61106028
   0.00020895  0.12951703  0.11016544
   0.24978244  0.97191868  0.83300744
   0.50091830  0.53741676  0.88980633
   0.99977438  0.87158037  0.88948695
   0.24996115  0.49034855  0.27738933
   0.49932172  0.64843571  0.55633407
   0.00061817  0.98157756  0.55563139
   0.50002708  0.44396409  0.66681074
   0.75033506  0.23121259  0.05397178
   0.50010698  0.18537233  0.44391758
   0.75008532  0.82402722  0.27794651
   0.75012042  0.15736873  0.27785094
   0.74989649  0.02762415  0.16672898
   0.99994881  0.53727745  0.88828926
   0.74858472  0.95469577  0.38941052
   0.50007465  0.86979331  0.89065822
   0.49984622  0.33398601  0.00012614
   0.50027798  0.20382293  0.88901504
   0.00042892  0.72254939  0.33338840
   0.74923593  0.28680986  0.38998516
   0.49905075  0.85300343  0.44408137
   0.75047247  0.10189217  0.94527203
   0.75029444  0.95426852  0.72197802
   0.24955179  0.62022844  0.72161001
   0.24927061  0.95412154  0.38837246
   0.00048412  0.31485641  0.55541665
   0.49985817  0.12931005  0.10872758
   0.74950566  0.62025320  0.38992708
   0.74989740  0.76849183  0.94492255
   0.75022894  0.75022787  0.50016093
   0.24989517  0.30546280  0.83321763
   0.00073197  0.05531375  0.33350022
   0.50055529  0.59241390  0.22161483
   0.74981024  0.41642362  0.49957935
   0.50030633  0.40724060  0.77786265
   0.00030115  0.38875597  0.33318629
   0.25006595  0.36114717  0.16652250
   0.00045932  0.64811100  0.55591298
   0.74995897  0.49092435  0.27767609
   0.00340421  0.85211044  0.44446633
   0.99920445  0.20147064  0.88859933
   0.49981687  0.46351160  0.11125098
   0.25293316  0.08152060  0.49771613
   0.49758329  0.31346050  0.55557217
   0.25146827  0.28718787  0.72309351
   0.74988949  0.08315485  0.50012758
   0.99998007  0.00008007  0.99991933
   0.75036008  0.63922133  0.83373855
   0.75136949  0.28568544  0.72288886
   0.25013305  0.75122342  0.49979125
   0.25045806  0.76784644  0.94468498
   0.24927900  0.41521061  0.49825775
   0.00092896  0.33329209  0.00015457
   0.99992977  0.79607067  0.11158041
   0.74872147  0.89922267  0.05534449
   0.50059382  0.05559727  0.33372469
   0.50088101  0.52019951  0.44417817
   0.74958925  0.30511949  0.83317775
   0.75005035  0.96949144  0.83367017
   0.00031881  0.59258040  0.22185656
   0.99868386  0.11022808  0.66693298
   0.74986852  0.56503242  0.05498606
   0.49967079  0.92561467  0.22214211
   0.74988295  0.36140548  0.16669085
   0.49572253  0.98256097  0.55526511
   0.25110623  0.89824592  0.05476778
   0.00126089  0.18486747  0.44437851
   0.25001601  0.02776995  0.16734565
   0.24836089  0.54928444  0.61045373
   0.25076309  0.21245480  0.61045270
   0.74754952  0.43557898  0.94502738
   0.25005873  0.56482815  0.05506715
   0.24941840  0.10178361  0.94532149
   0.25027455  0.69442612  0.16782895
   0.24944113  0.15831365  0.27759708
   0.99996294  0.73990786  0.77730587
   0.24935849  0.28631414  0.39011787
   0.99953975  0.07432735  0.77832069
   0.24980698  0.43552020  0.94520999
   0.74994366  0.69425696  0.16678253
   0.49965470  0.11209984  0.66581555
Direct configuration=     3
   0.49945717  0.25930319  0.22214803
   0.00070118  0.25910403  0.22231651
   0.24956005  0.23118446  0.05499687
   0.49996588  0.79602807  0.11117782
   0.00004795  0.46314434  0.11082988
   0.00148144  0.51889289  0.44451508
   0.25047156  0.87924021  0.61096388
   0.00060889  0.66660452  0.00013938
   0.75069806  0.62021065  0.72229988
   0.49987171  0.72231701  0.33329773
   0.24977592  0.95337616  0.72213551
   0.99984612  0.40807509  0.77764745
   0.00057451  0.44484722  0.66722934
   0.24951062  0.63913441  0.83317795
   0.74976410  0.21291290  0.61108845
   0.00123244  0.77750331  0.66747515
   0.24981463  0.82419287  0.27741228
   0.49921610  0.77812761  0.66639675
   0.50039648  0.74101011  0.77796996
   0.49961187  0.99884502  0.00036707
   0.50018019  0.07402668  0.77792581
   0.49998553  0.38865607  0.33358475
   0.00032032  0.92600454  0.22225059
   0.24911680  0.62062335  0.38953690
   0.49958214  0.66699700  0.00007765
   0.75027631  0.54711976  0.61085641
   0.75044206  0.87936447  0.61105864
   0.00020895  0.12951703  0.11017665
   0.24978244  0.97191868  0.83301367
   0.50091830  0.53741676  0.88980277
   0.99977438  0.87158037  0.88948503
   0.24996115  0.49034855  0.27739849
   0.49932172  0.64843571  0.55632247
   0.00061817  0.98157756  0.55563229
   0.50002708  0.44396409  0.66680688
   0.75033506  0.23121259  0.05400554
   0.50010698  0.18537233  0.44392656
   0.75008532  0.82402722  0.27794436
   0.75012042  0.15736873  0.27785241
   0.74989649  0.02762415  0.16672407
   0.99994881  0.53727745  0.88829898
   0.74858472  0.95469577  0.38940185
   0.50007465  0.86979331  0.89063342
   0.49984622  0.33398601  0.00012289
   0.50027798  0.20382293  0.88901390
   0.00042892  0.72254939  0.33339071
   0.74923593  0.28680986  0.38996678
   0.49905075  0.85300343  0.44409123
   0.75047247  0.10189217  0.94525194
   0.75029444  0.95426852  0.72198377
   0.24955179  0.62022844  0.72161613
   0.24927061  0.95412154  0.38839814
   0.00048412  0.31485641  0.55542631
   0.49985817  0.12931005  0.10877492
   0.74950566  0.62025320  0.38990559
   0.74989740  0.76849183  0.94490649
   0.75022894  0.75022787  0.50015404
   0.24989517  0.30546280  0.83322087
   0.00073197  0.05531375  0.33349607
   0.50055529  0.59241390  0.22162203
   0.74981024  0.41642362  0.49958863
   0.50030633  0.40724060  0.77786341
   0.00030115  0.38875597  0.33318967
   0.25006595  0.36114717  0.16652584
   0.00045932  0.64811100  0.55590796
   0.74995897  0.49092435  0.27767966
   0.00340421  0.85211044  0.44446331
   0.99920445  0.20147064  0.88860646
   0.49981687  0.46351160  0.11124142
   0.25293316  0.08152060  0.49775050
   0.49758329  0.31346050  0.55557463
   0.25146827  0.28718787  0.72308793
   0.74988949  0.08315485  0.50012376
   0.99998007  0.00008007  0.99991712
   0.75036008  0.63922133  0.83373824
   0.75136949  0.28568544  0.72289022
   0.25013305  0.75122342  0.49979328
   0.25045806  0.76784644  0.94467484
   0.24927900  0.41521061  0.49828584
   0.00092896  0.33329209  0.00015032
   0.99992977  0.79607067  0.11157597
   0.74872147  0.89922267  0.05535396
   0.50059382  0.05559727  0.33372469
   0.50088101  0.52019951  0.44417310
   0.74958925  0.30511949  0.83317748
   0.75005035  0.96949144  0.83366523
   0.00031881  0.59258040  0.22186038
   0.99868386  0.11022808  0.66693618
   0.74986852  0.56503242  0.05499878
   0.49967079  0.92561467  0.22214462
   0.74988295  0.36140548  0.16668709
   0.49572253  0.98256097  0.55526532
   0.25110623  0.89824592  0.05478011
   0.00126089  0.18486747  0.44437618
   0.25001601  0.02776995  0.16732986
   0.24836089  0.54928444  0.61045801
   0.25076309  0.21245480  0.61045290
   0.74754952  0.43557898  0.94501546
   0.25005873  0.56482815  0.05507392
   0.24941840  0.10178361  0.94530950
   0.25027455  0.69442612  0.16780185
   0.24944113  0.15831365  0.27760168
   0.99996294  0.73990786  0.77731804
   0.24935849  0.28631414  0.39010485
   0.99953975  0.07432735  0.77830586
   0.24980698  0.43552020  0.94520151
   0.74994366  0.69425696  0.16677651
   0.49965470  0.11209984  0.66583254
Direct configuration=     4
   0.49945717  0.25930319  0.22214847
   0.00070118  0.25910403  0.22231627
   0.24956005  0.23118446  0.05499957
   0.49996588  0.79602807  0.11117118
   0.00004795  0.46314434  0.11082903
   0.00148144  0.51889289  0.44451114
   0.25047156  0.87924021  0.61096273
   0.00060889  0.66660452  0.00013838
   0.75069806  0.62021065  0.72230032
   0.49987171  0.72231701  0.33329714
   0.24977592  0.95337616  0.72213367
   0.99984612  0.40807509  0.77764781
   0.00057451  0.44484722  0.66722143
   0.24951062  0.63913441  0.83318013
   0.74976410  0.21291290  0.61109114
   0.00123244  0.77750331  0.66746655
   0.24981463  0.82419287  0.27741780
   0.49921610  0.77812761  0.66639590
   0.50039648  0.74101011  0.77797027
   0.49961187  0.99884502  0.00036517
   0.50018019  0.07402668  0.77792322
   0.49998553  0.38865607  0.33358373
   0.00032032  0.92600454  0.22225090
   0.24911680  0.62062335  0.38953341
   0.49958214  0.66699700  0.00007787
   0.75027631  0.54711976  0.61085629
   0.75044206  0.87936447  0.61105782
   0.00020895  0.12951703  0.11018224
   0.24978244  0.97191868  0.83301677
   0.50091830  0.53741676  0.88980099
   0.99977438  0.87158037  0.88948407
   0.24996115  0.49034855  0.27740305
   0.49932172  0.64843571  0.55631669
   0.00061817  0.98157756  0.55563274
   0.50002708  0.44396409  0.66680496
   0.75033506  0.23121259  0.05402235
   0.50010698  0.18537233  0.44393103
   0.75008532  0.82402722  0.27794328
   0.75012042  0.15736873  0.27785315
   0.74989649  0.02762415  0.16672162
   0.99994881  0.53727745  0.88830382
   0.74858472  0.95469577  0.38939753
   0.50007465  0.86979331  0.89062106
   0.49984622  0.33398601  0.00012127
   0.50027798  0.20382293  0.88901333
   0.00042892  0.72254939  0.33339186
   0.74923593  0.28680986  0.38995763
   0.49905075  0.85300343  0.44409615
   0.75047247  0.10189217  0.94524193
   0.75029444  0.95426852  0.72198664
   0.24955179  0.62022844  0.72161918
   0.24927061  0.95412154  0.38841093
   0.00048412  0.31485641  0.55543113
   0.49985817  0.12931005  0.10879851
   0.74950566  0.62025320  0.38989488
   0.74989740  0.76849183  0.94489849
   0.75022894  0.75022787  0.50015061
   0.24989517  0.30546280  0.83322248
   0.00073197  0.05531375  0.33349401
   0.50055529  0.59241390  0.22162561
   0.74981024  0.41642362  0.49959326
   0.50030633  0.40724060  0.77786378
   0.00030115  0.38875597  0.33319135
   0.25006595  0.36114717  0.16652751
   0.00045932  0.64811100  0.55590546
   0.74995897  0.49092435  0.27768144
   0.00340421  0.85211044  0.44446180
   0.99920445  0.20147064  0.88861001
   0.49981687  0.46351160  0.11123666
   0.25293316  0.08152060  0.49776762
   0.49758329  0.31346050  0.55557585
   0.25146827  0.28718787  0.72308515
   0.74988949  0.08315485  0.50012185
   0.99998007  0.00008007  0.99991601
   0.75036008  0.63922133  0.83373809
   0.75136949  0.28568544  0.72289089
   0.25013305  0.75122342  0.49979429
   0.25045806  0.76784644  0.94466979
   0.24927900  0.41521061  0.49829983
   0.00092896  0.33329209  0.00014821
   0.99992977  0.79607067  0.11157375
   0.74872147  0.89922267  0.05535867
   0.50059382  0.05559727  0.33372469
   0.50088101  0.52019951  0.44417058
   0.74958925  0.30511949  0.83317734
   0.75005035  0.96949144  0.83366277
   0.00031881  0.59258040  0.22186228
   0.99868386  0.11022808  0.66693777
   0.74986852  0.56503242  0.05500512
   0.49967079  0.92561467  0.22214587
   0.74988295  0.36140548  0.16668522
   0.49572253  0.98256097  0.55526542
   0.25110623  0.89824592  0.05478625
   0.00126089  0.18486747  0.44437502
   0.25001601  0.02776995  0.16732200
   0.24836089  0.54928444  0.61046014
   0.25076309  0.21245480  0.61045300
   0.74754952  0.43557898  0.94500952
   0.25005873  0.56482815  0.05507729
   0.24941840  0.10178361  0.94530353
   0.25027455  0.69442612  0.16778834
   0.24944113  0.15831365  0.27760398
   0.99996294  0.73990786  0.77732411
   0.24935849  0.28631414  0.39009837
   0.99953975  0.07432735  0.77829848
   0.24980698  0.43552020  0.94519728
   0.74994366  0.69425696  0.16677351
   0.49965470  0.11209984  0.66584101
Direct configuration=     5
   0.49945717  0.25930319  0.22214878
   0.00070118  0.25910403  0.22231610
   0.24956005  0.23118446  0.05500149
   0.49996588  0.79602807  0.11116646
   0.00004795  0.46314434  0.11082843
   0.00148144  0.51889289  0.44450834
   0.25047156  0.87924021  0.61096192
   0.00060889  0.66660452  0.00013767
   0.75069806  0.62021065  0.72230064
   0.49987171  0.72231701  0.33329673
   0.24977592  0.95337616  0.72213236
   0.99984612  0.40807509  0.77764807
   0.00057451  0.44484722  0.66721580
   0.24951062  0.63913441  0.83318169
   0.74976410  0.21291290  0.61109306
   0.00123244  0.77750331  0.66746043
   0.24981463  0.82419287  0.27742173
   0.49921610  0.77812761  0.66639529
   0.50039648  0.74101011  0.77797049
   0.49961187  0.99884502  0.00036383
   0.50018019  0.07402668  0.77792137
   0.49998553  0.38865607  0.33358301
   0.00032032  0.92600454  0.22225111
   0.24911680  0.62062335  0.38953093
   0.49958214  0.66699700  0.00007803
   0.75027631  0.54711976  0.61085621
   0.75044206  0.87936447  0.61105724
   0.00020895  0.12951703  0.11018622
   0.24978244  0.97191868  0.83301898
   0.50091830  0.53741676  0.88979972
   0.99977438  0.87158037  0.88948339
   0.24996115  0.49034855  0.27740630
   0.49932172  0.64843571  0.55631258
   0.00061817  0.98157756  0.55563306
   0.50002708  0.44396409  0.66680360
   0.75033506  0.23121259  0.05403432
   0.50010698  0.18537233  0.44393422
   0.75008532  0.82402722  0.27794252
   0.75012042  0.15736873  0.27785367
   0.74989649  0.02762415  0.16671988
   0.99994881  0.53727745  0.88830726
   0.74858472  0.95469577  0.38939445
   0.50007465  0.86979331  0.89061227
   0.49984622  0.33398601  0.00012012
   0.50027798  0.20382293  0.88901292
   0.00042892  0.72254939  0.33339268
   0.74923593  0.28680986  0.38995111
   0.49905075  0.85300343  0.44409965
   0.75047247  0.10189217  0.94523481
   0.75029444  0.95426852  0.72198868
   0.24955179  0.62022844  0.72162136
   0.24927061  0.95412154  0.38842004
   0.00048412  0.31485641  0.55543455
   0.49985817  0.12931005  0.10881531
   0.74950566  0.62025320  0.38988725
   0.74989740  0.76849183  0.94489279
   0.75022894  0.75022787  0.50014816
   0.24989517  0.30546280  0.83322362
   0.00073197  0.05531375  0.33349254
   0.50055529  0.59241390  0.22162816
   0.74981024  0.41642362  0.49959655
   0.50030633  0.40724060  0.77786405
   0.00030115  0.38875597  0.33319254
   0.25006595  0.36114717  0.16652870
   0.00045932  0.64811100  0.55590367
   0.74995897  0.49092435  0.27768271
   0.00340421  0.85211044  0.44446073
   0.99920445  0.20147064  0.88861253
   0.49981687  0.46351160  0.11123327
   0.25293316  0.08152060  0.49777981
   0.49758329  0.31346050  0.55557672
   0.25146827  0.28718787  0.72308317
   0.74988949  0.08315485  0.50012049
   0.99998007  0.00008007  0.99991523
   0.75036008  0.63922133  0.83373798
   0.75136949  0.28568544  0.72289137
   0.25013305  0.75122342  0.49979501
   0.25045806  0.76784644  0.94466619
   0.24927900  0.41521061  0.49830979
   0.00092896  0.33329209  0.00014670
   0.99992977  0.79607067  0.11157218
   0.74872147  0.89922267  0.05536203
   0.50059382  0.05559727  0.33372469
   0.50088101  0.52019951  0.44416878
   0.74958925  0.30511949  0.83317724
   0.75005035  0.96949144  0.83366102
   0.00031881  0.59258040  0.22186363
   0.99868386  0.11022808  0.66693890
   0.74986852  0.56503242  0.05500964
   0.49967079  0.92561467  0.22214676
   0.74988295  0.36140548  0.16668389
   0.49572253  0.98256097  0.55526549
   0.25110623  0.89824592  0.05479062
   0.00126089  0.18486747  0.44437420
   0.25001601  0.02776995  0.16731640
   0.24836089  0.54928444  0.61046166
   0.25076309  0.21245480  0.61045307
   0.74754952  0.43557898  0.94500529
   0.25005873  0.56482815  0.05507969
   0.24941840  0.10178361  0.94529928
   0.25027455  0.69442612  0.16777873
   0.24944113  0.15831365  0.27760561
   0.99996294  0.73990786  0.77732843
   0.24935849  0.28631414  0.39009376
   0.99953975  0.07432735  0.77829322
   0.24980698  0.43552020  0.94519427
   0.74994366  0.69425696  0.16677138
   0.49965470  0.11209984  0.66584704
Direct configuration=     6
   0.49945717  0.25930319  0.22216660
   0.00070118  0.25910403  0.22230653
   0.24956005  0.23118446  0.05511168
   0.49996588  0.79602807  0.11089575
   0.00004795  0.46314434  0.11079400
   0.00148144  0.51889289  0.44434769
   0.25047156  0.87924021  0.61091524
   0.00060889  0.66660452  0.00009704
   0.75069806  0.62021065  0.72231886
   0.49987171  0.72231701  0.33327278
   0.24977592  0.95337616  0.72205720
   0.99984612  0.40807509  0.77766265
   0.00057451  0.44484722  0.66689324
   0.24951062  0.63913441  0.83327080
   0.74976410  0.21291290  0.61120291
   0.00123244  0.77750331  0.66710968
   0.24981463  0.82419287  0.27764696
   0.49921610  0.77812761  0.66636061
   0.50039648  0.74101011  0.77798326
   0.49961187  0.99884502  0.00028654
   0.50018019  0.07402668  0.77781579
   0.49998553  0.38865607  0.33354165
   0.00032032  0.92600454  0.22226347
   0.24911680  0.62062335  0.38938866
   0.49958214  0.66699700  0.00008712
   0.75027631  0.54711976  0.61085146
   0.75044206  0.87936447  0.61102391
   0.00020895  0.12951703  0.11041416
   0.24978244  0.97191868  0.83314554
   0.50091830  0.53741676  0.88972722
   0.99977438  0.87158037  0.88944430
   0.24996115  0.49034855  0.27759248
   0.49932172  0.64843571  0.55607691
   0.00061817  0.98157756  0.55565143
   0.50002708  0.44396409  0.66672531
   0.75033506  0.23121259  0.05472036
   0.50010698  0.18537233  0.44411678
   0.75008532  0.82402722  0.27789878
   0.75012042  0.15736873  0.27788357
   0.74989649  0.02762415  0.16661998
   0.99994881  0.53727745  0.88850479
   0.74858472  0.95469577  0.38921814
   0.50007465  0.86979331  0.89010822
   0.49984622  0.33398601  0.00005409
   0.50027798  0.20382293  0.88898977
   0.00042892  0.72254939  0.33343963
   0.74923593  0.28680986  0.38957755
   0.49905075  0.85300343  0.44430018
   0.75047247  0.10189217  0.94482644
   0.75029444  0.95426852  0.72210562
   0.24955179  0.62022844  0.72174585
   0.24927061  0.95412154  0.38894201
   0.00048412  0.31485641  0.55563089
   0.49985817  0.12931005  0.10977761
   0.74950566  0.62025320  0.38945031
   0.74989740  0.76849183  0.94456634
   0.75022894  0.75022787  0.50000811
   0.24989517  0.30546280  0.83328935
   0.00073197  0.05531375  0.33340834
   0.50055529  0.59241390  0.22177444
   0.74981024  0.41642362  0.49978518
   0.50030633  0.40724060  0.77787931
   0.00030115  0.38875597  0.33326116
   0.25006595  0.36114717  0.16659666
   0.00045932  0.64811100  0.55580157
   0.74995897  0.49092435  0.27775530
   0.00340421  0.85211044  0.44439934
   0.99920445  0.20147064  0.88875734
   0.49981687  0.46351160  0.11103892
   0.25293316  0.08152060  0.49847832
   0.49758329  0.31346050  0.55562664
   0.25146827  0.28718787  0.72296978
   0.74988949  0.08315485  0.50004276
   0.99998007  0.00008007  0.99987028
   0.75036008  0.63922133  0.83373172
   0.75136949  0.28568544  0.72291896
   0.25013305  0.75122342  0.49983629
   0.25045806  0.76784644  0.94446005
   0.24927900  0.41521061  0.49888064
   0.00092896  0.33329209  0.00006038
   0.99992977  0.79607067  0.11148186
   0.74872147  0.89922267  0.05555436
   0.50059382  0.05559727  0.33372470
   0.50088101  0.52019951  0.44406583
   0.74958925  0.30511949  0.83317165
   0.75005035  0.96949144  0.83356060
   0.00031881  0.59258040  0.22194124
   0.99868386  0.11022808  0.66700392
   0.74986852  0.56503242  0.05526831
   0.49967079  0.92561467  0.22219774
   0.74988295  0.36140548  0.16660751
   0.49572253  0.98256097  0.55526965
   0.25110623  0.89824592  0.05504111
   0.00126089  0.18486747  0.44432691
   0.25001601  0.02776995  0.16699562
   0.24836089  0.54928444  0.61054868
   0.25076309  0.21245480  0.61045714
   0.74754952  0.43557898  0.94476303
   0.25005873  0.56482815  0.05521729
   0.24941840  0.10178361  0.94505571
   0.25027455  0.69442612  0.16722781
   0.24944113  0.15831365  0.27769922
   0.99996294  0.73990786  0.77757587
   0.24935849  0.28631414  0.38982929
   0.99953975  0.07432735  0.77799197
   0.24980698  0.43552020  0.94502174
   0.74994366  0.69425696  0.16664906
   0.49965470  0.11209984  0.66619252
Direct configuration=     7
   0.49945717  0.25930319  0.22217550
   0.00070118  0.25910403  0.22230174
   0.24956005  0.23118446  0.05516677
   0.49996588  0.79602807  0.11076040
   0.00004795  0.46314434  0.11077678
   0.00148144  0.51889289  0.44426737
   0.25047156  0.87924021  0.61089191
   0.00060889  0.66660452  0.00007673
   0.75069806  0.62021065  0.72232797
   0.49987171  0.72231701  0.33326080
   0.24977592  0.95337616  0.72201962
   0.99984612  0.40807509  0.77766995
   0.00057451  0.44484722  0.66673196
   0.24951062  0.63913441  0.83331535
   0.74976410  0.21291290  0.61125783
   0.00123244  0.77750331  0.66693430
   0.24981463  0.82419287  0.27775957
   0.49921610  0.77812761  0.66634326
   0.50039648  0.74101011  0.77798964
   0.49961187  0.99884502  0.00024789
   0.50018019  0.07402668  0.77776300
   0.49998553  0.38865607  0.33352097
   0.00032032  0.92600454  0.22226965
   0.24911680  0.62062335  0.38931753
   0.49958214  0.66699700  0.00009166
   0.75027631  0.54711976  0.61084909
   0.75044206  0.87936447  0.61100725
   0.00020895  0.12951703  0.11052813
   0.24978244  0.97191868  0.83320882
   0.50091830  0.53741676  0.88969096
   0.99977438  0.87158037  0.88942475
   0.24996115  0.49034855  0.27768556
   0.49932172  0.64843571  0.55595907
   0.00061817  0.98157756  0.55566062
   0.50002708  0.44396409  0.66668617
   0.75033506  0.23121259  0.05506338
   0.50010698  0.18537233  0.44420806
   0.75008532  0.82402722  0.27787691
   0.75012042  0.15736873  0.27789851
   0.74989649  0.02762415  0.16657004
   0.99994881  0.53727745  0.88860356
   0.74858472  0.95469577  0.38912999
   0.50007465  0.86979331  0.88985620
   0.49984622  0.33398601  0.00002107
   0.50027798  0.20382293  0.88897819
   0.00042892  0.72254939  0.33346311
   0.74923593  0.28680986  0.38939077
   0.49905075  0.85300343  0.44440044
   0.75047247  0.10189217  0.94462226
   0.75029444  0.95426852  0.72216409
   0.24955179  0.62022844  0.72180810
   0.24927061  0.95412154  0.38920300
   0.00048412  0.31485641  0.55572906
   0.49985817  0.12931005  0.11025877
   0.74950566  0.62025320  0.38923185
   0.74989740  0.76849183  0.94440312
   0.75022894  0.75022787  0.49993808
   0.24989517  0.30546280  0.83332221
   0.00073197  0.05531375  0.33336624
   0.50055529  0.59241390  0.22184758
   0.74981024  0.41642362  0.49987950
   0.50030633  0.40724060  0.77788695
   0.00030115  0.38875597  0.33329547
   0.25006595  0.36114717  0.16663064
   0.00045932  0.64811100  0.55575051
   0.74995897  0.49092435  0.27779160
   0.00340421  0.85211044  0.44436865
   0.99920445  0.20147064  0.88882974
   0.49981687  0.46351160  0.11094175
   0.25293316  0.08152060  0.49882757
   0.49758329  0.31346050  0.55565160
   0.25146827  0.28718787  0.72291309
   0.74988949  0.08315485  0.50000389
   0.99998007  0.00008007  0.99984780
   0.75036008  0.63922133  0.83372859
   0.75136949  0.28568544  0.72293275
   0.25013305  0.75122342  0.49985693
   0.25045806  0.76784644  0.94435698
   0.24927900  0.41521061  0.49916606
   0.00092896  0.33329209  0.00001722
   0.99992977  0.79607067  0.11143671
   0.74872147  0.89922267  0.05565053
   0.50059382  0.05559727  0.33372471
   0.50088101  0.52019951  0.44401436
   0.74958925  0.30511949  0.83316885
   0.75005035  0.96949144  0.83351040
   0.00031881  0.59258040  0.22198004
   0.99868386  0.11022808  0.66703643
   0.74986852  0.56503242  0.05539764
   0.49967079  0.92561467  0.22222324
   0.74988295  0.36140548  0.16656932
   0.49572253  0.98256097  0.55527172
   0.25110623  0.89824592  0.05516635
   0.00126089  0.18486747  0.44430326
   0.25001601  0.02776995  0.16683523
   0.24836089  0.54928444  0.61059220
   0.25076309  0.21245480  0.61045917
   0.74754952  0.43557898  0.94464189
   0.25005873  0.56482815  0.05528609
   0.24941840  0.10178361  0.94493393
   0.25027455  0.69442612  0.16695235
   0.24944113  0.15831365  0.27774603
   0.99996294  0.73990786  0.77769959
   0.24935849  0.28631414  0.38969706
   0.99953975  0.07432735  0.77784135
   0.24980698  0.43552020  0.94493548
   0.74994366  0.69425696  0.16658790
   0.49965470  0.11209984  0.66636525
Direct configuration=     8
   0.49945717  0.25930319  0.22217996
   0.00070118  0.25910403  0.22229935
   0.24956005  0.23118446  0.05519432
   0.49996588  0.79602807  0.11069272
   0.00004795  0.46314434  0.11076817
   0.00148144  0.51889289  0.44422720
   0.25047156  0.87924021  0.61088024
   0.00060889  0.66660452  0.00006657
   0.75069806  0.62021065  0.72233253
   0.49987171  0.72231701  0.33325482
   0.24977592  0.95337616  0.72200083
   0.99984612  0.40807509  0.77767360
   0.00057451  0.44484722  0.66665132
   0.24951062  0.63913441  0.83333763
   0.74976410  0.21291290  0.61128530
   0.00123244  0.77750331  0.66684661
   0.24981463  0.82419287  0.27781588
   0.49921610  0.77812761  0.66633459
   0.50039648  0.74101011  0.77799283
   0.49961187  0.99884502  0.00022857
   0.50018019  0.07402668  0.77773660
   0.49998553  0.38865607  0.33351063
   0.00032032  0.92600454  0.22227274
   0.24911680  0.62062335  0.38928196
   0.49958214  0.66699700  0.00009394
   0.75027631  0.54711976  0.61084791
   0.75044206  0.87936447  0.61099892
   0.00020895  0.12951703  0.11058511
   0.24978244  0.97191868  0.83324046
   0.50091830  0.53741676  0.88967283
   0.99977438  0.87158037  0.88941498
   0.24996115  0.49034855  0.27773211
   0.49932172  0.64843571  0.55590015
   0.00061817  0.98157756  0.55566521
   0.50002708  0.44396409  0.66666659
   0.75033506  0.23121259  0.05523489
   0.50010698  0.18537233  0.44425370
   0.75008532  0.82402722  0.27786597
   0.75012042  0.15736873  0.27790599
   0.74989649  0.02762415  0.16654506
   0.99994881  0.53727745  0.88865294
   0.74858472  0.95469577  0.38908592
   0.50007465  0.86979331  0.88973019
   0.49984622  0.33398601  0.00000456
   0.50027798  0.20382293  0.88897240
   0.00042892  0.72254939  0.33347485
   0.74923593  0.28680986  0.38929738
   0.49905075  0.85300343  0.44445058
   0.75047247  0.10189217  0.94452016
   0.75029444  0.95426852  0.72219332
   0.24955179  0.62022844  0.72183922
   0.24927061  0.95412154  0.38933349
   0.00048412  0.31485641  0.55577815
   0.49985817  0.12931005  0.11049935
   0.74950566  0.62025320  0.38912261
   0.74989740  0.76849183  0.94432150
   0.75022894  0.75022787  0.49990307
   0.24989517  0.30546280  0.83333864
   0.00073197  0.05531375  0.33334519
   0.50055529  0.59241390  0.22188415
   0.74981024  0.41642362  0.49992666
   0.50030633  0.40724060  0.77789076
   0.00030115  0.38875597  0.33331262
   0.25006595  0.36114717  0.16664763
   0.00045932  0.64811100  0.55572499
   0.74995897  0.49092435  0.27780975
   0.00340421  0.85211044  0.44435330
   0.99920445  0.20147064  0.88886594
   0.49981687  0.46351160  0.11089317
   0.25293316  0.08152060  0.49900220
   0.49758329  0.31346050  0.55566408
   0.25146827  0.28718787  0.72288474
   0.74988949  0.08315485  0.49998446
   0.99998007  0.00008007  0.99983656
   0.75036008  0.63922133  0.83372702
   0.75136949  0.28568544  0.72293965
   0.25013305  0.75122342  0.49986724
   0.25045806  0.76784644  0.94430544
   0.24927900  0.41521061  0.49930877
   0.00092896  0.33329209 -0.00000436
   0.99992977  0.79607067  0.11141413
   0.74872147  0.89922267  0.05569862
   0.50059382  0.05559727  0.33372471
   0.50088101  0.52019951  0.44398862
   0.74958925  0.30511949  0.83316745
   0.75005035  0.96949144  0.83348529
   0.00031881  0.59258040  0.22199945
   0.99868386  0.11022808  0.66705269
   0.74986852  0.56503242  0.05546231
   0.49967079  0.92561467  0.22223598
   0.74988295  0.36140548  0.16655023
   0.49572253  0.98256097  0.55527276
   0.25110623  0.89824592  0.05522897
   0.00126089  0.18486747  0.44429144
   0.25001601  0.02776995  0.16675503
   0.24836089  0.54928444  0.61061395
   0.25076309  0.21245480  0.61046018
   0.74754952  0.43557898  0.94458133
   0.25005873  0.56482815  0.05532050
   0.24941840  0.10178361  0.94487304
   0.25027455  0.69442612  0.16681462
   0.24944113  0.15831365  0.27776943
   0.99996294  0.73990786  0.77776145
   0.24935849  0.28631414  0.38963094
   0.99953975  0.07432735  0.77776604
   0.24980698  0.43552020  0.94489235
   0.74994366  0.69425696  0.16655732
   0.49965470  0.11209984  0.66645162
Direct configuration=     9
   0.49945717  0.25930319  0.22218219
   0.00070118  0.25910403  0.22229815
   0.24956005  0.23118446  0.05520809
   0.49996588  0.79602807  0.11065889
   0.00004795  0.46314434  0.11076387
   0.00148144  0.51889289  0.44420712
   0.25047156  0.87924021  0.61087440
   0.00060889  0.66660452  0.00006149
   0.75069806  0.62021065  0.72233480
   0.49987171  0.72231701  0.33325182
   0.24977592  0.95337616  0.72199144
   0.99984612  0.40807509  0.77767542
   0.00057451  0.44484722  0.66661100
   0.24951062  0.63913441  0.83334877
   0.74976410  0.21291290  0.61129903
   0.00123244  0.77750331  0.66680276
   0.24981463  0.82419287  0.27784403
   0.49921610  0.77812761  0.66633025
   0.50039648  0.74101011  0.77799443
   0.49961187  0.99884502  0.00021891
   0.50018019  0.07402668  0.77772340
   0.49998553  0.38865607  0.33350545
   0.00032032  0.92600454  0.22227429
   0.24911680  0.62062335  0.38926418
   0.49958214  0.66699700  0.00009507
   0.75027631  0.54711976  0.61084731
   0.75044206  0.87936447  0.61099475
   0.00020895  0.12951703  0.11061360
   0.24978244  0.97191868  0.83325628
   0.50091830  0.53741676  0.88966377
   0.99977438  0.87158037  0.88941009
   0.24996115  0.49034855  0.27775538
   0.49932172  0.64843571  0.55587069
   0.00061817  0.98157756  0.55566751
   0.50002708  0.44396409  0.66665681
   0.75033506  0.23121259  0.05532065
   0.50010698  0.18537233  0.44427652
   0.75008532  0.82402722  0.27786050
   0.75012042  0.15736873  0.27790973
   0.74989649  0.02762415  0.16653258
   0.99994881  0.53727745  0.88867763
   0.74858472  0.95469577  0.38906388
   0.50007465  0.86979331  0.88966719
   0.49984622  0.33398601 -0.00000369
   0.50027798  0.20382293  0.88896951
   0.00042892  0.72254939  0.33348072
   0.74923593  0.28680986  0.38925068
   0.49905075  0.85300343  0.44447564
   0.75047247  0.10189217  0.94446912
   0.75029444  0.95426852  0.72220794
   0.24955179  0.62022844  0.72185478
   0.24927061  0.95412154  0.38939874
   0.00048412  0.31485641  0.55580269
   0.49985817  0.12931005  0.11061963
   0.74950566  0.62025320  0.38906800
   0.74989740  0.76849183  0.94428070
   0.75022894  0.75022787  0.49988556
   0.24989517  0.30546280  0.83334685
   0.00073197  0.05531375  0.33333466
   0.50055529  0.59241390  0.22190244
   0.74981024  0.41642362  0.49995024
   0.50030633  0.40724060  0.77789267
   0.00030115  0.38875597  0.33332120
   0.25006595  0.36114717  0.16665612
   0.00045932  0.64811100  0.55571222
   0.74995897  0.49092435  0.27781883
   0.00340421  0.85211044  0.44434563
   0.99920445  0.20147064  0.88888404
   0.49981687  0.46351160  0.11086887
   0.25293316  0.08152060  0.49908951
   0.49758329  0.31346050  0.55567032
   0.25146827  0.28718787  0.72287056
   0.74988949  0.08315485  0.49997474
   0.99998007  0.00008007  0.99983094
   0.75036008  0.63922133  0.83372624
   0.75136949  0.28568544  0.72294310
   0.25013305  0.75122342  0.49987240
   0.25045806  0.76784644  0.94427967
   0.24927900  0.41521061  0.49938012
   0.00092896  0.33329209 -0.00001515
   0.99992977  0.79607067  0.11140284
   0.74872147  0.89922267  0.05572266
   0.50059382  0.05559727  0.33372471
   0.50088101  0.52019951  0.44397575
   0.74958925  0.30511949  0.83316675
   0.75005035  0.96949144  0.83347274
   0.00031881  0.59258040  0.22200915
   0.99868386  0.11022808  0.66706081
   0.74986852  0.56503242  0.05549465
   0.49967079  0.92561467  0.22224235
   0.74988295  0.36140548  0.16654068
   0.49572253  0.98256097  0.55527328
   0.25110623  0.89824592  0.05526028
   0.00126089  0.18486747  0.44428553
   0.25001601  0.02776995  0.16671494
   0.24836089  0.54928444  0.61062483
   0.25076309  0.21245480  0.61046069
   0.74754952  0.43557898  0.94455104
   0.25005873  0.56482815  0.05533770
   0.24941840  0.10178361  0.94484259
   0.25027455  0.69442612  0.16674575
   0.24944113  0.15831365  0.27778114
   0.99996294  0.73990786  0.77779238
   0.24935849  0.28631414  0.38959788
   0.99953975  0.07432735  0.77772838
   0.24980698  0.43552020  0.94487079
   0.74994366  0.69425696  0.16654203
   0.49965470  0.11209984  0.66649480
Direct configuration=    10
   0.49945717  0.25930319  0.22218330
   0.00070118  0.25910403  0.22229755
   0.24956005  0.23118446  0.05521498
   0.49996588  0.79602807  0.11064197
   0.00004795  0.46314434  0.11076172
   0.00148144  0.51889289  0.44419708
   0.25047156  0.87924021  0.61087148
   0.00060889  0.66660452  0.00005896
   0.75069806  0.62021065  0.72233594
   0.49987171  0.72231701  0.33325033
   0.24977592  0.95337616  0.72198674
   0.99984612  0.40807509  0.77767633
   0.00057451  0.44484722  0.66659084
   0.24951062  0.63913441  0.83335434
   0.74976410  0.21291290  0.61130589
   0.00123244  0.77750331  0.66678084
   0.24981463  0.82419287  0.27785811
   0.49921610  0.77812761  0.66632809
   0.50039648  0.74101011  0.77799523
   0.49961187  0.99884502  0.00021408
   0.50018019  0.07402668  0.77771680
   0.49998553  0.38865607  0.33350287
   0.00032032  0.92600454  0.22227506
   0.24911680  0.62062335  0.38925529
   0.49958214  0.66699700  0.00009564
   0.75027631  0.54711976  0.61084702
   0.75044206  0.87936447  0.61099267
   0.00020895  0.12951703  0.11062785
   0.24978244  0.97191868  0.83326419
   0.50091830  0.53741676  0.88965924
   0.99977438  0.87158037  0.88940765
   0.24996115  0.49034855  0.27776702
   0.49932172  0.64843571  0.55585596
   0.00061817  0.98157756  0.55566866
   0.50002708  0.44396409  0.66665191
   0.75033506  0.23121259  0.05536352
   0.50010698  0.18537233  0.44428793
   0.75008532  0.82402722  0.27785777
   0.75012042  0.15736873  0.27791159
   0.74989649  0.02762415  0.16652633
   0.99994881  0.53727745  0.88868998
   0.74858472  0.95469577  0.38905286
   0.50007465  0.86979331  0.88963568
   0.49984622  0.33398601 -0.00000782
   0.50027798  0.20382293  0.88896806
   0.00042892  0.72254939  0.33348365
   0.74923593  0.28680986  0.38922734
   0.49905075  0.85300343  0.44448817
   0.75047247  0.10189217  0.94444359
   0.75029444  0.95426852  0.72221525
   0.24955179  0.62022844  0.72186256
   0.24927061  0.95412154  0.38943136
   0.00048412  0.31485641  0.55581496
   0.49985817  0.12931005  0.11067978
   0.74950566  0.62025320  0.38904069
   0.74989740  0.76849183  0.94426029
   0.75022894  0.75022787  0.49987681
   0.24989517  0.30546280  0.83335096
   0.00073197  0.05531375  0.33332940
   0.50055529  0.59241390  0.22191158
   0.74981024  0.41642362  0.49996203
   0.50030633  0.40724060  0.77789363
   0.00030115  0.38875597  0.33332549
   0.25006595  0.36114717  0.16666037
   0.00045932  0.64811100  0.55570584
   0.74995897  0.49092435  0.27782336
   0.00340421  0.85211044  0.44434179
   0.99920445  0.20147064  0.88889309
   0.49981687  0.46351160  0.11085673
   0.25293316  0.08152060  0.49913317
   0.49758329  0.31346050  0.55567344
   0.25146827  0.28718787  0.72286348
   0.74988949  0.08315485  0.49996988
   0.99998007  0.00008007  0.99982813
   0.75036008  0.63922133  0.83372585
   0.75136949  0.28568544  0.72294482
   0.25013305  0.75122342  0.49987498
   0.25045806  0.76784644  0.94426679
   0.24927900  0.41521061  0.49941580
   0.00092896  0.33329209 -0.00002054
   0.99992977  0.79607067  0.11139720
   0.74872147  0.89922267  0.05573468
   0.50059382  0.05559727  0.33372471
   0.50088101  0.52019951  0.44396932
   0.74958925  0.30511949  0.83316641
   0.75005035  0.96949144  0.83346647
   0.00031881  0.59258040  0.22201400
   0.99868386  0.11022808  0.66706488
   0.74986852  0.56503242  0.05551081
   0.49967079  0.92561467  0.22224554
   0.74988295  0.36140548  0.16653591
   0.49572253  0.98256097  0.55527354
   0.25110623  0.89824592  0.05527594
   0.00126089  0.18486747  0.44428257
   0.25001601  0.02776995  0.16669489
   0.24836089  0.54928444  0.61063027
   0.25076309  0.21245480  0.61046095
   0.74754952  0.43557898  0.94453590
   0.25005873  0.56482815  0.05534630
   0.24941840  0.10178361  0.94482737
   0.25027455  0.69442612  0.16671132
   0.24944113  0.15831365  0.27778699
   0.99996294  0.73990786  0.77780784
   0.24935849  0.28631414  0.38958135
   0.99953975  0.07432735  0.77770955
   0.24980698  0.43552020  0.94486000
   0.74994366  0.69425696  0.16653439
   0.49965470  0.11209984  0.66651640
Direct configuration=    11
   0.49945717  0.25930319  0.22218386
   0.00070118  0.25910403  0.22229725
   0.24956005  0.23118446  0.05521842
   0.49996588  0.79602807  0.11063351
   0.00004795  0.46314434  0.11076064
   0.00148144  0.51889289  0.44419206
   0.25047156  0.87924021  0.61087003
   0.00060889  0.66660452  0.00005769
   0.75069806  0.62021065  0.72233651
   0.49987171  0.72231701  0.33324958
   0.24977592  0.95337616  0.72198439
   0.99984612  0.40807509  0.77767679
   0.00057451  0.44484722  0.66658076
   0.24951062  0.63913441  0.83335712
   0.74976410  0.21291290  0.61130933
   0.00123244  0.77750331  0.66676988
   0.24981463  0.82419287  0.27786515
   0.49921610  0.77812761  0.66632700
   0.50039648  0.74101011  0.77799563
   0.49961187  0.99884502  0.00021166
   0.50018019  0.07402668  0.77771350
   0.49998553  0.38865607  0.33350158
   0.00032032  0.92600454  0.22227545
   0.24911680  0.62062335  0.38925084
   0.49958214  0.66699700  0.00009592
   0.75027631  0.54711976  0.61084687
   0.75044206  0.87936447  0.61099163
   0.00020895  0.12951703  0.11063497
   0.24978244  0.97191868  0.83326814
   0.50091830  0.53741676  0.88965697
   0.99977438  0.87158037  0.88940643
   0.24996115  0.49034855  0.27777283
   0.49932172  0.64843571  0.55584860
   0.00061817  0.98157756  0.55566923
   0.50002708  0.44396409  0.66664947
   0.75033506  0.23121259  0.05538496
   0.50010698  0.18537233  0.44429364
   0.75008532  0.82402722  0.27785640
   0.75012042  0.15736873  0.27791253
   0.74989649  0.02762415  0.16652321
   0.99994881  0.53727745  0.88869615
   0.74858472  0.95469577  0.38904735
   0.50007465  0.86979331  0.88961993
   0.49984622  0.33398601 -0.00000988
   0.50027798  0.20382293  0.88896734
   0.00042892  0.72254939  0.33348512
   0.74923593  0.28680986  0.38921566
   0.49905075  0.85300343  0.44449444
   0.75047247  0.10189217  0.94443083
   0.75029444  0.95426852  0.72221891
   0.24955179  0.62022844  0.72186645
   0.24927061  0.95412154  0.38944767
   0.00048412  0.31485641  0.55582110
   0.49985817  0.12931005  0.11070985
   0.74950566  0.62025320  0.38902703
   0.74989740  0.76849183  0.94425009
   0.75022894  0.75022787  0.49987243
   0.24989517  0.30546280  0.83335301
   0.00073197  0.05531375  0.33332677
   0.50055529  0.59241390  0.22191615
   0.74981024  0.41642362  0.49996792
   0.50030633  0.40724060  0.77789410
   0.00030115  0.38875597  0.33332763
   0.25006595  0.36114717  0.16666249
   0.00045932  0.64811100  0.55570265
   0.74995897  0.49092435  0.27782563
   0.00340421  0.85211044  0.44433987
   0.99920445  0.20147064  0.88889761
   0.49981687  0.46351160  0.11085065
   0.25293316  0.08152060  0.49915500
   0.49758329  0.31346050  0.55567500
   0.25146827  0.28718787  0.72285993
   0.74988949  0.08315485  0.49996745
   0.99998007  0.00008007  0.99982673
   0.75036008  0.63922133  0.83372565
   0.75136949  0.28568544  0.72294568
   0.25013305  0.75122342  0.49987627
   0.25045806  0.76784644  0.94426035
   0.24927900  0.41521061  0.49943364
   0.00092896  0.33329209 -0.00002324
   0.99992977  0.79607067  0.11139437
   0.74872147  0.89922267  0.05574069
   0.50059382  0.05559727  0.33372472
   0.50088101  0.52019951  0.44396610
   0.74958925  0.30511949  0.83316623
   0.75005035  0.96949144  0.83346333
   0.00031881  0.59258040  0.22201642
   0.99868386  0.11022808  0.66706691
   0.74986852  0.56503242  0.05551890
   0.49967079  0.92561467  0.22224713
   0.74988295  0.36140548  0.16653352
   0.49572253  0.98256097  0.55527367
   0.25110623  0.89824592  0.05528377
   0.00126089  0.18486747  0.44428110
   0.25001601  0.02776995  0.16668486
   0.24836089  0.54928444  0.61063299
   0.25076309  0.21245480  0.61046107
   0.74754952  0.43557898  0.94452833
   0.25005873  0.56482815  0.05535060
   0.24941840  0.10178361  0.94481976
   0.25027455  0.69442612  0.16669410
   0.24944113  0.15831365  0.27778991
   0.99996294  0.73990786  0.77781557
   0.24935849  0.28631414  0.38957309
   0.99953975  0.07432735  0.77770014
   0.24980698  0.43552020  0.94485461
   0.74994366  0.69425696  0.16653057
   0.49965470  0.11209984  0.66652719
Direct configuration=    12
   0.49945717  0.25930319  0.22218413
   0.00070118  0.25910403  0.22229710
   0.24956005  0.23118446  0.05522015
   0.49996588  0.79602807  0.11062928
   0.00004795  0.46314434  0.11076010
   0.00148144  0.51889289  0.44418955
   0.25047156  0.87924021  0.61086930
   0.00060889  0.66660452  0.00005705
   0.75069806  0.62021065  0.72233680
   0.49987171  0.72231701  0.33324920
   0.24977592  0.95337616  0.72198321
   0.99984612  0.40807509  0.77767702
   0.00057451  0.44484722  0.66657572
   0.24951062  0.63913441  0.83335851
   0.74976410  0.21291290  0.61131104
   0.00123244  0.77750331  0.66676440
   0.24981463  0.82419287  0.27786867
   0.49921610  0.77812761  0.66632646
   0.50039648  0.74101011  0.77799583
   0.49961187  0.99884502  0.00021046
   0.50018019  0.07402668  0.77771185
   0.49998553  0.38865607  0.33350093
   0.00032032  0.92600454  0.22227564
   0.24911680  0.62062335  0.38924862
   0.49958214  0.66699700  0.00009607
   0.75027631  0.54711976  0.61084680
   0.75044206  0.87936447  0.61099111
   0.00020895  0.12951703  0.11063853
   0.24978244  0.97191868  0.83327012
   0.50091830  0.53741676  0.88965584
   0.99977438  0.87158037  0.88940582
   0.24996115  0.49034855  0.27777574
   0.49932172  0.64843571  0.55584492
   0.00061817  0.98157756  0.55566952
   0.50002708  0.44396409  0.66664824
   0.75033506  0.23121259  0.05539568
   0.50010698  0.18537233  0.44429649
   0.75008532  0.82402722  0.27785572
   0.75012042  0.15736873  0.27791300
   0.74989649  0.02762415  0.16652165
   0.99994881  0.53727745  0.88869924
   0.74858472  0.95469577  0.38904460
   0.50007465  0.86979331  0.88961206
   0.49984622  0.33398601 -0.00001091
   0.50027798  0.20382293  0.88896698
   0.00042892  0.72254939  0.33348585
   0.74923593  0.28680986  0.38920983
   0.49905075  0.85300343  0.44449757
   0.75047247  0.10189217  0.94442445
   0.75029444  0.95426852  0.72222073
   0.24955179  0.62022844  0.72186840
   0.24927061  0.95412154  0.38945583
   0.00048412  0.31485641  0.55582417
   0.49985817  0.12931005  0.11072489
   0.74950566  0.62025320  0.38902021
   0.74989740  0.76849183  0.94424499
   0.75022894  0.75022787  0.49987025
   0.24989517  0.30546280  0.83335404
   0.00073197  0.05531375  0.33332545
   0.50055529  0.59241390  0.22191843
   0.74981024  0.41642362  0.49997087
   0.50030633  0.40724060  0.77789434
   0.00030115  0.38875597  0.33332871
   0.25006595  0.36114717  0.16666355
   0.00045932  0.64811100  0.55570106
   0.74995897  0.49092435  0.27782677
   0.00340421  0.85211044  0.44433891
   0.99920445  0.20147064  0.88889987
   0.49981687  0.46351160  0.11084762
   0.25293316  0.08152060  0.49916591
   0.49758329  0.31346050  0.55567578
   0.25146827  0.28718787  0.72285816
   0.74988949  0.08315485  0.49996624
   0.99998007  0.00008007  0.99982602
   0.75036008  0.63922133  0.83372555
   0.75136949  0.28568544  0.72294611
   0.25013305  0.75122342  0.49987692
   0.25045806  0.76784644  0.94425713
   0.24927900  0.41521061  0.49944256
   0.00092896  0.33329209 -0.00002459
   0.99992977  0.79607067  0.11139296
   0.74872147  0.89922267  0.05574370
   0.50059382  0.05559727  0.33372472
   0.50088101  0.52019951  0.44396449
   0.74958925  0.30511949  0.83316614
   0.75005035  0.96949144  0.83346176
   0.00031881  0.59258040  0.22201764
   0.99868386  0.11022808  0.66706792
   0.74986852  0.56503242  0.05552294
   0.49967079  0.92561467  0.22224793
   0.74988295  0.36140548  0.16653233
   0.49572253  0.98256097  0.55527373
   0.25110623  0.89824592  0.05528768
   0.00126089  0.18486747  0.44428036
   0.25001601  0.02776995  0.16667985
   0.24836089  0.54928444  0.61063435
   0.25076309  0.21245480  0.61046114
   0.74754952  0.43557898  0.94452455
   0.25005873  0.56482815  0.05535275
   0.24941840  0.10178361  0.94481595
   0.25027455  0.69442612  0.16668549
   0.24944113  0.15831365  0.27779137
   0.99996294  0.73990786  0.77781944
   0.24935849  0.28631414  0.38956896
   0.99953975  0.07432735  0.77769543
   0.24980698  0.43552020  0.94485192
   0.74994366  0.69425696  0.16652866
   0.49965470  0.11209984  0.66653259
Direct configuration=    13
   0.49945717  0.25930319  0.22218427
   0.00070118  0.25910403  0.22229703
   0.24956005  0.23118446  0.05522101
   0.49996588  0.79602807  0.11062716
   0.00004795  0.46314434  0.11075983
   0.00148144  0.51889289  0.44418830
   0.25047156  0.87924021  0.61086893
   0.00060889  0.66660452  0.00005673
   0.75069806  0.62021065  0.72233694
   0.49987171  0.72231701  0.33324902
   0.24977592  0.95337616  0.72198263
   0.99984612  0.40807509  0.77767713
   0.00057451  0.44484722  0.66657320
   0.24951062  0.63913441  0.83335921
   0.74976410  0.21291290  0.61131190
   0.00123244  0.77750331  0.66676166
   0.24981463  0.82419287  0.27787043
   0.49921610  0.77812761  0.66632619
   0.50039648  0.74101011  0.77799593
   0.49961187  0.99884502  0.00020985
   0.50018019  0.07402668  0.77771103
   0.49998553  0.38865607  0.33350061
   0.00032032  0.92600454  0.22227574
   0.24911680  0.62062335  0.38924751
   0.49958214  0.66699700  0.00009614
   0.75027631  0.54711976  0.61084676
   0.75044206  0.87936447  0.61099085
   0.00020895  0.12951703  0.11064031
   0.24978244  0.97191868  0.83327111
   0.50091830  0.53741676  0.88965527
   0.99977438  0.87158037  0.88940551
   0.24996115  0.49034855  0.27777720
   0.49932172  0.64843571  0.55584307
   0.00061817  0.98157756  0.55566966
   0.50002708  0.44396409  0.66664763
   0.75033506  0.23121259  0.05540104
   0.50010698  0.18537233  0.44429792
   0.75008532  0.82402722  0.27785538
   0.75012042  0.15736873  0.27791323
   0.74989649  0.02762415  0.16652087
   0.99994881  0.53727745  0.88870078
   0.74858472  0.95469577  0.38904322
   0.50007465  0.86979331  0.88960812
   0.49984622  0.33398601 -0.00001143
   0.50027798  0.20382293  0.88896680
   0.00042892  0.72254939  0.33348622
   0.74923593  0.28680986  0.38920691
   0.49905075  0.85300343  0.44449914
   0.75047247  0.10189217  0.94442126
   0.75029444  0.95426852  0.72222165
   0.24955179  0.62022844  0.72186937
   0.24927061  0.95412154  0.38945991
   0.00048412  0.31485641  0.55582570
   0.49985817  0.12931005  0.11073240
   0.74950566  0.62025320  0.38901679
   0.74989740  0.76849183  0.94424244
   0.75022894  0.75022787  0.49986915
   0.24989517  0.30546280  0.83335455
   0.00073197  0.05531375  0.33332480
   0.50055529  0.59241390  0.22191958
   0.74981024  0.41642362  0.49997235
   0.50030633  0.40724060  0.77789446
   0.00030115  0.38875597  0.33332924
   0.25006595  0.36114717  0.16666408
   0.00045932  0.64811100  0.55570026
   0.74995897  0.49092435  0.27782733
   0.00340421  0.85211044  0.44433843
   0.99920445  0.20147064  0.88890100
   0.49981687  0.46351160  0.11084610
   0.25293316  0.08152060  0.49917137
   0.49758329  0.31346050  0.55567617
   0.25146827  0.28718787  0.72285728
   0.74988949  0.08315485  0.49996563
   0.99998007  0.00008007  0.99982567
   0.75036008  0.63922133  0.83372550
   0.75136949  0.28568544  0.72294633
   0.25013305  0.75122342  0.49987724
   0.25045806  0.76784644  0.94425552
   0.24927900  0.41521061  0.49944702
   0.00092896  0.33329209 -0.00002526
   0.99992977  0.79607067  0.11139226
   0.74872147  0.89922267  0.05574520
   0.50059382  0.05559727  0.33372472
   0.50088101  0.52019951  0.44396369
   0.74958925  0.30511949  0.83316610
   0.75005035  0.96949144  0.83346097
   0.00031881  0.59258040  0.22201824
   0.99868386  0.11022808  0.66706843
   0.74986852  0.56503242  0.05552496
   0.49967079  0.92561467  0.22224833
   0.74988295  0.36140548  0.16653173
   0.49572253  0.98256097  0.55527377
   0.25110623  0.89824592  0.05528964
   0.00126089  0.18486747  0.44427999
   0.25001601  0.02776995  0.16667734
   0.24836089  0.54928444  0.61063503
   0.25076309  0.21245480  0.61046117
   0.74754952  0.43557898  0.94452265
   0.25005873  0.56482815  0.05535382
   0.24941840  0.10178361  0.94481405
   0.25027455  0.69442612  0.16668119
   0.24944113  0.15831365  0.27779211
   0.99996294  0.73990786  0.77782137
   0.24935849  0.28631414  0.38956689
   0.99953975  0.07432735  0.77769308
   0.24980698  0.43552020  0.94485057
   0.74994366  0.69425696  0.16652770
   0.49965470  0.11209984  0.66653529
Direct configuration=    14
   0.49945717  0.25930319  0.22218434
   0.00070118  0.25910403  0.22229699
   0.24956005  0.23118446  0.05522144
   0.49996588  0.79602807  0.11062611
   0.00004795  0.46314434  0.11075970
   0.00148144  0.51889289  0.44418767
   0.25047156  0.87924021  0.61086875
   0.00060889  0.66660452  0.00005657
   0.75069806  0.62021065  0.72233701
   0.49987171  0.72231701  0.33324892
   0.24977592  0.95337616  0.72198233
   0.99984612  0.40807509  0.77767719
   0.00057451  0.44484722  0.66657194
   0.24951062  0.63913441  0.83335956
   0.74976410  0.21291290  0.61131233
   0.00123244  0.77750331  0.66676029
   0.24981463  0.82419287  0.27787131
   0.49921610  0.77812761  0.66632605
   0.50039648  0.74101011  0.77799598
   0.49961187  0.99884502  0.00020955
   0.50018019  0.07402668  0.77771062
   0.49998553  0.38865607  0.33350045
   0.00032032  0.92600454  0.22227578
   0.24911680  0.62062335  0.38924695
   0.49958214  0.66699700  0.00009617
   0.75027631  0.54711976  0.61084674
   0.75044206  0.87936447  0.61099072
   0.00020895  0.12951703  0.11064120
   0.24978244  0.97191868  0.83327160
   0.50091830  0.53741676  0.88965499
   0.99977438  0.87158037  0.88940536
   0.24996115  0.49034855  0.27777792
   0.49932172  0.64843571  0.55584215
   0.00061817  0.98157756  0.55566973
   0.50002708  0.44396409  0.66664733
   0.75033506  0.23121259  0.05540372
   0.50010698  0.18537233  0.44429863
   0.75008532  0.82402722  0.27785521
   0.75012042  0.15736873  0.27791335
   0.74989649  0.02762415  0.16652048
   0.99994881  0.53727745  0.88870155
   0.74858472  0.95469577  0.38904253
   0.50007465  0.86979331  0.88960615
   0.49984622  0.33398601 -0.00001169
   0.50027798  0.20382293  0.88896671
   0.00042892  0.72254939  0.33348640
   0.74923593  0.28680986  0.38920545
   0.49905075  0.85300343  0.44449992
   0.75047247  0.10189217  0.94441967
   0.75029444  0.95426852  0.72222210
   0.24955179  0.62022844  0.72186986
   0.24927061  0.95412154  0.38946195
   0.00048412  0.31485641  0.55582647
   0.49985817  0.12931005  0.11073616
   0.74950566  0.62025320  0.38901508
   0.74989740  0.76849183  0.94424117
   0.75022894  0.75022787  0.49986860
   0.24989517  0.30546280  0.83335481
   0.00073197  0.05531375  0.33332447
   0.50055529  0.59241390  0.22192015
   0.74981024  0.41642362  0.49997308
   0.50030633  0.40724060  0.77789452
   0.00030115  0.38875597  0.33332951
   0.25006595  0.36114717  0.16666435
   0.00045932  0.64811100  0.55569986
   0.74995897  0.49092435  0.27782762
   0.00340421  0.85211044  0.44433819
   0.99920445  0.20147064  0.88890157
   0.49981687  0.46351160  0.11084534
   0.25293316  0.08152060  0.49917410
   0.49758329  0.31346050  0.55567636
   0.25146827  0.28718787  0.72285683
   0.74988949  0.08315485  0.49996533
   0.99998007  0.00008007  0.99982550
   0.75036008  0.63922133  0.83372548
   0.75136949  0.28568544  0.72294644
   0.25013305  0.75122342  0.49987740
   0.25045806  0.76784644  0.94425471
   0.24927900  0.41521061  0.49944925
   0.00092896  0.33329209 -0.00002560
   0.99992977  0.79607067  0.11139191
   0.74872147  0.89922267  0.05574595
   0.50059382  0.05559727  0.33372472
   0.50088101  0.52019951  0.44396329
   0.74958925  0.30511949  0.83316608
   0.75005035  0.96949144  0.83346058
   0.00031881  0.59258040  0.22201855
   0.99868386  0.11022808  0.66706869
   0.74986852  0.56503242  0.05552597
   0.49967079  0.92561467  0.22224853
   0.74988295  0.36140548  0.16653143
   0.49572253  0.98256097  0.55527378
   0.25110623  0.89824592  0.05529061
   0.00126089  0.18486747  0.44427980
   0.25001601  0.02776995  0.16667609
   0.24836089  0.54928444  0.61063537
   0.25076309  0.21245480  0.61046118
   0.74754952  0.43557898  0.94452171
   0.25005873  0.56482815  0.05535436
   0.24941840  0.10178361  0.94481310
   0.25027455  0.69442612  0.16667904
   0.24944113  0.15831365  0.27779247
   0.99996294  0.73990786  0.77782234
   0.24935849  0.28631414  0.38956586
   0.99953975  0.07432735  0.77769190
   0.24980698  0.43552020  0.94484990
   0.74994366  0.69425696  0.16652722
   0.49965470  0.11209984  0.66653664
Direct configuration=    15
   0.49945717  0.25930319  0.22218438
   0.00070118  0.25910403  0.22229697
   0.24956005  0.23118446  0.05522165
   0.49996588  0.79602807  0.11062558
   0.00004795  0.46314434  0.11075963
   0.00148144  0.51889289  0.44418736
   0.25047156  0.87924021  0.61086866
   0.00060889  0.66660452  0.00005650
   0.75069806  0.62021065  0.72233705
   0.49987171  0.72231701  0.33324888
   0.24977592  0.95337616  0.72198219
   0.99984612  0.40807509  0.77767722
   0.00057451  0.44484722  0.66657131
   0.24951062  0.63913441  0.83335973
   0.74976410  0.21291290  0.61131254
   0.00123244  0.77750331  0.66675961
   0.24981463  0.82419287  0.27787175
   0.49921610  0.77812761  0.66632599
   0.50039648  0.74101011  0.77799600
   0.49961187  0.99884502  0.00020940
   0.50018019  0.07402668  0.77771041
   0.49998553  0.38865607  0.33350037
   0.00032032  0.92600454  0.22227581
   0.24911680  0.62062335  0.38924667
   0.49958214  0.66699700  0.00009619
   0.75027631  0.54711976  0.61084673
   0.75044206  0.87936447  0.61099065
   0.00020895  0.12951703  0.11064165
   0.24978244  0.97191868  0.83327185
   0.50091830  0.53741676  0.88965485
   0.99977438  0.87158037  0.88940528
   0.24996115  0.49034855  0.27777829
   0.49932172  0.64843571  0.55584169
   0.00061817  0.98157756  0.55566977
   0.50002708  0.44396409  0.66664717
   0.75033506  0.23121259  0.05540506
   0.50010698  0.18537233  0.44429899
   0.75008532  0.82402722  0.27785512
   0.75012042  0.15736873  0.27791341
   0.74989649  0.02762415  0.16652029
   0.99994881  0.53727745  0.88870194
   0.74858472  0.95469577  0.38904218
   0.50007465  0.86979331  0.88960517
   0.49984622  0.33398601 -0.00001182
   0.50027798  0.20382293  0.88896666
   0.00042892  0.72254939  0.33348649
   0.74923593  0.28680986  0.38920472
   0.49905075  0.85300343  0.44450032
   0.75047247  0.10189217  0.94441887
   0.75029444  0.95426852  0.72222233
   0.24955179  0.62022844  0.72187010
   0.24927061  0.95412154  0.38946297
   0.00048412  0.31485641  0.55582685
   0.49985817  0.12931005  0.11073804
   0.74950566  0.62025320  0.38901423
   0.74989740  0.76849183  0.94424053
   0.75022894  0.75022787  0.49986833
   0.24989517  0.30546280  0.83335494
   0.00073197  0.05531375  0.33332430
   0.50055529  0.59241390  0.22192043
   0.74981024  0.41642362  0.49997345
   0.50030633  0.40724060  0.77789455
   0.00030115  0.38875597  0.33332964
   0.25006595  0.36114717  0.16666448
   0.00045932  0.64811100  0.55569966
   0.74995897  0.49092435  0.27782776
   0.00340421  0.85211044  0.44433807
   0.99920445  0.20147064  0.88890185
   0.49981687  0.46351160  0.11084496
   0.25293316  0.08152060  0.49917546
   0.49758329  0.31346050  0.55567646
   0.25146827  0.28718787  0.72285661
   0.74988949  0.08315485  0.49996518
   0.99998007  0.00008007  0.99982541
   0.75036008  0.63922133  0.83372547
   0.75136949  0.28568544  0.72294649
   0.25013305  0.75122342  0.49987748
   0.25045806  0.76784644  0.94425431
   0.24927900  0.41521061  0.49945036
   0.00092896  0.33329209 -0.00002577
   0.99992977  0.79607067  0.11139173
   0.74872147  0.89922267  0.05574633
   0.50059382  0.05559727  0.33372472
   0.50088101  0.52019951  0.44396309
   0.74958925  0.30511949  0.83316607
   0.75005035  0.96949144  0.83346039
   0.00031881  0.59258040  0.22201870
   0.99868386  0.11022808  0.66706881
   0.74986852  0.56503242  0.05552647
   0.49967079  0.92561467  0.22224863
   0.74988295  0.36140548  0.16653129
   0.49572253  0.98256097  0.55527379
   0.25110623  0.89824592  0.05529110
   0.00126089  0.18486747  0.44427971
   0.25001601  0.02776995  0.16667547
   0.24836089  0.54928444  0.61063554
   0.25076309  0.21245480  0.61046119
   0.74754952  0.43557898  0.94452123
   0.25005873  0.56482815  0.05535463
   0.24941840  0.10178361  0.94481262
   0.25027455  0.69442612  0.16667796
   0.24944113  0.15831365  0.27779265
   0.99996294  0.73990786  0.77782282
   0.24935849  0.28631414  0.38956534
   0.99953975  0.07432735  0.77769131
   0.24980698  0.43552020  0.94484956
   0.74994366  0.69425696  0.16652698
   0.49965470  0.11209984  0.66653731
Direct configuration=    16
   0.49945717  0.25930319  0.22218440
   0.00070118  0.25910403  0.22229696
   0.24956005  0.23118446  0.05522176
   0.49996588  0.79602807  0.11062531
   0.00004795  0.46314434  0.11075960
   0.00148144  0.51889289  0.44418720
   0.25047156  0.87924021  0.61086861
   0.00060889  0.66660452  0.00005646
   0.75069806  0.62021065  0.72233706
   0.49987171  0.72231701  0.33324885
   0.24977592  0.95337616  0.72198211
   0.99984612  0.40807509  0.77767723
   0.00057451  0.44484722  0.66657100
   0.24951062  0.63913441  0.83335982
   0.74976410  0.21291290  0.61131265
   0.00123244  0.77750331  0.66675926
   0.24981463  0.82419287  0.27787197
   0.49921610  0.77812761  0.66632595
   0.50039648  0.74101011  0.77799601
   0.49961187  0.99884502  0.00020933
   0.50018019  0.07402668  0.77771031
   0.49998553  0.38865607  0.33350032
   0.00032032  0.92600454  0.22227582
   0.24911680  0.62062335  0.38924654
   0.49958214  0.66699700  0.00009620
   0.75027631  0.54711976  0.61084673
   0.75044206  0.87936447  0.61099062
   0.00020895  0.12951703  0.11064187
   0.24978244  0.97191868  0.83327197
   0.50091830  0.53741676  0.88965478
   0.99977438  0.87158037  0.88940524
   0.24996115  0.49034855  0.27777847
   0.49932172  0.64843571  0.55584146
   0.00061817  0.98157756  0.55566979
   0.50002708  0.44396409  0.66664710
   0.75033506  0.23121259  0.05540573
   0.50010698  0.18537233  0.44429917
   0.75008532  0.82402722  0.27785508
   0.75012042  0.15736873  0.27791343
   0.74989649  0.02762415  0.16652019
   0.99994881  0.53727745  0.88870213
   0.74858472  0.95469577  0.38904201
   0.50007465  0.86979331  0.88960467
   0.49984622  0.33398601 -0.00001188
   0.50027798  0.20382293  0.88896664
   0.00042892  0.72254939  0.33348654
   0.74923593  0.28680986  0.38920435
   0.49905075  0.85300343  0.44450051
   0.75047247  0.10189217  0.94441847
   0.75029444  0.95426852  0.72222245
   0.24955179  0.62022844  0.72187022
   0.24927061  0.95412154  0.38946348
   0.00048412  0.31485641  0.55582704
   0.49985817  0.12931005  0.11073898
   0.74950566  0.62025320  0.38901380
   0.74989740  0.76849183  0.94424021
   0.75022894  0.75022787  0.49986819
   0.24989517  0.30546280  0.83335500
   0.00073197  0.05531375  0.33332422
   0.50055529  0.59241390  0.22192058
   0.74981024  0.41642362  0.49997363
   0.50030633  0.40724060  0.77789457
   0.00030115  0.38875597  0.33332971
   0.25006595  0.36114717  0.16666455
   0.00045932  0.64811100  0.55569956
   0.74995897  0.49092435  0.27782783
   0.00340421  0.85211044  0.44433801
   0.99920445  0.20147064  0.88890199
   0.49981687  0.46351160  0.11084477
   0.25293316  0.08152060  0.49917614
   0.49758329  0.31346050  0.55567651
   0.25146827  0.28718787  0.72285650
   0.74988949  0.08315485  0.49996510
   0.99998007  0.00008007  0.99982537
   0.75036008  0.63922133  0.83372546
   0.75136949  0.28568544  0.72294652
   0.25013305  0.75122342  0.49987752
   0.25045806  0.76784644  0.94425411
   0.24927900  0.41521061  0.49945092
   0.00092896  0.33329209 -0.00002585
   0.99992977  0.79607067  0.11139164
   0.74872147  0.89922267  0.05574651
   0.50059382  0.05559727  0.33372472
   0.50088101  0.52019951  0.44396299
   0.74958925  0.30511949  0.83316606
   0.75005035  0.96949144  0.83346029
   0.00031881  0.59258040  0.22201877
   0.99868386  0.11022808  0.66706888
   0.74986852  0.56503242  0.05552673
   0.49967079  0.92561467  0.22224868
   0.74988295  0.36140548  0.16653121
   0.49572253  0.98256097  0.55527380
   0.25110623  0.89824592  0.05529135
   0.00126089  0.18486747  0.44427966
   0.25001601  0.02776995  0.16667515
   0.24836089  0.54928444  0.61063562
   0.25076309  0.21245480  0.61046120
   0.74754952  0.43557898  0.94452100
   0.25005873  0.56482815  0.05535476
   0.24941840  0.10178361  0.94481238
   0.25027455  0.69442612  0.16667742
   0.24944113  0.15831365  0.27779275
   0.99996294  0.73990786  0.77782306
   0.24935849  0.28631414  0.38956508
   0.99953975  0.07432735  0.77769102
   0.24980698  0.43552020  0.94484939
   0.74994366  0.69425696  0.16652686
   0.49965470  0.11209984  0.66653765
Direct configuration=    17
   0.49945717  0.25930319  0.22218440
   0.00070118  0.25910403  0.22229696
   0.24956005  0.23118446  0.05522181
   0.49996588  0.79602807  0.11062518
   0.00004795  0.46314434  0.11075958
   0.00148144  0.51889289  0.44418712
   0.25047156  0.87924021  0.61086859
   0.00060889  0.66660452  0.00005644
   0.75069806  0.62021065  0.72233707
   0.49987171  0.72231701  0.33324884
   0.24977592  0.95337616  0.72198208
   0.99984612  0.40807509  0.77767724
   0.00057451  0.44484722  0.66657084
   0.24951062  0.63913441  0.83335986
   0.74976410  0.21291290  0.61131271
   0.00123244  0.77750331  0.66675909
   0.24981463  0.82419287  0.27787208
   0.49921610  0.77812761  0.66632593
   0.50039648  0.74101011  0.77799602
   0.49961187  0.99884502  0.00020929
   0.50018019  0.07402668  0.77771026
   0.49998553  0.38865607  0.33350030
   0.00032032  0.92600454  0.22227583
   0.24911680  0.62062335  0.38924647
   0.49958214  0.66699700  0.00009620
   0.75027631  0.54711976  0.61084672
   0.75044206  0.87936447  0.61099060
   0.00020895  0.12951703  0.11064198
   0.24978244  0.97191868  0.83327204
   0.50091830  0.53741676  0.88965474
   0.99977438  0.87158037  0.88940523
   0.24996115  0.49034855  0.27777856
   0.49932172  0.64843571  0.55584135
   0.00061817  0.98157756  0.55566980
   0.50002708  0.44396409  0.66664706
   0.75033506  0.23121259  0.05540607
   0.50010698  0.18537233  0.44429925
   0.75008532  0.82402722  0.27785506
   0.75012042  0.15736873  0.27791345
   0.74989649  0.02762415  0.16652014
   0.99994881  0.53727745  0.88870223
   0.74858472  0.95469577  0.38904193
   0.50007465  0.86979331  0.88960443
   0.49984622  0.33398601 -0.00001191
   0.50027798  0.20382293  0.88896663
   0.00042892  0.72254939  0.33348656
   0.74923593  0.28680986  0.38920417
   0.49905075  0.85300343  0.44450061
   0.75047247  0.10189217  0.94441827
   0.75029444  0.95426852  0.72222250
   0.24955179  0.62022844  0.72187028
   0.24927061  0.95412154  0.38946373
   0.00048412  0.31485641  0.55582714
   0.49985817  0.12931005  0.11073945
   0.74950566  0.62025320  0.38901359
   0.74989740  0.76849183  0.94424005
   0.75022894  0.75022787  0.49986813
   0.24989517  0.30546280  0.83335504
   0.00073197  0.05531375  0.33332418
   0.50055529  0.59241390  0.22192065
   0.74981024  0.41642362  0.49997373
   0.50030633  0.40724060  0.77789457
   0.00030115  0.38875597  0.33332974
   0.25006595  0.36114717  0.16666458
   0.00045932  0.64811100  0.55569951
   0.74995897  0.49092435  0.27782787
   0.00340421  0.85211044  0.44433798
   0.99920445  0.20147064  0.88890207
   0.49981687  0.46351160  0.11084468
   0.25293316  0.08152060  0.49917648
   0.49758329  0.31346050  0.55567653
   0.25146827  0.28718787  0.72285645
   0.74988949  0.08315485  0.49996506
   0.99998007  0.00008007  0.99982534
   0.75036008  0.63922133  0.83372546
   0.75136949  0.28568544  0.72294653
   0.25013305  0.75122342  0.49987754
   0.25045806  0.76784644  0.94425401
   0.24927900  0.41521061  0.49945120
   0.00092896  0.33329209 -0.00002589
   0.99992977  0.79607067  0.11139160
   0.74872147  0.89922267  0.05574661
   0.50059382  0.05559727  0.33372472
   0.50088101  0.52019951  0.44396293
   0.74958925  0.30511949  0.83316606
   0.75005035  0.96949144  0.83346024
   0.00031881  0.59258040  0.22201881
   0.99868386  0.11022808  0.66706891
   0.74986852  0.56503242  0.05552685
   0.49967079  0.92561467  0.22224870
   0.74988295  0.36140548  0.16653117
   0.49572253  0.98256097  0.55527380
   0.25110623  0.89824592  0.05529147
   0.00126089  0.18486747  0.44427964
   0.25001601  0.02776995  0.16667500
   0.24836089  0.54928444  0.61063567
   0.25076309  0.21245480  0.61046120
   0.74754952  0.43557898  0.94452088
   0.25005873  0.56482815  0.05535483
   0.24941840  0.10178361  0.94481226
   0.25027455  0.69442612  0.16667716
   0.24944113  0.15831365  0.27779279
   0.99996294  0.73990786  0.77782319
   0.24935849  0.28631414  0.38956495
   0.99953975  0.07432735  0.77769087
   0.24980698  0.43552020  0.94484931
   0.74994366  0.69425696  0.16652680
   0.49965470  0.11209984  0.66653782
Direct configuration=    18
   0.49945717  0.25930319  0.22218441
   0.00070118  0.25910403  0.22229696
   0.24956005  0.23118446  0.05522184
   0.49996588  0.79602807  0.11062511
   0.00004795  0.46314434  0.11075957
   0.00148144  0.51889289  0.44418708
   0.25047156  0.87924021  0.61086858
   0.00060889  0.66660452  0.00005643
   0.75069806  0.62021065  0.72233708
   0.49987171  0.72231701  0.33324883
   0.24977592  0.95337616  0.72198206
   0.99984612  0.40807509  0.77767724
   0.00057451  0.44484722  0.66657076
   0.24951062  0.63913441  0.83335988
   0.74976410  0.21291290  0.61131273
   0.00123244  0.77750331  0.66675901
   0.24981463  0.82419287  0.27787213
   0.49921610  0.77812761  0.66632593
   0.50039648  0.74101011  0.77799602
   0.49961187  0.99884502  0.00020927
   0.50018019  0.07402668  0.77771023
   0.49998553  0.38865607  0.33350029
   0.00032032  0.92600454  0.22227583
   0.24911680  0.62062335  0.38924643
   0.49958214  0.66699700  0.00009621
   0.75027631  0.54711976  0.61084672
   0.75044206  0.87936447  0.61099059
   0.00020895  0.12951703  0.11064204
   0.24978244  0.97191868  0.83327207
   0.50091830  0.53741676  0.88965472
   0.99977438  0.87158037  0.88940522
   0.24996115  0.49034855  0.27777861
   0.49932172  0.64843571  0.55584129
   0.00061817  0.98157756  0.55566980
   0.50002708  0.44396409  0.66664704
   0.75033506  0.23121259  0.05540623
   0.50010698  0.18537233  0.44429930
   0.75008532  0.82402722  0.27785505
   0.75012042  0.15736873  0.27791346
   0.74989649  0.02762415  0.16652012
   0.99994881  0.53727745  0.88870228
   0.74858472  0.95469577  0.38904188
   0.50007465  0.86979331  0.88960430
   0.49984622  0.33398601 -0.00001193
   0.50027798  0.20382293  0.88896662
   0.00042892  0.72254939  0.33348657
   0.74923593  0.28680986  0.38920408
   0.49905075  0.85300343  0.44450066
   0.75047247  0.10189217  0.94441817
   0.75029444  0.95426852  0.72222253
   0.24955179  0.62022844  0.72187031
   0.24927061  0.95412154  0.38946386
   0.00048412  0.31485641  0.55582719
   0.49985817  0.12931005  0.11073969
   0.74950566  0.62025320  0.38901348
   0.74989740  0.76849183  0.94423997
   0.75022894  0.75022787  0.49986809
   0.24989517  0.30546280  0.83335505
   0.00073197  0.05531375  0.33332416
   0.50055529  0.59241390  0.22192068
   0.74981024  0.41642362  0.49997377
   0.50030633  0.40724060  0.77789458
   0.00030115  0.38875597  0.33332976
   0.25006595  0.36114717  0.16666460
   0.00045932  0.64811100  0.55569949
   0.74995897  0.49092435  0.27782788
   0.00340421  0.85211044  0.44433797
   0.99920445  0.20147064  0.88890210
   0.49981687  0.46351160  0.11084463
   0.25293316  0.08152060  0.49917665
   0.49758329  0.31346050  0.55567654
   0.25146827  0.28718787  0.72285642
   0.74988949  0.08315485  0.49996504
   0.99998007  0.00008007  0.99982533
   0.75036008  0.63922133  0.83372546
   0.75136949  0.28568544  0.72294654
   0.25013305  0.75122342  0.49987755
   0.25045806  0.76784644  0.94425396
   0.24927900  0.41521061  0.49945134
   0.00092896  0.33329209 -0.00002591
   0.99992977  0.79607067  0.11139157
   0.74872147  0.89922267  0.05574665
   0.50059382  0.05559727  0.33372472
   0.50088101  0.52019951  0.44396291
   0.74958925  0.30511949  0.83316606
   0.75005035  0.96949144  0.83346021
   0.00031881  0.59258040  0.22201883
   0.99868386  0.11022808  0.66706892
   0.74986852  0.56503242  0.05552692
   0.49967079  0.92561467  0.22224872
   0.74988295  0.36140548  0.16653115
   0.49572253  0.98256097  0.55527380
   0.25110623  0.89824592  0.05529153
   0.00126089  0.18486747  0.44427963
   0.25001601  0.02776995  0.16667492
   0.24836089  0.54928444  0.61063569
   0.25076309  0.21245480  0.61046120
   0.74754952  0.43557898  0.94452082
   0.25005873  0.56482815  0.05535486
   0.24941840  0.10178361  0.94481220
   0.25027455  0.69442612  0.16667702
   0.24944113  0.15831365  0.27779281
   0.99996294  0.73990786  0.77782325
   0.24935849  0.28631414  0.38956489
   0.99953975  0.07432735  0.77769080
   0.24980698  0.43552020  0.94484926
   0.74994366  0.69425696  0.16652678
   0.49965470  0.11209984  0.66653790
Direct configuration=    19
   0.49945717  0.25930319  0.22218441
   0.00070118  0.25910403  0.22229696
   0.24956005  0.23118446  0.05522185
   0.49996588  0.79602807  0.11062508
   0.00004795  0.46314434  0.11075957
   0.00148144  0.51889289  0.44418706
   0.25047156  0.87924021  0.61086857
   0.00060889  0.66660452  0.00005642
   0.75069806  0.62021065  0.72233708
   0.49987171  0.72231701  0.33324883
   0.24977592  0.95337616  0.72198205
   0.99984612  0.40807509  0.77767724
   0.00057451  0.44484722  0.66657072
   0.24951062  0.63913441  0.83335989
   0.74976410  0.21291290  0.61131275
   0.00123244  0.77750331  0.66675896
   0.24981463  0.82419287  0.27787216
   0.49921610  0.77812761  0.66632592
   0.50039648  0.74101011  0.77799602
   0.49961187  0.99884502  0.00020926
   0.50018019  0.07402668  0.77771022
   0.49998553  0.38865607  0.33350029
   0.00032032  0.92600454  0.22227583
   0.24911680  0.62062335  0.38924641
   0.49958214  0.66699700  0.00009621
   0.75027631  0.54711976  0.61084672
   0.75044206  0.87936447  0.61099059
   0.00020895  0.12951703  0.11064207
   0.24978244  0.97191868  0.83327208
   0.50091830  0.53741676  0.88965472
   0.99977438  0.87158037  0.88940521
   0.24996115  0.49034855  0.27777863
   0.49932172  0.64843571  0.55584126
   0.00061817  0.98157756  0.55566980
   0.50002708  0.44396409  0.66664703
   0.75033506  0.23121259  0.05540632
   0.50010698  0.18537233  0.44429932
   0.75008532  0.82402722  0.27785504
   0.75012042  0.15736873  0.27791346
   0.74989649  0.02762415  0.16652010
   0.99994881  0.53727745  0.88870230
   0.74858472  0.95469577  0.38904186
   0.50007465  0.86979331  0.88960424
   0.49984622  0.33398601 -0.00001194
   0.50027798  0.20382293  0.88896662
   0.00042892  0.72254939  0.33348658
   0.74923593  0.28680986  0.38920403
   0.49905075  0.85300343  0.44450068
   0.75047247  0.10189217  0.94441812
   0.75029444  0.95426852  0.72222255
   0.24955179  0.62022844  0.72187033
   0.24927061  0.95412154  0.38946392
   0.00048412  0.31485641  0.55582721
   0.49985817  0.12931005  0.11073980
   0.74950566  0.62025320  0.38901343
   0.74989740  0.76849183  0.94423993
   0.75022894  0.75022787  0.49986807
   0.24989517  0.30546280  0.83335506
   0.00073197  0.05531375  0.33332415
   0.50055529  0.59241390  0.22192070
   0.74981024  0.41642362  0.49997380
   0.50030633  0.40724060  0.77789458
   0.00030115  0.38875597  0.33332977
   0.25006595  0.36114717  0.16666461
   0.00045932  0.64811100  0.55569947
   0.74995897  0.49092435  0.27782789
   0.00340421  0.85211044  0.44433796
   0.99920445  0.20147064  0.88890212
   0.49981687  0.46351160  0.11084460
   0.25293316  0.08152060  0.49917674
   0.49758329  0.31346050  0.55567655
   0.25146827  0.28718787  0.72285640
   0.74988949  0.08315485  0.49996504
   0.99998007  0.00008007  0.99982533
   0.75036008  0.63922133  0.83372546
   0.75136949  0.28568544  0.72294654
   0.25013305  0.75122342  0.49987756
   0.25045806  0.76784644  0.94425393
   0.24927900  0.41521061  0.49945141
   0.00092896  0.33329209 -0.00002593
   0.99992977  0.79607067  0.11139156
   0.74872147  0.89922267  0.05574668
   0.50059382  0.05559727  0.33372472
   0.50088101  0.52019951  0.44396290
   0.74958925  0.30511949  0.83316606
   0.75005035  0.96949144  0.83346020
   0.00031881  0.59258040  0.22201884
   0.99868386  0.11022808  0.66706893
   0.74986852  0.56503242  0.05552695
   0.49967079  0.92561467  0.22224872
   0.74988295  0.36140548  0.16653115
   0.49572253  0.98256097  0.55527380
   0.25110623  0.89824592  0.05529156
   0.00126089  0.18486747  0.44427962
   0.25001601  0.02776995  0.16667488
   0.24836089  0.54928444  0.61063570
   0.25076309  0.21245480  0.61046120
   0.74754952  0.43557898  0.94452079
   0.25005873  0.56482815  0.05535488
   0.24941840  0.10178361  0.94481217
   0.25027455  0.69442612  0.16667695
   0.24944113  0.15831365  0.27779283
   0.99996294  0.73990786  0.77782328
   0.24935849  0.28631414  0.38956486
   0.99953975  0.07432735  0.77769076
   0.24980698  0.43552020  0.94484924
   0.74994366  0.69425696  0.16652676
   0.49965470  0.11209984  0.66653795
Direct configuration=    20
   0.49945717  0.25930319  0.22218441
   0.00070118  0.25910403  0.22229695
   0.24956005  0.23118446  0.05522187
   0.49996588  0.79602807  0.11062505
   0.00004795  0.46314434  0.11075956
   0.00148144  0.51889289  0.44418704
   0.25047156  0.87924021  0.61086857
   0.00060889  0.66660452  0.00005642
   0.75069806  0.62021065  0.72233708
   0.49987171  0.72231701  0.33324883
   0.24977592  0.95337616  0.72198204
   0.99984612  0.40807509  0.77767724
   0.00057451  0.44484722  0.66657068
   0.24951062  0.63913441  0.83335990
   0.74976410  0.21291290  0.61131276
   0.00123244  0.77750331  0.66675892
   0.24981463  0.82419287  0.27787219
   0.49921610  0.77812761  0.66632592
   0.50039648  0.74101011  0.77799603
   0.49961187  0.99884502  0.00020925
   0.50018019  0.07402668  0.77771020
   0.49998553  0.38865607  0.33350028
   0.00032032  0.92600454  0.22227583
   0.24911680  0.62062335  0.38924640
   0.49958214  0.66699700  0.00009621
   0.75027631  0.54711976  0.61084672
   0.75044206  0.87936447  0.61099059
   0.00020895  0.12951703  0.11064209
   0.24978244  0.97191868  0.83327210
   0.50091830  0.53741676  0.88965471
   0.99977438  0.87158037  0.88940521
   0.24996115  0.49034855  0.27777865
   0.49932172  0.64843571  0.55584123
   0.00061817  0.98157756  0.55566980
   0.50002708  0.44396409  0.66664702
   0.75033506  0.23121259  0.05540640
   0.50010698  0.18537233  0.44429934
   0.75008532  0.82402722  0.27785503
   0.75012042  0.15736873  0.27791346
   0.74989649  0.02762415  0.16652009
   0.99994881  0.53727745  0.88870233
   0.74858472  0.95469577  0.38904184
   0.50007465  0.86979331  0.88960418
   0.49984622  0.33398601 -0.00001194
   0.50027798  0.20382293  0.88896662
   0.00042892  0.72254939  0.33348658
   0.74923593  0.28680986  0.38920399
   0.49905075  0.85300343  0.44450071
   0.75047247  0.10189217  0.94441807
   0.75029444  0.95426852  0.72222256
   0.24955179  0.62022844  0.72187034
   0.24927061  0.95412154  0.38946399
   0.00048412  0.31485641  0.55582723
   0.49985817  0.12931005  0.11073992
   0.74950566  0.62025320  0.38901338
   0.74989740  0.76849183  0.94423989
   0.75022894  0.75022787  0.49986806
   0.24989517  0.30546280  0.83335507
   0.00073197  0.05531375  0.33332414
   0.50055529  0.59241390  0.22192072
   0.74981024  0.41642362  0.49997382
   0.50030633  0.40724060  0.77789458
   0.00030115  0.38875597  0.33332978
   0.25006595  0.36114717  0.16666462
   0.00045932  0.64811100  0.55569946
   0.74995897  0.49092435  0.27782790
   0.00340421  0.85211044  0.44433795
   0.99920445  0.20147064  0.88890214
   0.49981687  0.46351160  0.11084458
   0.25293316  0.08152060  0.49917682
   0.49758329  0.31346050  0.55567656
   0.25146827  0.28718787  0.72285639
   0.74988949  0.08315485  0.49996503
   0.99998007  0.00008007  0.99982532
   0.75036008  0.63922133  0.83372545
   0.75136949  0.28568544  0.72294655
   0.25013305  0.75122342  0.49987756
   0.25045806  0.76784644  0.94425391
   0.24927900  0.41521061  0.49945148
   0.00092896  0.33329209 -0.00002594
   0.99992977  0.79607067  0.11139155
   0.74872147  0.89922267  0.05574670
   0.50059382  0.05559727  0.33372472
   0.50088101  0.52019951  0.44396288
   0.74958925  0.30511949  0.83316606
   0.75005035  0.96949144  0.83346019
   0.00031881  0.59258040  0.22201885
   0.99868386  0.11022808  0.66706894
   0.74986852  0.56503242  0.05552698
   0.49967079  0.92561467  0.22224873
   0.74988295  0.36140548  0.16653114
   0.49572253  0.98256097  0.55527380
   0.25110623  0.89824592  0.05529159
   0.00126089  0.18486747  0.44427962
   0.25001601  0.02776995  0.16667484
   0.24836089  0.54928444  0.61063571
   0.25076309  0.21245480  0.61046120
   0.74754952  0.43557898  0.94452076
   0.25005873  0.56482815  0.05535490
   0.24941840  0.10178361  0.94481214
   0.25027455  0.69442612  0.16667689
   0.24944113  0.15831365  0.27779284
   0.99996294  0.73990786  0.77782331
   0.24935849  0.28631414  0.38956482
   0.99953975  0.07432735  0.77769073
   0.24980698  0.43552020  0.94484922
   0.74994366  0.69425696  0.16652675
   0.49965470  0.11209984  0.66653799
Direct configuration=    21
   0.49945717  0.25930319  0.22218441
   0.00070118  0.25910403  0.22229695
   0.24956005  0.23118446  0.05522187
   0.49996588  0.79602807  0.11062505
   0.00004795  0.46314434  0.11075956
   0.00148144  0.51889289  0.44418704
   0.25047156  0.87924021  0.61086857
   0.00060889  0.66660452  0.00005642
   0.75069806  0.62021065  0.72233708
   0.49987171  0.72231701  0.33324883
   0.24977592  0.95337616  0.72198204
   0.99984612  0.40807509  0.77767724
   0.00057451  0.44484722  0.66657068
   0.24951062  0.63913441  0.83335990
   0.74976410  0.21291290  0.61131276
   0.00123244  0.77750331  0.66675892
   0.24981463  0.82419287  0.27787219
   0.49921610  0.77812761  0.66632592
   0.50039648  0.74101011  0.77799603
   0.49961187  0.99884502  0.00020925
   0.50018019  0.07402668  0.77771020
   0.49998553  0.38865607  0.33350028
   0.00032032  0.92600454  0.22227583
   0.24911680  0.62062335  0.38924640
   0.49958214  0.66699700  0.00009621
   0.75027631  0.54711976  0.61084672
   0.75044206  0.87936447  0.61099059
   0.00020895  0.12951703  0.11064209
   0.24978244  0.97191868  0.83327210
   0.50091830  0.53741676  0.88965471
   0.99977438  0.87158037  0.88940521
   0.24996115  0.49034855  0.27777865
   0.49932172  0.64843571  0.55584123
   0.00061817  0.98157756  0.55566980
   0.50002708  0.44396409  0.66664702
   0.75033506  0.23121259  0.05540640
   0.50010698  0.18537233  0.44429934
   0.75008532  0.82402722  0.27785503
   0.75012042  0.15736873  0.27791346
   0.74989649  0.02762415  0.16652009
   0.99994881  0.53727745  0.88870233
   0.74858472  0.95469577  0.38904184
   0.50007465  0.86979331  0.88960418
   0.49984622  0.33398601 -0.00001194
   0.50027798  0.20382293  0.88896662
   0.00042892  0.72254939  0.33348658
   0.74923593  0.28680986  0.38920399
   0.49905075  0.85300343  0.44450071
   0.75047247  0.10189217  0.94441807
   0.75029444  0.95426852  0.72222256
   0.24955179  0.62022844  0.72187034
   0.24927061  0.95412154  0.38946399
   0.00048412  0.31485641  0.55582723
   0.49985817  0.12931005  0.11073992
   0.74950566  0.62025320  0.38901338
   0.74989740  0.76849183  0.94423989
   0.75022894  0.75022787  0.49986806
   0.24989517  0.30546280  0.83335507
   0.00073197  0.05531375  0.33332414
   0.50055529  0.59241390  0.22192072
   0.74981024  0.41642362  0.49997382
   0.50030633  0.40724060  0.77789458
   0.00030115  0.38875597  0.33332978
   0.25006595  0.36114717  0.16666462
   0.00045932  0.64811100  0.55569946
   0.74995897  0.49092435  0.27782790
   0.00340421  0.85211044  0.44433795
   0.99920445  0.20147064  0.88890214
   0.49981687  0.46351160  0.11084458
   0.25293316  0.08152060  0.49917682
   0.49758329  0.31346050  0.55567656
   0.25146827  0.28718787  0.72285639
   0.74988949  0.08315485  0.49996503
   0.99998007  0.00008007  0.99982532
   0.75036008  0.63922133  0.83372545
   0.75136949  0.28568544  0.72294655
   0.25013305  0.75122342  0.49987756
   0.25045806  0.76784644  0.94425391
   0.24927900  0.41521061  0.49945148
   0.00092896  0.33329209 -0.00002594
   0.99992977  0.79607067  0.11139155
   0.74872147  0.89922267  0.05574670
   0.50059382  0.05559727  0.33372472
   0.50088101  0.52019951  0.44396288
   0.74958925  0.30511949  0.83316606
   0.75005035  0.96949144  0.83346019
   0.00031881  0.59258040  0.22201885
   0.99868386  0.11022808  0.66706894
   0.74986852  0.56503242  0.05552698
   0.49967079  0.92561467  0.22224873
   0.74988295  0.36140548  0.16653114
   0.49572253  0.98256097  0.55527380
   0.25110623  0.89824592  0.05529159
   0.00126089  0.18486747  0.44427962
   0.25001601  0.02776995  0.16667484
   0.24836089  0.54928444  0.61063571
   0.25076309  0.21245480  0.61046120
   0.74754952  0.43557898  0.94452076
   0.25005873  0.56482815  0.05535490
   0.24941840  0.10178361  0.94481214
   0.25027455  0.69442612  0.16667689
   0.24944113  0.15831365  0.27779284
   0.99996294  0.73990786  0.77782331
   0.24935849  0.28631414  0.38956482
   0.99953975  0.07432735  0.77769073
   0.24980698  0.43552020  0.94484922
   0.74994366  0.69425696  0.16652675
   0.49965470  0.11209984  0.66653799
Direct configuration=    22
   0.49945717  0.25930319  0.22218441
   0.00070118  0.25910403  0.22229695
   0.24956005  0.23118446  0.05522187
   0.49996588  0.79602807  0.11062505
   0.00004795  0.46314434  0.11075956
   0.00148144  0.51889289  0.44418704
   0.25047156  0.87924021  0.61086857
   0.00060889  0.66660452  0.00005642
   0.75069806  0.62021065  0.72233708
   0.49987171  0.72231701  0.33324883
   0.24977592  0.95337616  0.72198204
   0.99984612  0.40807509  0.77767724
   0.00057451  0.44484722  0.66657068
   0.24951062  0.63913441  0.83335990
   0.74976410  0.21291290  0.61131276
   0.00123244  0.77750331  0.66675892
   0.24981463  0.82419287  0.27787219
   0.49921610  0.77812761  0.66632592
   0.50039648  0.74101011  0.77799603
   0.49961187  0.99884502  0.00020925
   0.50018019  0.07402668  0.77771020
   0.49998553  0.38865607  0.33350028
   0.00032032  0.92600454  0.22227583
   0.24911680  0.62062335  0.38924640
   0.49958214  0.66699700  0.00009621
   0.75027631  0.54711976  0.61084672
   0.75044206  0.87936447  0.61099059
   0.00020895  0.12951703  0.11064209
   0.24978244  0.97191868  0.83327210
   0.50091830  0.53741676  0.88965471
   0.99977438  0.87158037  0.88940521
   0.24996115  0.49034855  0.27777865
   0.49932172  0.64843571  0.55584123
   0.00061817  0.98157756  0.55566980
   0.50002708  0.44396409  0.66664702
   0.75033506  0.23121259  0.05540640
   0.50010698  0.18537233  0.44429934
   0.75008532  0.82402722  0.27785503
   0.75012042  0.15736873  0.27791346
   0.74989649  0.02762415  0.16652009
   0.99994881  0.53727745  0.88870233
   0.74858472  0.95469577  0.38904184
   0.50007465  0.86979331  0.88960418
   0.49984622  0.33398601 -0.00001194
   0.50027798  0.20382293  0.88896662
   0.00042892  0.72254939  0.33348658
   0.74923593  0.28680986  0.38920399
   0.49905075  0.85300343  0.44450071
   0.75047247  0.10189217  0.94441807
   0.75029444  0.95426852  0.72222256
   0.24955179  0.62022844  0.72187034
   0.24927061  0.95412154  0.38946399
   0.00048412  0.31485641  0.55582723
   0.49985817  0.12931005  0.11073992
   0.74950566  0.62025320  0.38901338
   0.74989740  0.76849183  0.94423989
   0.75022894  0.75022787  0.49986806
   0.24989517  0.30546280  0.83335507
   0.00073197  0.05531375  0.33332414
   0.50055529  0.59241390  0.22192072
   0.74981024  0.41642362  0.49997382
   0.50030633  0.40724060  0.77789458
   0.00030115  0.38875597  0.33332978
   0.25006595  0.36114717  0.16666462
   0.00045932  0.64811100  0.55569946
   0.74995897  0.49092435  0.27782790
   0.00340421  0.85211044  0.44433795
   0.99920445  0.20147064  0.88890214
   0.49981687  0.46351160  0.11084458
   0.25293316  0.08152060  0.49917682
   0.49758329  0.31346050  0.55567656
   0.25146827  0.28718787  0.72285639
   0.74988949  0.08315485  0.49996503
   0.99998007  0.00008007  0.99982532
   0.75036008  0.63922133  0.83372545
   0.75136949  0.28568544  0.72294655
   0.25013305  0.75122342  0.49987756
   0.25045806  0.76784644  0.94425391
   0.24927900  0.41521061  0.49945148
   0.00092896  0.33329209 -0.00002594
   0.99992977  0.79607067  0.11139155
   0.74872147  0.89922267  0.05574670
   0.50059382  0.05559727  0.33372472
   0.50088101  0.52019951  0.44396288
   0.74958925  0.30511949  0.83316606
   0.75005035  0.96949144  0.83346019
   0.00031881  0.59258040  0.22201885
   0.99868386  0.11022808  0.66706894
   0.74986852  0.56503242  0.05552698
   0.49967079  0.92561467  0.22224873
   0.74988295  0.36140548  0.16653114
   0.49572253  0.98256097  0.55527380
   0.25110623  0.89824592  0.05529159
   0.00126089  0.18486747  0.44427962
   0.25001601  0.02776995  0.16667484
   0.24836089  0.54928444  0.61063571
   0.25076309  0.21245480  0.61046120
   0.74754952  0.43557898  0.94452076
   0.25005873  0.56482815  0.05535490
   0.24941840  0.10178361  0.94481214
   0.25027455  0.69442612  0.16667689
   0.24944113  0.15831365  0.27779284
   0.99996294  0.73990786  0.77782331
   0.24935849  0.28631414  0.38956482
   0.99953975  0.07432735  0.77769073
   0.24980698  0.43552020  0.94484922
   0.74994366  0.69425696  0.16652675
   0.49965470  0.11209984  0.66653799
Direct configuration=    23
   0.49945717  0.25930319  0.22218441
   0.00070118  0.25910403  0.22229695
   0.24956005  0.23118446  0.05522187
   0.49996588  0.79602807  0.11062505
   0.00004795  0.46314434  0.11075956
   0.00148144  0.51889289  0.44418704
   0.25047156  0.87924021  0.61086857
   0.00060889  0.66660452  0.00005642
   0.75069806  0.62021065  0.72233708
   0.49987171  0.72231701  0.33324883
   0.24977592  0.95337616  0.72198204
   0.99984612  0.40807509  0.77767724
   0.00057451  0.44484722  0.66657068
   0.24951062  0.63913441  0.83335990
   0.74976410  0.21291290  0.61131276
   0.00123244  0.77750331  0.66675892
   0.24981463  0.82419287  0.27787219
   0.49921610  0.77812761  0.66632592
   0.50039648  0.74101011  0.77799603
   0.49961187  0.99884502  0.00020925
   0.50018019  0.07402668  0.77771020
   0.49998553  0.38865607  0.33350028
   0.00032032  0.92600454  0.22227583
   0.24911680  0.62062335  0.38924640
   0.49958214  0.66699700  0.00009621
   0.75027631  0.54711976  0.61084672
   0.75044206  0.87936447  0.61099059
   0.00020895  0.12951703  0.11064209
   0.24978244  0.97191868  0.83327210
   0.50091830  0.53741676  0.88965471
   0.99977438  0.87158037  0.88940521
   0.24996115  0.49034855  0.27777865
   0.49932172  0.64843571  0.55584123
   0.00061817  0.98157756  0.55566980
   0.50002708  0.44396409  0.66664702
   0.75033506  0.23121259  0.05540640
   0.50010698  0.18537233  0.44429934
   0.75008532  0.82402722  0.27785503
   0.75012042  0.15736873  0.27791346
   0.74989649  0.02762415  0.16652009
   0.99994881  0.53727745  0.88870233
   0.74858472  0.95469577  0.38904184
   0.50007465  0.86979331  0.88960418
   0.49984622  0.33398601 -0.00001194
   0.50027798  0.20382293  0.88896662
   0.00042892  0.72254939  0.33348658
   0.74923593  0.28680986  0.38920399
   0.49905075  0.85300343  0.44450071
   0.75047247  0.10189217  0.94441807
   0.75029444  0.95426852  0.72222256
   0.24955179  0.62022844  0.72187034
   0.24927061  0.95412154  0.38946399
   0.00048412  0.31485641  0.55582723
   0.49985817  0.12931005  0.11073992
   0.74950566  0.62025320  0.38901338
   0.74989740  0.76849183  0.94423989
   0.75022894  0.75022787  0.49986806
   0.24989517  0.30546280  0.83335507
   0.00073197  0.05531375  0.33332414
   0.50055529  0.59241390  0.22192072
   0.74981024  0.41642362  0.49997382
   0.50030633  0.40724060  0.77789458
   0.00030115  0.38875597  0.33332978
   0.25006595  0.36114717  0.16666462
   0.00045932  0.64811100  0.55569946
   0.74995897  0.49092435  0.27782790
   0.00340421  0.85211044  0.44433795
   0.99920445  0.20147064  0.88890214
   0.49981687  0.46351160  0.11084458
   0.25293316  0.08152060  0.49917682
   0.49758329  0.31346050  0.55567656
   0.25146827  0.28718787  0.72285639
   0.74988949  0.08315485  0.49996503
   0.99998007  0.00008007  0.99982532
   0.75036008  0.63922133  0.83372545
   0.75136949  0.28568544  0.72294655
   0.25013305  0.75122342  0.49987756
   0.25045806  0.76784644  0.94425391
   0.24927900  0.41521061  0.49945148
   0.00092896  0.33329209 -0.00002594
   0.99992977  0.79607067  0.11139155
   0.74872147  0.89922267  0.05574670
   0.50059382  0.05559727  0.33372472
   0.50088101  0.52019951  0.44396288
   0.74958925  0.30511949  0.83316606
   0.75005035  0.96949144  0.83346019
   0.00031881  0.59258040  0.22201885
   0.99868386  0.11022808  0.66706894
   0.74986852  0.56503242  0.05552698
   0.49967079  0.92561467  0.22224873
   0.74988295  0.36140548  0.16653114
   0.49572253  0.98256097  0.55527380
   0.25110623  0.89824592  0.05529159
   0.00126089  0.18486747  0.44427962
   0.25001601  0.02776995  0.16667484
   0.24836089  0.54928444  0.61063571
   0.25076309  0.21245480  0.61046120
   0.74754952  0.43557898  0.94452076
   0.25005873  0.56482815  0.05535490
   0.24941840  0.10178361  0.94481214
   0.25027455  0.69442612  0.16667689
   0.24944113  0.15831365  0.27779284
   0.99996294  0.73990786  0.77782331
   0.24935849  0.28631414  0.38956482
   0.99953975  0.07432735  0.77769073
   0.24980698  0.43552020  0.94484922
   0.74994366  0.69425696  0.16652675
   0.49965470  0.11209984  0.66653799
Direct configuration=    24
   0.49945717  0.25930319  0.22218441
   0.00070118  0.25910403  0.22229695
   0.24956005  0.23118446  0.05522187
   0.49996588  0.79602807  0.11062505
   0.00004795  0.46314434  0.11075956
   0.00148144  0.51889289  0.44418704
   0.25047156  0.87924021  0.61086857
   0.00060889  0.66660452  0.00005642
   0.75069806  0.62021065  0.72233708
   0.49987171  0.72231701  0.33324883
   0.24977592  0.95337616  0.72198204
   0.99984612  0.40807509  0.77767724
   0.00057451  0.44484722  0.66657068
   0.24951062  0.63913441  0.83335990
   0.74976410  0.21291290  0.61131276
   0.00123244  0.77750331  0.66675892
   0.24981463  0.82419287  0.27787219
   0.49921610  0.77812761  0.66632592
   0.50039648  0.74101011  0.77799603
   0.49961187  0.99884502  0.00020925
   0.50018019  0.07402668  0.77771020
   0.49998553  0.38865607  0.33350028
   0.00032032  0.92600454  0.22227583
   0.24911680  0.62062335  0.38924640
   0.49958214  0.66699700  0.00009621
   0.75027631  0.54711976  0.61084672
   0.75044206  0.87936447  0.61099059
   0.00020895  0.12951703  0.11064209
   0.24978244  0.97191868  0.83327210
   0.50091830  0.53741676  0.88965471
   0.99977438  0.87158037  0.88940521
   0.24996115  0.49034855  0.27777865
   0.49932172  0.64843571  0.55584123
   0.00061817  0.98157756  0.55566980
   0.50002708  0.44396409  0.66664702
   0.75033506  0.23121259  0.05540640
   0.50010698  0.18537233  0.44429934
   0.75008532  0.82402722  0.27785503
   0.75012042  0.15736873  0.27791346
   0.74989649  0.02762415  0.16652009
   0.99994881  0.53727745  0.88870233
   0.74858472  0.95469577  0.38904184
   0.50007465  0.86979331  0.88960418
   0.49984622  0.33398601 -0.00001194
   0.50027798  0.20382293  0.88896662
   0.00042892  0.72254939  0.33348658
   0.74923593  0.28680986  0.38920399
   0.49905075  0.85300343  0.44450071
   0.75047247  0.10189217  0.94441807
   0.75029444  0.95426852  0.72222256
   0.24955179  0.62022844  0.72187034
   0.24927061  0.95412154  0.38946399
   0.00048412  0.31485641  0.55582723
   0.49985817  0.12931005  0.11073992
   0.74950566  0.62025320  0.38901338
   0.74989740  0.76849183  0.94423989
   0.75022894  0.75022787  0.49986806
   0.24989517  0.30546280  0.83335507
   0.00073197  0.05531375  0.33332414
   0.50055529  0.59241390  0.22192072
   0.74981024  0.41642362  0.49997382
   0.50030633  0.40724060  0.77789458
   0.00030115  0.38875597  0.33332978
   0.25006595  0.36114717  0.16666462
   0.00045932  0.64811100  0.55569946
   0.74995897  0.49092435  0.27782790
   0.00340421  0.85211044  0.44433795
   0.99920445  0.20147064  0.88890214
   0.49981687  0.46351160  0.11084458
   0.25293316  0.08152060  0.49917682
   0.49758329  0.31346050  0.55567656
   0.25146827  0.28718787  0.72285639
   0.74988949  0.08315485  0.49996503
   0.99998007  0.00008007  0.99982532
   0.75036008  0.63922133  0.83372545
   0.75136949  0.28568544  0.72294655
   0.25013305  0.75122342  0.49987756
   0.25045806  0.76784644  0.94425391
   0.24927900  0.41521061  0.49945148
   0.00092896  0.33329209 -0.00002594
   0.99992977  0.79607067  0.11139155
   0.74872147  0.89922267  0.05574670
   0.50059382  0.05559727  0.33372472
   0.50088101  0.52019951  0.44396288
   0.74958925  0.30511949  0.83316606
   0.75005035  0.96949144  0.83346019
   0.00031881  0.59258040  0.22201885
   0.99868386  0.11022808  0.66706894
   0.74986852  0.56503242  0.05552698
   0.49967079  0.92561467  0.22224873
   0.74988295  0.36140548  0.16653114
   0.49572253  0.98256097  0.55527380
   0.25110623  0.89824592  0.05529159
   0.00126089  0.18486747  0.44427962
   0.25001601  0.02776995  0.16667484
   0.24836089  0.54928444  0.61063571
   0.25076309  0.21245480  0.61046120
   0.74754952  0.43557898  0.94452076
   0.25005873  0.56482815  0.05535490
   0.24941840  0.10178361  0.94481214
   0.25027455  0.69442612  0.16667689
   0.24944113  0.15831365  0.27779284
   0.99996294  0.73990786  0.77782331
   0.24935849  0.28631414  0.38956482
   0.99953975  0.07432735  0.77769073
   0.24980698  0.43552020  0.94484922
   0.74994366  0.69425696  0.16652675
   0.49965470  0.11209984  0.66653799
Direct configuration=    25
   0.49945717  0.25930319  0.22218441
   0.00070118  0.25910403  0.22229695
   0.24956005  0.23118446  0.05522187
   0.49996588  0.79602807  0.11062505
   0.00004795  0.46314434  0.11075956
   0.00148144  0.51889289  0.44418704
   0.25047156  0.87924021  0.61086857
   0.00060889  0.66660452  0.00005642
   0.75069806  0.62021065  0.72233708
   0.49987171  0.72231701  0.33324883
   0.24977592  0.95337616  0.72198204
   0.99984612  0.40807509  0.77767724
   0.00057451  0.44484722  0.66657068
   0.24951062  0.63913441  0.83335990
   0.74976410  0.21291290  0.61131276
   0.00123244  0.77750331  0.66675892
   0.24981463  0.82419287  0.27787219
   0.49921610  0.77812761  0.66632592
   0.50039648  0.74101011  0.77799603
   0.49961187  0.99884502  0.00020925
   0.50018019  0.07402668  0.77771020
   0.49998553  0.38865607  0.33350028
   0.00032032  0.92600454  0.22227583
   0.24911680  0.62062335  0.38924640
   0.49958214  0.66699700  0.00009621
   0.75027631  0.54711976  0.61084672
   0.75044206  0.87936447  0.61099059
   0.00020895  0.12951703  0.11064209
   0.24978244  0.97191868  0.83327210
   0.50091830  0.53741676  0.88965471
   0.99977438  0.87158037  0.88940521
   0.24996115  0.49034855  0.27777865
   0.49932172  0.64843571  0.55584123
   0.00061817  0.98157756  0.55566980
   0.50002708  0.44396409  0.66664702
   0.75033506  0.23121259  0.05540640
   0.50010698  0.18537233  0.44429934
   0.75008532  0.82402722  0.27785503
   0.75012042  0.15736873  0.27791346
   0.74989649  0.02762415  0.16652009
   0.99994881  0.53727745  0.88870233
   0.74858472  0.95469577  0.38904184
   0.50007465  0.86979331  0.88960418
   0.49984622  0.33398601 -0.00001194
   0.50027798  0.20382293  0.88896662
   0.00042892  0.72254939  0.33348658
   0.74923593  0.28680986  0.38920399
   0.49905075  0.85300343  0.44450071
   0.75047247  0.10189217  0.94441807
   0.75029444  0.95426852  0.72222256
   0.24955179  0.62022844  0.72187034
   0.24927061  0.95412154  0.38946399
   0.00048412  0.31485641  0.55582723
   0.49985817  0.12931005  0.11073992
   0.74950566  0.62025320  0.38901338
   0.74989740  0.76849183  0.94423989
   0.75022894  0.75022787  0.49986806
   0.24989517  0.30546280  0.83335507
   0.00073197  0.05531375  0.33332414
   0.50055529  0.59241390  0.22192072
   0.74981024  0.41642362  0.49997382
   0.50030633  0.40724060  0.77789458
   0.00030115  0.38875597  0.33332978
   0.25006595  0.36114717  0.16666462
   0.00045932  0.64811100  0.55569946
   0.74995897  0.49092435  0.27782790
   0.00340421  0.85211044  0.44433795
   0.99920445  0.20147064  0.88890214
   0.49981687  0.46351160  0.11084458
   0.25293316  0.08152060  0.49917682
   0.49758329  0.31346050  0.55567656
   0.25146827  0.28718787  0.72285639
   0.74988949  0.08315485  0.49996503
   0.99998007  0.00008007  0.99982532
   0.75036008  0.63922133  0.83372545
   0.75136949  0.28568544  0.72294655
   0.25013305  0.75122342  0.49987756
   0.25045806  0.76784644  0.94425391
   0.24927900  0.41521061  0.49945148
   0.00092896  0.33329209 -0.00002594
   0.99992977  0.79607067  0.11139155
   0.74872147  0.89922267  0.05574670
   0.50059382  0.05559727  0.33372472
   0.50088101  0.52019951  0.44396288
   0.74958925  0.30511949  0.83316606
   0.75005035  0.96949144  0.83346019
   0.00031881  0.59258040  0.22201885
   0.99868386  0.11022808  0.66706894
   0.74986852  0.56503242  0.05552698
   0.49967079  0.92561467  0.22224873
   0.74988295  0.36140548  0.16653114
   0.49572253  0.98256097  0.55527380
   0.25110623  0.89824592  0.05529159
   0.00126089  0.18486747  0.44427962
   0.25001601  0.02776995  0.16667484
   0.24836089  0.54928444  0.61063571
   0.25076309  0.21245480  0.61046120
   0.74754952  0.43557898  0.94452076
   0.25005873  0.56482815  0.05535490
   0.24941840  0.10178361  0.94481214
   0.25027455  0.69442612  0.16667689
   0.24944113  0.15831365  0.27779284
   0.99996294  0.73990786  0.77782331
   0.24935849  0.28631414  0.38956482
   0.99953975  0.07432735  0.77769073
   0.24980698  0.43552020  0.94484922
   0.74994366  0.69425696  0.16652675
   0.49965470  0.11209984  0.66653799
Direct configuration=    26
   0.49945717  0.25930319  0.22218441
   0.00070118  0.25910403  0.22229695
   0.24956005  0.23118446  0.05522187
   0.49996588  0.79602807  0.11062505
   0.00004795  0.46314434  0.11075956
   0.00148144  0.51889289  0.44418704
   0.25047156  0.87924021  0.61086857
   0.00060889  0.66660452  0.00005642
   0.75069806  0.62021065  0.72233708
   0.49987171  0.72231701  0.33324883
   0.24977592  0.95337616  0.72198204
   0.99984612  0.40807509  0.77767724
   0.00057451  0.44484722  0.66657068
   0.24951062  0.63913441  0.83335990
   0.74976410  0.21291290  0.61131276
   0.00123244  0.77750331  0.66675892
   0.24981463  0.82419287  0.27787219
   0.49921610  0.77812761  0.66632592
   0.50039648  0.74101011  0.77799603
   0.49961187  0.99884502  0.00020925
   0.50018019  0.07402668  0.77771020
   0.49998553  0.38865607  0.33350028
   0.00032032  0.92600454  0.22227583
   0.24911680  0.62062335  0.38924640
   0.49958214  0.66699700  0.00009621
   0.75027631  0.54711976  0.61084672
   0.75044206  0.87936447  0.61099059
   0.00020895  0.12951703  0.11064209
   0.24978244  0.97191868  0.83327210
   0.50091830  0.53741676  0.88965471
   0.99977438  0.87158037  0.88940521
   0.24996115  0.49034855  0.27777865
   0.49932172  0.64843571  0.55584123
   0.00061817  0.98157756  0.55566980
   0.50002708  0.44396409  0.66664702
   0.75033506  0.23121259  0.05540640
   0.50010698  0.18537233  0.44429934
   0.75008532  0.82402722  0.27785503
   0.75012042  0.15736873  0.27791346
   0.74989649  0.02762415  0.16652009
   0.99994881  0.53727745  0.88870233
   0.74858472  0.95469577  0.38904184
   0.50007465  0.86979331  0.88960418
   0.49984622  0.33398601 -0.00001194
   0.50027798  0.20382293  0.88896662
   0.00042892  0.72254939  0.33348658
   0.74923593  0.28680986  0.38920399
   0.49905075  0.85300343  0.44450071
   0.75047247  0.10189217  0.94441807
   0.75029444  0.95426852  0.72222256
   0.24955179  0.62022844  0.72187034
   0.24927061  0.95412154  0.38946399
   0.00048412  0.31485641  0.55582723
   0.49985817  0.12931005  0.11073992
   0.74950566  0.62025320  0.38901338
   0.74989740  0.76849183  0.94423989
   0.75022894  0.75022787  0.49986806
   0.24989517  0.30546280  0.83335507
   0.00073197  0.05531375  0.33332414
   0.50055529  0.59241390  0.22192072
   0.74981024  0.41642362  0.49997382
   0.50030633  0.40724060  0.77789458
   0.00030115  0.38875597  0.33332978
   0.25006595  0.36114717  0.16666462
   0.00045932  0.64811100  0.55569946
   0.74995897  0.49092435  0.27782790
   0.00340421  0.85211044  0.44433795
   0.99920445  0.20147064  0.88890214
   0.49981687  0.46351160  0.11084458
   0.25293316  0.08152060  0.49917682
   0.49758329  0.31346050  0.55567656
   0.25146827  0.28718787  0.72285639
   0.74988949  0.08315485  0.49996503
   0.99998007  0.00008007  0.99982532
   0.75036008  0.63922133  0.83372545
   0.75136949  0.28568544  0.72294655
   0.25013305  0.75122342  0.49987756
   0.25045806  0.76784644  0.94425391
   0.24927900  0.41521061  0.49945148
   0.00092896  0.33329209 -0.00002594
   0.99992977  0.79607067  0.11139155
   0.74872147  0.89922267  0.05574670
   0.50059382  0.05559727  0.33372472
   0.50088101  0.52019951  0.44396288
   0.74958925  0.30511949  0.83316606
   0.75005035  0.96949144  0.83346019
   0.00031881  0.59258040  0.22201885
   0.99868386  0.11022808  0.66706894
   0.74986852  0.56503242  0.05552698
   0.49967079  0.92561467  0.22224873
   0.74988295  0.36140548  0.16653114
   0.49572253  0.98256097  0.55527380
   0.25110623  0.89824592  0.05529159
   0.00126089  0.18486747  0.44427962
   0.25001601  0.02776995  0.16667484
   0.24836089  0.54928444  0.61063571
   0.25076309  0.21245480  0.61046120
   0.74754952  0.43557898  0.94452076
   0.25005873  0.56482815  0.05535490
   0.24941840  0.10178361  0.94481214
   0.25027455  0.69442612  0.16667689
   0.24944113  0.15831365  0.27779284
   0.99996294  0.73990786  0.77782331
   0.24935849  0.28631414  0.38956482
   0.99953975  0.07432735  0.77769073
   0.24980698  0.43552020  0.94484922
   0.74994366  0.69425696  0.16652675
   0.49965470  0.11209984  0.66653799
Direct configuration=    27
   0.49945717  0.25930319  0.22218441
   0.00070118  0.25910403  0.22229695
   0.24956005  0.23118446  0.05522187
   0.49996588  0.79602807  0.11062505
   0.00004795  0.46314434  0.11075956
   0.00148144  0.51889289  0.44418704
   0.25047156  0.87924021  0.61086857
   0.00060889  0.66660452  0.00005642
   0.75069806  0.62021065  0.72233708
   0.49987171  0.72231701  0.33324883
   0.24977592  0.95337616  0.72198204
   0.99984612  0.40807509  0.77767724
   0.00057451  0.44484722  0.66657068
   0.24951062  0.63913441  0.83335990
   0.74976410  0.21291290  0.61131276
   0.00123244  0.77750331  0.66675892
   0.24981463  0.82419287  0.27787219
   0.49921610  0.77812761  0.66632592
   0.50039648  0.74101011  0.77799603
   0.49961187  0.99884502  0.00020925
   0.50018019  0.07402668  0.77771020
   0.49998553  0.38865607  0.33350028
   0.00032032  0.92600454  0.22227583
   0.24911680  0.62062335  0.38924640
   0.49958214  0.66699700  0.00009621
   0.75027631  0.54711976  0.61084672
   0.75044206  0.87936447  0.61099059
   0.00020895  0.12951703  0.11064209
   0.24978244  0.97191868  0.83327210
   0.50091830  0.53741676  0.88965471
   0.99977438  0.87158037  0.88940521
   0.24996115  0.49034855  0.27777865
   0.49932172  0.64843571  0.55584123
   0.00061817  0.98157756  0.55566980
   0.50002708  0.44396409  0.66664702
   0.75033506  0.23121259  0.05540640
   0.50010698  0.18537233  0.44429934
   0.75008532  0.82402722  0.27785503
   0.75012042  0.15736873  0.27791346
   0.74989649  0.02762415  0.16652009
   0.99994881  0.53727745  0.88870233
   0.74858472  0.95469577  0.38904184
   0.50007465  0.86979331  0.88960418
   0.49984622  0.33398601 -0.00001194
   0.50027798  0.20382293  0.88896662
   0.00042892  0.72254939  0.33348658
   0.74923593  0.28680986  0.38920399
   0.49905075  0.85300343  0.44450071
   0.75047247  0.10189217  0.94441807
   0.75029444  0.95426852  0.72222256
   0.24955179  0.62022844  0.72187034
   0.24927061  0.95412154  0.38946399
   0.00048412  0.31485641  0.55582723
   0.49985817  0.12931005  0.11073992
   0.74950566  0.62025320  0.38901338
   0.74989740  0.76849183  0.94423989
   0.75022894  0.75022787  0.49986806
   0.24989517  0.30546280  0.83335507
   0.00073197  0.05531375  0.33332414
   0.50055529  0.59241390  0.22192072
   0.74981024  0.41642362  0.49997382
   0.50030633  0.40724060  0.77789458
   0.00030115  0.38875597  0.33332978
   0.25006595  0.36114717  0.16666462
   0.00045932  0.64811100  0.55569946
   0.74995897  0.49092435  0.27782790
   0.00340421  0.85211044  0.44433795
   0.99920445  0.20147064  0.88890214
   0.49981687  0.46351160  0.11084458
   0.25293316  0.08152060  0.49917682
   0.49758329  0.31346050  0.55567656
   0.25146827  0.28718787  0.72285639
   0.74988949  0.08315485  0.49996503
   0.99998007  0.00008007  0.99982532
   0.75036008  0.63922133  0.83372545
   0.75136949  0.28568544  0.72294655
   0.25013305  0.75122342  0.49987756
   0.25045806  0.76784644  0.94425391
   0.24927900  0.41521061  0.49945148
   0.00092896  0.33329209 -0.00002594
   0.99992977  0.79607067  0.11139155
   0.74872147  0.89922267  0.05574670
   0.50059382  0.05559727  0.33372472
   0.50088101  0.52019951  0.44396288
   0.74958925  0.30511949  0.83316606
   0.75005035  0.96949144  0.83346019
   0.00031881  0.59258040  0.22201885
   0.99868386  0.11022808  0.66706894
   0.74986852  0.56503242  0.05552698
   0.49967079  0.92561467  0.22224873
   0.74988295  0.36140548  0.16653114
   0.49572253  0.98256097  0.55527380
   0.25110623  0.89824592  0.05529159
   0.00126089  0.18486747  0.44427962
   0.25001601  0.02776995  0.16667484
   0.24836089  0.54928444  0.61063571
   0.25076309  0.21245480  0.61046120
   0.74754952  0.43557898  0.94452076
   0.25005873  0.56482815  0.05535490
   0.24941840  0.10178361  0.94481214
   0.25027455  0.69442612  0.16667689
   0.24944113  0.15831365  0.27779284
   0.99996294  0.73990786  0.77782331
   0.24935849  0.28631414  0.38956482
   0.99953975  0.07432735  0.77769073
   0.24980698  0.43552020  0.94484922
   0.74994366  0.69425696  0.16652675
   0.49965470  0.11209984  0.66653799
Direct configuration=    28
   0.49945717  0.25930319  0.22218441
   0.00070118  0.25910403  0.22229695
   0.24956005  0.23118446  0.05522187
   0.49996588  0.79602807  0.11062505
   0.00004795  0.46314434  0.11075956
   0.00148144  0.51889289  0.44418704
   0.25047156  0.87924021  0.61086857
   0.00060889  0.66660452  0.00005642
   0.75069806  0.62021065  0.72233708
   0.49987171  0.72231701  0.33324883
   0.24977592  0.95337616  0.72198204
   0.99984612  0.40807509  0.77767724
   0.00057451  0.44484722  0.66657068
   0.24951062  0.63913441  0.83335990
   0.74976410  0.21291290  0.61131276
   0.00123244  0.77750331  0.66675892
   0.24981463  0.82419287  0.27787219
   0.49921610  0.77812761  0.66632592
   0.50039648  0.74101011  0.77799603
   0.49961187  0.99884502  0.00020925
   0.50018019  0.07402668  0.77771020
   0.49998553  0.38865607  0.33350028
   0.00032032  0.92600454  0.22227583
   0.24911680  0.62062335  0.38924640
   0.49958214  0.66699700  0.00009621
   0.75027631  0.54711976  0.61084672
   0.75044206  0.87936447  0.61099059
   0.00020895  0.12951703  0.11064209
   0.24978244  0.97191868  0.83327210
   0.50091830  0.53741676  0.88965471
   0.99977438  0.87158037  0.88940521
   0.24996115  0.49034855  0.27777865
   0.49932172  0.64843571  0.55584123
   0.00061817  0.98157756  0.55566980
   0.50002708  0.44396409  0.66664702
   0.75033506  0.23121259  0.05540640
   0.50010698  0.18537233  0.44429934
   0.75008532  0.82402722  0.27785503
   0.75012042  0.15736873  0.27791346
   0.74989649  0.02762415  0.16652009
   0.99994881  0.53727745  0.88870233
   0.74858472  0.95469577  0.38904184
   0.50007465  0.86979331  0.88960418
   0.49984622  0.33398601 -0.00001194
   0.50027798  0.20382293  0.88896662
   0.00042892  0.72254939  0.33348658
   0.74923593  0.28680986  0.38920399
   0.49905075  0.85300343  0.44450071
   0.75047247  0.10189217  0.94441807
   0.75029444  0.95426852  0.72222256
   0.24955179  0.62022844  0.72187034
   0.24927061  0.95412154  0.38946399
   0.00048412  0.31485641  0.55582723
   0.49985817  0.12931005  0.11073992
   0.74950566  0.62025320  0.38901338
   0.74989740  0.76849183  0.94423989
   0.75022894  0.75022787  0.49986806
   0.24989517  0.30546280  0.83335507
   0.00073197  0.05531375  0.33332414
   0.50055529  0.59241390  0.22192072
   0.74981024  0.41642362  0.49997382
   0.50030633  0.40724060  0.77789458
   0.00030115  0.38875597  0.33332978
   0.25006595  0.36114717  0.16666462
   0.00045932  0.64811100  0.55569946
   0.74995897  0.49092435  0.27782790
   0.00340421  0.85211044  0.44433795
   0.99920445  0.20147064  0.88890214
   0.49981687  0.46351160  0.11084458
   0.25293316  0.08152060  0.49917682
   0.49758329  0.31346050  0.55567656
   0.25146827  0.28718787  0.72285639
   0.74988949  0.08315485  0.49996503
   0.99998007  0.00008007  0.99982532
   0.75036008  0.63922133  0.83372545
   0.75136949  0.28568544  0.72294655
   0.25013305  0.75122342  0.49987756
   0.25045806  0.76784644  0.94425391
   0.24927900  0.41521061  0.49945148
   0.00092896  0.33329209 -0.00002594
   0.99992977  0.79607067  0.11139155
   0.74872147  0.89922267  0.05574670
   0.50059382  0.05559727  0.33372472
   0.50088101  0.52019951  0.44396288
   0.74958925  0.30511949  0.83316606
   0.75005035  0.96949144  0.83346019
   0.00031881  0.59258040  0.22201885
   0.99868386  0.11022808  0.66706894
   0.74986852  0.56503242  0.05552698
   0.49967079  0.92561467  0.22224873
   0.74988295  0.36140548  0.16653114
   0.49572253  0.98256097  0.55527380
   0.25110623  0.89824592  0.05529159
   0.00126089  0.18486747  0.44427962
   0.25001601  0.02776995  0.16667484
   0.24836089  0.54928444  0.61063571
   0.25076309  0.21245480  0.61046120
   0.74754952  0.43557898  0.94452076
   0.25005873  0.56482815  0.05535490
   0.24941840  0.10178361  0.94481214
   0.25027455  0.69442612  0.16667689
   0.24944113  0.15831365  0.27779284
   0.99996294  0.73990786  0.77782331
   0.24935849  0.28631414  0.38956482
   0.99953975  0.07432735  0.77769073
   0.24980698  0.43552020  0.94484922
   0.74994366  0.69425696  0.16652675
   0.49965470  0.11209984  0.66653799
Direct configuration=    29
   0.49945717  0.25930319  0.22218441
   0.00070118  0.25910403  0.22229695
   0.24956005  0.23118446  0.05522187
   0.49996588  0.79602807  0.11062505
   0.00004795  0.46314434  0.11075956
   0.00148144  0.51889289  0.44418704
   0.25047156  0.87924021  0.61086857
   0.00060889  0.66660452  0.00005642
   0.75069806  0.62021065  0.72233708
   0.49987171  0.72231701  0.33324883
   0.24977592  0.95337616  0.72198204
   0.99984612  0.40807509  0.77767724
   0.00057451  0.44484722  0.66657068
   0.24951062  0.63913441  0.83335990
   0.74976410  0.21291290  0.61131276
   0.00123244  0.77750331  0.66675892
   0.24981463  0.82419287  0.27787219
   0.49921610  0.77812761  0.66632592
   0.50039648  0.74101011  0.77799603
   0.49961187  0.99884502  0.00020925
   0.50018019  0.07402668  0.77771020
   0.49998553  0.38865607  0.33350028
   0.00032032  0.92600454  0.22227583
   0.24911680  0.62062335  0.38924640
   0.49958214  0.66699700  0.00009621
   0.75027631  0.54711976  0.61084672
   0.75044206  0.87936447  0.61099059
   0.00020895  0.12951703  0.11064209
   0.24978244  0.97191868  0.83327210
   0.50091830  0.53741676  0.88965471
   0.99977438  0.87158037  0.88940521
   0.24996115  0.49034855  0.27777865
   0.49932172  0.64843571  0.55584123
   0.00061817  0.98157756  0.55566980
   0.50002708  0.44396409  0.66664702
   0.75033506  0.23121259  0.05540640
   0.50010698  0.18537233  0.44429934
   0.75008532  0.82402722  0.27785503
   0.75012042  0.15736873  0.27791346
   0.74989649  0.02762415  0.16652009
   0.99994881  0.53727745  0.88870233
   0.74858472  0.95469577  0.38904184
   0.50007465  0.86979331  0.88960418
   0.49984622  0.33398601 -0.00001194
   0.50027798  0.20382293  0.88896662
   0.00042892  0.72254939  0.33348658
   0.74923593  0.28680986  0.38920399
   0.49905075  0.85300343  0.44450071
   0.75047247  0.10189217  0.94441807
   0.75029444  0.95426852  0.72222256
   0.24955179  0.62022844  0.72187034
   0.24927061  0.95412154  0.38946399
   0.00048412  0.31485641  0.55582723
   0.49985817  0.12931005  0.11073992
   0.74950566  0.62025320  0.38901338
   0.74989740  0.76849183  0.94423989
   0.75022894  0.75022787  0.49986806
   0.24989517  0.30546280  0.83335507
   0.00073197  0.05531375  0.33332414
   0.50055529  0.59241390  0.22192072
   0.74981024  0.41642362  0.49997382
   0.50030633  0.40724060  0.77789458
   0.00030115  0.38875597  0.33332978
   0.25006595  0.36114717  0.16666462
   0.00045932  0.64811100  0.55569946
   0.74995897  0.49092435  0.27782790
   0.00340421  0.85211044  0.44433795
   0.99920445  0.20147064  0.88890214
   0.49981687  0.46351160  0.11084458
   0.25293316  0.08152060  0.49917682
   0.49758329  0.31346050  0.55567656
   0.25146827  0.28718787  0.72285639
   0.74988949  0.08315485  0.49996503
   0.99998007  0.00008007  0.99982532
   0.75036008  0.63922133  0.83372545
   0.75136949  0.28568544  0.72294655
   0.25013305  0.75122342  0.49987756
   0.25045806  0.76784644  0.94425391
   0.24927900  0.41521061  0.49945148
   0.00092896  0.33329209 -0.00002594
   0.99992977  0.79607067  0.11139155
   0.74872147  0.89922267  0.05574670
   0.50059382  0.05559727  0.33372472
   0.50088101  0.52019951  0.44396288
   0.74958925  0.30511949  0.83316606
   0.75005035  0.96949144  0.83346019
   0.00031881  0.59258040  0.22201885
   0.99868386  0.11022808  0.66706894
   0.74986852  0.56503242  0.05552698
   0.49967079  0.92561467  0.22224873
   0.74988295  0.36140548  0.16653114
   0.49572253  0.98256097  0.55527380
   0.25110623  0.89824592  0.05529159
   0.00126089  0.18486747  0.44427962
   0.25001601  0.02776995  0.16667484
   0.24836089  0.54928444  0.61063571
   0.25076309  0.21245480  0.61046120
   0.74754952  0.43557898  0.94452076
   0.25005873  0.56482815  0.05535490
   0.24941840  0.10178361  0.94481214
   0.25027455  0.69442612  0.16667689
   0.24944113  0.15831365  0.27779284
   0.99996294  0.73990786  0.77782331
   0.24935849  0.28631414  0.38956482
   0.99953975  0.07432735  0.77769073
   0.24980698  0.43552020  0.94484922
   0.74994366  0.69425696  0.16652675
   0.49965470  0.11209984  0.66653799
Direct configuration=    30
   0.49945717  0.25930319  0.22218441
   0.00070118  0.25910403  0.22229695
   0.24956005  0.23118446  0.05522187
   0.49996588  0.79602807  0.11062505
   0.00004795  0.46314434  0.11075956
   0.00148144  0.51889289  0.44418704
   0.25047156  0.87924021  0.61086857
   0.00060889  0.66660452  0.00005642
   0.75069806  0.62021065  0.72233708
   0.49987171  0.72231701  0.33324883
   0.24977592  0.95337616  0.72198204
   0.99984612  0.40807509  0.77767724
   0.00057451  0.44484722  0.66657068
   0.24951062  0.63913441  0.83335990
   0.74976410  0.21291290  0.61131276
   0.00123244  0.77750331  0.66675892
   0.24981463  0.82419287  0.27787219
   0.49921610  0.77812761  0.66632592
   0.50039648  0.74101011  0.77799603
   0.49961187  0.99884502  0.00020925
   0.50018019  0.07402668  0.77771020
   0.49998553  0.38865607  0.33350028
   0.00032032  0.92600454  0.22227583
   0.24911680  0.62062335  0.38924640
   0.49958214  0.66699700  0.00009621
   0.75027631  0.54711976  0.61084672
   0.75044206  0.87936447  0.61099059
   0.00020895  0.12951703  0.11064209
   0.24978244  0.97191868  0.83327210
   0.50091830  0.53741676  0.88965471
   0.99977438  0.87158037  0.88940521
   0.24996115  0.49034855  0.27777865
   0.49932172  0.64843571  0.55584123
   0.00061817  0.98157756  0.55566980
   0.50002708  0.44396409  0.66664702
   0.75033506  0.23121259  0.05540640
   0.50010698  0.18537233  0.44429934
   0.75008532  0.82402722  0.27785503
   0.75012042  0.15736873  0.27791346
   0.74989649  0.02762415  0.16652009
   0.99994881  0.53727745  0.88870233
   0.74858472  0.95469577  0.38904184
   0.50007465  0.86979331  0.88960418
   0.49984622  0.33398601 -0.00001194
   0.50027798  0.20382293  0.88896662
   0.00042892  0.72254939  0.33348658
   0.74923593  0.28680986  0.38920399
   0.49905075  0.85300343  0.44450071
   0.75047247  0.10189217  0.94441807
   0.75029444  0.95426852  0.72222256
   0.24955179  0.62022844  0.72187034
   0.24927061  0.95412154  0.38946399
   0.00048412  0.31485641  0.55582723
   0.49985817  0.12931005  0.11073992
   0.74950566  0.62025320  0.38901338
   0.74989740  0.76849183  0.94423989
   0.75022894  0.75022787  0.49986806
   0.24989517  0.30546280  0.83335507
   0.00073197  0.05531375  0.33332414
   0.50055529  0.59241390  0.22192072
   0.74981024  0.41642362  0.49997382
   0.50030633  0.40724060  0.77789458
   0.00030115  0.38875597  0.33332978
   0.25006595  0.36114717  0.16666462
   0.00045932  0.64811100  0.55569946
   0.74995897  0.49092435  0.27782790
   0.00340421  0.85211044  0.44433795
   0.99920445  0.20147064  0.88890214
   0.49981687  0.46351160  0.11084458
   0.25293316  0.08152060  0.49917682
   0.49758329  0.31346050  0.55567656
   0.25146827  0.28718787  0.72285639
   0.74988949  0.08315485  0.49996503
   0.99998007  0.00008007  0.99982532
   0.75036008  0.63922133  0.83372545
   0.75136949  0.28568544  0.72294655
   0.25013305  0.75122342  0.49987756
   0.25045806  0.76784644  0.94425391
   0.24927900  0.41521061  0.49945148
   0.00092896  0.33329209 -0.00002594
   0.99992977  0.79607067  0.11139155
   0.74872147  0.89922267  0.05574670
   0.50059382  0.05559727  0.33372472
   0.50088101  0.52019951  0.44396288
   0.74958925  0.30511949  0.83316606
   0.75005035  0.96949144  0.83346019
   0.00031881  0.59258040  0.22201885
   0.99868386  0.11022808  0.66706894
   0.74986852  0.56503242  0.05552698
   0.49967079  0.92561467  0.22224873
   0.74988295  0.36140548  0.16653114
   0.49572253  0.98256097  0.55527380
   0.25110623  0.89824592  0.05529159
   0.00126089  0.18486747  0.44427962
   0.25001601  0.02776995  0.16667484
   0.24836089  0.54928444  0.61063571
   0.25076309  0.21245480  0.61046120
   0.74754952  0.43557898  0.94452076
   0.25005873  0.56482815  0.05535490
   0.24941840  0.10178361  0.94481214
   0.25027455  0.69442612  0.16667689
   0.24944113  0.15831365  0.27779284
   0.99996294  0.73990786  0.77782331
   0.24935849  0.28631414  0.38956482
   0.99953975  0.07432735  0.77769073
   0.24980698  0.43552020  0.94484922
   0.74994366  0.69425696  0.16652675
   0.49965470  0.11209984  0.66653799
Direct configuration=    31
   0.49945717  0.25930319  0.22218441
   0.00070118  0.25910403  0.22229695
   0.24956005  0.23118446  0.05522187
   0.49996588  0.79602807  0.11062505
   0.00004795  0.46314434  0.11075956
   0.00148144  0.51889289  0.44418704
   0.25047156  0.87924021  0.61086857
   0.00060889  0.66660452  0.00005642
   0.75069806  0.62021065  0.72233708
   0.49987171  0.72231701  0.33324883
   0.24977592  0.95337616  0.72198204
   0.99984612  0.40807509  0.77767724
   0.00057451  0.44484722  0.66657068
   0.24951062  0.63913441  0.83335990
   0.74976410  0.21291290  0.61131276
   0.00123244  0.77750331  0.66675892
   0.24981463  0.82419287  0.27787219
   0.49921610  0.77812761  0.66632592
   0.50039648  0.74101011  0.77799603
   0.49961187  0.99884502  0.00020925
   0.50018019  0.07402668  0.77771020
   0.49998553  0.38865607  0.33350028
   0.00032032  0.92600454  0.22227583
   0.24911680  0.62062335  0.38924640
   0.49958214  0.66699700  0.00009621
   0.75027631  0.54711976  0.61084672
   0.75044206  0.87936447  0.61099059
   0.00020895  0.12951703  0.11064209
   0.24978244  0.97191868  0.83327210
   0.50091830  0.53741676  0.88965471
   0.99977438  0.87158037  0.88940521
   0.24996115  0.49034855  0.27777865
   0.49932172  0.64843571  0.55584123
   0.00061817  0.98157756  0.55566980
   0.50002708  0.44396409  0.66664702
   0.75033506  0.23121259  0.05540640
   0.50010698  0.18537233  0.44429934
   0.75008532  0.82402722  0.27785503
   0.75012042  0.15736873  0.27791346
   0.74989649  0.02762415  0.16652009
   0.99994881  0.53727745  0.88870233
   0.74858472  0.95469577  0.38904184
   0.50007465  0.86979331  0.88960418
   0.49984622  0.33398601 -0.00001194
   0.50027798  0.20382293  0.88896662
   0.00042892  0.72254939  0.33348658
   0.74923593  0.28680986  0.38920399
   0.49905075  0.85300343  0.44450071
   0.75047247  0.10189217  0.94441807
   0.75029444  0.95426852  0.72222256
   0.24955179  0.62022844  0.72187034
   0.24927061  0.95412154  0.38946399
   0.00048412  0.31485641  0.55582723
   0.49985817  0.12931005  0.11073992
   0.74950566  0.62025320  0.38901338
   0.74989740  0.76849183  0.94423989
   0.75022894  0.75022787  0.49986806
   0.24989517  0.30546280  0.83335507
   0.00073197  0.05531375  0.33332414
   0.50055529  0.59241390  0.22192072
   0.74981024  0.41642362  0.49997382
   0.50030633  0.40724060  0.77789458
   0.00030115  0.38875597  0.33332978
   0.25006595  0.36114717  0.16666462
   0.00045932  0.64811100  0.55569946
   0.74995897  0.49092435  0.27782790
   0.00340421  0.85211044  0.44433795
   0.99920445  0.20147064  0.88890214
   0.49981687  0.46351160  0.11084458
   0.25293316  0.08152060  0.49917682
   0.49758329  0.31346050  0.55567656
   0.25146827  0.28718787  0.72285639
   0.74988949  0.08315485  0.49996503
   0.99998007  0.00008007  0.99982532
   0.75036008  0.63922133  0.83372545
   0.75136949  0.28568544  0.72294655
   0.25013305  0.75122342  0.49987756
   0.25045806  0.76784644  0.94425391
   0.24927900  0.41521061  0.49945148
   0.00092896  0.33329209 -0.00002594
   0.99992977  0.79607067  0.11139155
   0.74872147  0.89922267  0.05574670
   0.50059382  0.05559727  0.33372472
   0.50088101  0.52019951  0.44396288
   0.74958925  0.30511949  0.83316606
   0.75005035  0.96949144  0.83346019
   0.00031881  0.59258040  0.22201885
   0.99868386  0.11022808  0.66706894
   0.74986852  0.56503242  0.05552698
   0.49967079  0.92561467  0.22224873
   0.74988295  0.36140548  0.16653114
   0.49572253  0.98256097  0.55527380
   0.25110623  0.89824592  0.05529159
   0.00126089  0.18486747  0.44427962
   0.25001601  0.02776995  0.16667484
   0.24836089  0.54928444  0.61063571
   0.25076309  0.21245480  0.61046120
   0.74754952  0.43557898  0.94452076
   0.25005873  0.56482815  0.05535490
   0.24941840  0.10178361  0.94481214
   0.25027455  0.69442612  0.16667689
   0.24944113  0.15831365  0.27779284
   0.99996294  0.73990786  0.77782331
   0.24935849  0.28631414  0.38956482
   0.99953975  0.07432735  0.77769073
   0.24980698  0.43552020  0.94484922
   0.74994366  0.69425696  0.16652675
   0.49965470  0.11209984  0.66653799
Direct configuration=    32
   0.49945717  0.25930319  0.22218441
   0.00070118  0.25910403  0.22229695
   0.24956005  0.23118446  0.05522187
   0.49996588  0.79602807  0.11062505
   0.00004795  0.46314434  0.11075956
   0.00148144  0.51889289  0.44418704
   0.25047156  0.87924021  0.61086857
   0.00060889  0.66660452  0.00005642
   0.75069806  0.62021065  0.72233708
   0.49987171  0.72231701  0.33324883
   0.24977592  0.95337616  0.72198204
   0.99984612  0.40807509  0.77767724
   0.00057451  0.44484722  0.66657068
   0.24951062  0.63913441  0.83335990
   0.74976410  0.21291290  0.61131276
   0.00123244  0.77750331  0.66675892
   0.24981463  0.82419287  0.27787219
   0.49921610  0.77812761  0.66632592
   0.50039648  0.74101011  0.77799603
   0.49961187  0.99884502  0.00020925
   0.50018019  0.07402668  0.77771020
   0.49998553  0.38865607  0.33350028
   0.00032032  0.92600454  0.22227583
   0.24911680  0.62062335  0.38924640
   0.49958214  0.66699700  0.00009621
   0.75027631  0.54711976  0.61084672
   0.75044206  0.87936447  0.61099059
   0.00020895  0.12951703  0.11064209
   0.24978244  0.97191868  0.83327210
   0.50091830  0.53741676  0.88965471
   0.99977438  0.87158037  0.88940521
   0.24996115  0.49034855  0.27777865
   0.49932172  0.64843571  0.55584123
   0.00061817  0.98157756  0.55566980
   0.50002708  0.44396409  0.66664702
   0.75033506  0.23121259  0.05540640
   0.50010698  0.18537233  0.44429934
   0.75008532  0.82402722  0.27785503
   0.75012042  0.15736873  0.27791346
   0.74989649  0.02762415  0.16652009
   0.99994881  0.53727745  0.88870233
   0.74858472  0.95469577  0.38904184
   0.50007465  0.86979331  0.88960418
   0.49984622  0.33398601 -0.00001194
   0.50027798  0.20382293  0.88896662
   0.00042892  0.72254939  0.33348658
   0.74923593  0.28680986  0.38920399
   0.49905075  0.85300343  0.44450071
   0.75047247  0.10189217  0.94441807
   0.75029444  0.95426852  0.72222256
   0.24955179  0.62022844  0.72187034
   0.24927061  0.95412154  0.38946399
   0.00048412  0.31485641  0.55582723
   0.49985817  0.12931005  0.11073992
   0.74950566  0.62025320  0.38901338
   0.74989740  0.76849183  0.94423989
   0.75022894  0.75022787  0.49986806
   0.24989517  0.30546280  0.83335507
   0.00073197  0.05531375  0.33332414
   0.50055529  0.59241390  0.22192072
   0.74981024  0.41642362  0.49997382
   0.50030633  0.40724060  0.77789458
   0.00030115  0.38875597  0.33332978
   0.25006595  0.36114717  0.16666462
   0.00045932  0.64811100  0.55569946
   0.74995897  0.49092435  0.27782790
   0.00340421  0.85211044  0.44433795
   0.99920445  0.20147064  0.88890214
   0.49981687  0.46351160  0.11084458
   0.25293316  0.08152060  0.49917682
   0.49758329  0.31346050  0.55567656
   0.25146827  0.28718787  0.72285639
   0.74988949  0.08315485  0.49996503
   0.99998007  0.00008007  0.99982532
   0.75036008  0.63922133  0.83372545
   0.75136949  0.28568544  0.72294655
   0.25013305  0.75122342  0.49987756
   0.25045806  0.76784644  0.94425391
   0.24927900  0.41521061  0.49945148
   0.00092896  0.33329209 -0.00002594
   0.99992977  0.79607067  0.11139155
   0.74872147  0.89922267  0.05574670
   0.50059382  0.05559727  0.33372472
   0.50088101  0.52019951  0.44396288
   0.74958925  0.30511949  0.83316606
   0.75005035  0.96949144  0.83346019
   0.00031881  0.59258040  0.22201885
   0.99868386  0.11022808  0.66706894
   0.74986852  0.56503242  0.05552698
   0.49967079  0.92561467  0.22224873
   0.74988295  0.36140548  0.16653114
   0.49572253  0.98256097  0.55527380
   0.25110623  0.89824592  0.05529159
   0.00126089  0.18486747  0.44427962
   0.25001601  0.02776995  0.16667484
   0.24836089  0.54928444  0.61063571
   0.25076309  0.21245480  0.61046120
   0.74754952  0.43557898  0.94452076
   0.25005873  0.56482815  0.05535490
   0.24941840  0.10178361  0.94481214
   0.25027455  0.69442612  0.16667689
   0.24944113  0.15831365  0.27779284
   0.99996294  0.73990786  0.77782331
   0.24935849  0.28631414  0.38956482
   0.99953975  0.07432735  0.77769073
   0.24980698  0.43552020  0.94484922
   0.74994366  0.69425696  0.16652675
   0.49965470  0.11209984  0.66653799
Direct configuration=    33
   0.49945717  0.25930319  0.22218441
   0.00070118  0.25910403  0.22229695
   0.24956005  0.23118446  0.05522187
   0.49996588  0.79602807  0.11062505
   0.00004795  0.46314434  0.11075956
   0.00148144  0.51889289  0.44418704
   0.25047156  0.87924021  0.61086857
   0.00060889  0.66660452  0.00005642
   0.75069806  0.62021065  0.72233708
   0.49987171  0.72231701  0.33324883
   0.24977592  0.95337616  0.72198204
   0.99984612  0.40807509  0.77767724
   0.00057451  0.44484722  0.66657068
   0.24951062  0.63913441  0.83335990
   0.74976410  0.21291290  0.61131276
   0.00123244  0.77750331  0.66675892
   0.24981463  0.82419287  0.27787219
   0.49921610  0.77812761  0.66632592
   0.50039648  0.74101011  0.77799603
   0.49961187  0.99884502  0.00020925
   0.50018019  0.07402668  0.77771020
   0.49998553  0.38865607  0.33350028
   0.00032032  0.92600454  0.22227583
   0.24911680  0.62062335  0.38924640
   0.49958214  0.66699700  0.00009621
   0.75027631  0.54711976  0.61084672
   0.75044206  0.87936447  0.61099059
   0.00020895  0.12951703  0.11064209
   0.24978244  0.97191868  0.83327210
   0.50091830  0.53741676  0.88965471
   0.99977438  0.87158037  0.88940521
   0.24996115  0.49034855  0.27777865
   0.49932172  0.64843571  0.55584123
   0.00061817  0.98157756  0.55566980
   0.50002708  0.44396409  0.66664702
   0.75033506  0.23121259  0.05540640
   0.50010698  0.18537233  0.44429934
   0.75008532  0.82402722  0.27785503
   0.75012042  0.15736873  0.27791346
   0.74989649  0.02762415  0.16652009
   0.99994881  0.53727745  0.88870233
   0.74858472  0.95469577  0.38904184
   0.50007465  0.86979331  0.88960418
   0.49984622  0.33398601 -0.00001194
   0.50027798  0.20382293  0.88896662
   0.00042892  0.72254939  0.33348658
   0.74923593  0.28680986  0.38920399
   0.49905075  0.85300343  0.44450071
   0.75047247  0.10189217  0.94441807
   0.75029444  0.95426852  0.72222256
   0.24955179  0.62022844  0.72187034
   0.24927061  0.95412154  0.38946399
   0.00048412  0.31485641  0.55582723
   0.49985817  0.12931005  0.11073992
   0.74950566  0.62025320  0.38901338
   0.74989740  0.76849183  0.94423989
   0.75022894  0.75022787  0.49986806
   0.24989517  0.30546280  0.83335507
   0.00073197  0.05531375  0.33332414
   0.50055529  0.59241390  0.22192072
   0.74981024  0.41642362  0.49997382
   0.50030633  0.40724060  0.77789458
   0.00030115  0.38875597  0.33332978
   0.25006595  0.36114717  0.16666462
   0.00045932  0.64811100  0.55569946
   0.74995897  0.49092435  0.27782790
   0.00340421  0.85211044  0.44433795
   0.99920445  0.20147064  0.88890214
   0.49981687  0.46351160  0.11084458
   0.25293316  0.08152060  0.49917682
   0.49758329  0.31346050  0.55567656
   0.25146827  0.28718787  0.72285639
   0.74988949  0.08315485  0.49996503
   0.99998007  0.00008007  0.99982532
   0.75036008  0.63922133  0.83372545
   0.75136949  0.28568544  0.72294655
   0.25013305  0.75122342  0.49987756
   0.25045806  0.76784644  0.94425391
   0.24927900  0.41521061  0.49945148
   0.00092896  0.33329209 -0.00002594
   0.99992977  0.79607067  0.11139155
   0.74872147  0.89922267  0.05574670
   0.50059382  0.05559727  0.33372472
   0.50088101  0.52019951  0.44396288
   0.74958925  0.30511949  0.83316606
   0.75005035  0.96949144  0.83346019
   0.00031881  0.59258040  0.22201885
   0.99868386  0.11022808  0.66706894
   0.74986852  0.56503242  0.05552698
   0.49967079  0.92561467  0.22224873
   0.74988295  0.36140548  0.16653114
   0.49572253  0.98256097  0.55527380
   0.25110623  0.89824592  0.05529159
   0.00126089  0.18486747  0.44427962
   0.25001601  0.02776995  0.16667484
   0.24836089  0.54928444  0.61063571
   0.25076309  0.21245480  0.61046120
   0.74754952  0.43557898  0.94452076
   0.25005873  0.56482815  0.05535490
   0.24941840  0.10178361  0.94481214
   0.25027455  0.69442612  0.16667689
   0.24944113  0.15831365  0.27779284
   0.99996294  0.73990786  0.77782331
   0.24935849  0.28631414  0.38956482
   0.99953975  0.07432735  0.77769073
   0.24980698  0.43552020  0.94484922
   0.74994366  0.69425696  0.16652675
   0.49965470  0.11209984  0.66653799
Direct configuration=    34
   0.49945717  0.25930319  0.22218441
   0.00070118  0.25910403  0.22229695
   0.24956005  0.23118446  0.05522187
   0.49996588  0.79602807  0.11062505
   0.00004795  0.46314434  0.11075956
   0.00148144  0.51889289  0.44418704
   0.25047156  0.87924021  0.61086857
   0.00060889  0.66660452  0.00005642
   0.75069806  0.62021065  0.72233708
   0.49987171  0.72231701  0.33324883
   0.24977592  0.95337616  0.72198204
   0.99984612  0.40807509  0.77767724
   0.00057451  0.44484722  0.66657068
   0.24951062  0.63913441  0.83335990
   0.74976410  0.21291290  0.61131276
   0.00123244  0.77750331  0.66675892
   0.24981463  0.82419287  0.27787219
   0.49921610  0.77812761  0.66632592
   0.50039648  0.74101011  0.77799603
   0.49961187  0.99884502  0.00020925
   0.50018019  0.07402668  0.77771020
   0.49998553  0.38865607  0.33350028
   0.00032032  0.92600454  0.22227583
   0.24911680  0.62062335  0.38924640
   0.49958214  0.66699700  0.00009621
   0.75027631  0.54711976  0.61084672
   0.75044206  0.87936447  0.61099059
   0.00020895  0.12951703  0.11064209
   0.24978244  0.97191868  0.83327210
   0.50091830  0.53741676  0.88965471
   0.99977438  0.87158037  0.88940521
   0.24996115  0.49034855  0.27777865
   0.49932172  0.64843571  0.55584123
   0.00061817  0.98157756  0.55566980
   0.50002708  0.44396409  0.66664702
   0.75033506  0.23121259  0.05540640
   0.50010698  0.18537233  0.44429934
   0.75008532  0.82402722  0.27785503
   0.75012042  0.15736873  0.27791346
   0.74989649  0.02762415  0.16652009
   0.99994881  0.53727745  0.88870233
   0.74858472  0.95469577  0.38904184
   0.50007465  0.86979331  0.88960418
   0.49984622  0.33398601 -0.00001194
   0.50027798  0.20382293  0.88896662
   0.00042892  0.72254939  0.33348658
   0.74923593  0.28680986  0.38920399
   0.49905075  0.85300343  0.44450071
   0.75047247  0.10189217  0.94441807
   0.75029444  0.95426852  0.72222256
   0.24955179  0.62022844  0.72187034
   0.24927061  0.95412154  0.38946399
   0.00048412  0.31485641  0.55582723
   0.49985817  0.12931005  0.11073992
   0.74950566  0.62025320  0.38901338
   0.74989740  0.76849183  0.94423989
   0.75022894  0.75022787  0.49986806
   0.24989517  0.30546280  0.83335507
   0.00073197  0.05531375  0.33332414
   0.50055529  0.59241390  0.22192072
   0.74981024  0.41642362  0.49997382
   0.50030633  0.40724060  0.77789458
   0.00030115  0.38875597  0.33332978
   0.25006595  0.36114717  0.16666462
   0.00045932  0.64811100  0.55569946
   0.74995897  0.49092435  0.27782790
   0.00340421  0.85211044  0.44433795
   0.99920445  0.20147064  0.88890214
   0.49981687  0.46351160  0.11084458
   0.25293316  0.08152060  0.49917682
   0.49758329  0.31346050  0.55567656
   0.25146827  0.28718787  0.72285639
   0.74988949  0.08315485  0.49996503
   0.99998007  0.00008007  0.99982532
   0.75036008  0.63922133  0.83372545
   0.75136949  0.28568544  0.72294655
   0.25013305  0.75122342  0.49987756
   0.25045806  0.76784644  0.94425391
   0.24927900  0.41521061  0.49945148
   0.00092896  0.33329209 -0.00002594
   0.99992977  0.79607067  0.11139155
   0.74872147  0.89922267  0.05574670
   0.50059382  0.05559727  0.33372472
   0.50088101  0.52019951  0.44396288
   0.74958925  0.30511949  0.83316606
   0.75005035  0.96949144  0.83346019
   0.00031881  0.59258040  0.22201885
   0.99868386  0.11022808  0.66706894
   0.74986852  0.56503242  0.05552698
   0.49967079  0.92561467  0.22224873
   0.74988295  0.36140548  0.16653114
   0.49572253  0.98256097  0.55527380
   0.25110623  0.89824592  0.05529159
   0.00126089  0.18486747  0.44427962
   0.25001601  0.02776995  0.16667484
   0.24836089  0.54928444  0.61063571
   0.25076309  0.21245480  0.61046120
   0.74754952  0.43557898  0.94452076
   0.25005873  0.56482815  0.05535490
   0.24941840  0.10178361  0.94481214
   0.25027455  0.69442612  0.16667689
   0.24944113  0.15831365  0.27779284
   0.99996294  0.73990786  0.77782331
   0.24935849  0.28631414  0.38956482
   0.99953975  0.07432735  0.77769073
   0.24980698  0.43552020  0.94484922
   0.74994366  0.69425696  0.16652675
   0.49965470  0.11209984  0.66653799
Direct configuration=    35
   0.49945717  0.25930319  0.22218441
   0.00070118  0.25910403  0.22229695
   0.24956005  0.23118446  0.05522187
   0.49996588  0.79602807  0.11062505
   0.00004795  0.46314434  0.11075956
   0.00148144  0.51889289  0.44418704
   0.25047156  0.87924021  0.61086857
   0.00060889  0.66660452  0.00005642
   0.75069806  0.62021065  0.72233708
   0.49987171  0.72231701  0.33324883
   0.24977592  0.95337616  0.72198204
   0.99984612  0.40807509  0.77767724
   0.00057451  0.44484722  0.66657068
   0.24951062  0.63913441  0.83335990
   0.74976410  0.21291290  0.61131276
   0.00123244  0.77750331  0.66675892
   0.24981463  0.82419287  0.27787219
   0.49921610  0.77812761  0.66632592
   0.50039648  0.74101011  0.77799603
   0.49961187  0.99884502  0.00020925
   0.50018019  0.07402668  0.77771020
   0.49998553  0.38865607  0.33350028
   0.00032032  0.92600454  0.22227583
   0.24911680  0.62062335  0.38924640
   0.49958214  0.66699700  0.00009621
   0.75027631  0.54711976  0.61084672
   0.75044206  0.87936447  0.61099059
   0.00020895  0.12951703  0.11064209
   0.24978244  0.97191868  0.83327210
   0.50091830  0.53741676  0.88965471
   0.99977438  0.87158037  0.88940521
   0.24996115  0.49034855  0.27777865
   0.49932172  0.64843571  0.55584123
   0.00061817  0.98157756  0.55566980
   0.50002708  0.44396409  0.66664702
   0.75033506  0.23121259  0.05540640
   0.50010698  0.18537233  0.44429934
   0.75008532  0.82402722  0.27785503
   0.75012042  0.15736873  0.27791346
   0.74989649  0.02762415  0.16652009
   0.99994881  0.53727745  0.88870233
   0.74858472  0.95469577  0.38904184
   0.50007465  0.86979331  0.88960418
   0.49984622  0.33398601 -0.00001194
   0.50027798  0.20382293  0.88896662
   0.00042892  0.72254939  0.33348658
   0.74923593  0.28680986  0.38920399
   0.49905075  0.85300343  0.44450071
   0.75047247  0.10189217  0.94441807
   0.75029444  0.95426852  0.72222256
   0.24955179  0.62022844  0.72187034
   0.24927061  0.95412154  0.38946399
   0.00048412  0.31485641  0.55582723
   0.49985817  0.12931005  0.11073992
   0.74950566  0.62025320  0.38901338
   0.74989740  0.76849183  0.94423989
   0.75022894  0.75022787  0.49986806
   0.24989517  0.30546280  0.83335507
   0.00073197  0.05531375  0.33332414
   0.50055529  0.59241390  0.22192072
   0.74981024  0.41642362  0.49997382
   0.50030633  0.40724060  0.77789458
   0.00030115  0.38875597  0.33332978
   0.25006595  0.36114717  0.16666462
   0.00045932  0.64811100  0.55569946
   0.74995897  0.49092435  0.27782790
   0.00340421  0.85211044  0.44433795
   0.99920445  0.20147064  0.88890214
   0.49981687  0.46351160  0.11084458
   0.25293316  0.08152060  0.49917682
   0.49758329  0.31346050  0.55567656
   0.25146827  0.28718787  0.72285639
   0.74988949  0.08315485  0.49996503
   0.99998007  0.00008007  0.99982532
   0.75036008  0.63922133  0.83372545
   0.75136949  0.28568544  0.72294655
   0.25013305  0.75122342  0.49987756
   0.25045806  0.76784644  0.94425391
   0.24927900  0.41521061  0.49945148
   0.00092896  0.33329209 -0.00002594
   0.99992977  0.79607067  0.11139155
   0.74872147  0.89922267  0.05574670
   0.50059382  0.05559727  0.33372472
   0.50088101  0.52019951  0.44396288
   0.74958925  0.30511949  0.83316606
   0.75005035  0.96949144  0.83346019
   0.00031881  0.59258040  0.22201885
   0.99868386  0.11022808  0.66706894
   0.74986852  0.56503242  0.05552698
   0.49967079  0.92561467  0.22224873
   0.74988295  0.36140548  0.16653114
   0.49572253  0.98256097  0.55527380
   0.25110623  0.89824592  0.05529159
   0.00126089  0.18486747  0.44427962
   0.25001601  0.02776995  0.16667484
   0.24836089  0.54928444  0.61063571
   0.25076309  0.21245480  0.61046120
   0.74754952  0.43557898  0.94452076
   0.25005873  0.56482815  0.05535490
   0.24941840  0.10178361  0.94481214
   0.25027455  0.69442612  0.16667689
   0.24944113  0.15831365  0.27779284
   0.99996294  0.73990786  0.77782331
   0.24935849  0.28631414  0.38956482
   0.99953975  0.07432735  0.77769073
   0.24980698  0.43552020  0.94484922
   0.74994366  0.69425696  0.16652675
   0.49965470  0.11209984  0.66653799
Direct configuration=    36
   0.49945717  0.25930319  0.22218441
   0.00070118  0.25910403  0.22229695
   0.24956005  0.23118446  0.05522187
   0.49996588  0.79602807  0.11062505
   0.00004795  0.46314434  0.11075956
   0.00148144  0.51889289  0.44418704
   0.25047156  0.87924021  0.61086857
   0.00060889  0.66660452  0.00005642
   0.75069806  0.62021065  0.72233708
   0.49987171  0.72231701  0.33324883
   0.24977592  0.95337616  0.72198204
   0.99984612  0.40807509  0.77767724
   0.00057451  0.44484722  0.66657068
   0.24951062  0.63913441  0.83335990
   0.74976410  0.21291290  0.61131276
   0.00123244  0.77750331  0.66675892
   0.24981463  0.82419287  0.27787219
   0.49921610  0.77812761  0.66632592
   0.50039648  0.74101011  0.77799603
   0.49961187  0.99884502  0.00020925
   0.50018019  0.07402668  0.77771020
   0.49998553  0.38865607  0.33350028
   0.00032032  0.92600454  0.22227583
   0.24911680  0.62062335  0.38924640
   0.49958214  0.66699700  0.00009621
   0.75027631  0.54711976  0.61084672
   0.75044206  0.87936447  0.61099059
   0.00020895  0.12951703  0.11064209
   0.24978244  0.97191868  0.83327210
   0.50091830  0.53741676  0.88965471
   0.99977438  0.87158037  0.88940521
   0.24996115  0.49034855  0.27777865
   0.49932172  0.64843571  0.55584123
   0.00061817  0.98157756  0.55566980
   0.50002708  0.44396409  0.66664702
   0.75033506  0.23121259  0.05540640
   0.50010698  0.18537233  0.44429934
   0.75008532  0.82402722  0.27785503
   0.75012042  0.15736873  0.27791346
   0.74989649  0.02762415  0.16652009
   0.99994881  0.53727745  0.88870233
   0.74858472  0.95469577  0.38904184
   0.50007465  0.86979331  0.88960418
   0.49984622  0.33398601 -0.00001194
   0.50027798  0.20382293  0.88896662
   0.00042892  0.72254939  0.33348658
   0.74923593  0.28680986  0.38920399
   0.49905075  0.85300343  0.44450071
   0.75047247  0.10189217  0.94441807
   0.75029444  0.95426852  0.72222256
   0.24955179  0.62022844  0.72187034
   0.24927061  0.95412154  0.38946399
   0.00048412  0.31485641  0.55582723
   0.49985817  0.12931005  0.11073992
   0.74950566  0.62025320  0.38901338
   0.74989740  0.76849183  0.94423989
   0.75022894  0.75022787  0.49986806
   0.24989517  0.30546280  0.83335507
   0.00073197  0.05531375  0.33332414
   0.50055529  0.59241390  0.22192072
   0.74981024  0.41642362  0.49997382
   0.50030633  0.40724060  0.77789458
   0.00030115  0.38875597  0.33332978
   0.25006595  0.36114717  0.16666462
   0.00045932  0.64811100  0.55569946
   0.74995897  0.49092435  0.27782790
   0.00340421  0.85211044  0.44433795
   0.99920445  0.20147064  0.88890214
   0.49981687  0.46351160  0.11084458
   0.25293316  0.08152060  0.49917682
   0.49758329  0.31346050  0.55567656
   0.25146827  0.28718787  0.72285639
   0.74988949  0.08315485  0.49996503
   0.99998007  0.00008007  0.99982532
   0.75036008  0.63922133  0.83372545
   0.75136949  0.28568544  0.72294655
   0.25013305  0.75122342  0.49987756
   0.25045806  0.76784644  0.94425391
   0.24927900  0.41521061  0.49945148
   0.00092896  0.33329209 -0.00002594
   0.99992977  0.79607067  0.11139155
   0.74872147  0.89922267  0.05574670
   0.50059382  0.05559727  0.33372472
   0.50088101  0.52019951  0.44396288
   0.74958925  0.30511949  0.83316606
   0.75005035  0.96949144  0.83346019
   0.00031881  0.59258040  0.22201885
   0.99868386  0.11022808  0.66706894
   0.74986852  0.56503242  0.05552698
   0.49967079  0.92561467  0.22224873
   0.74988295  0.36140548  0.16653114
   0.49572253  0.98256097  0.55527380
   0.25110623  0.89824592  0.05529159
   0.00126089  0.18486747  0.44427962
   0.25001601  0.02776995  0.16667484
   0.24836089  0.54928444  0.61063571
   0.25076309  0.21245480  0.61046120
   0.74754952  0.43557898  0.94452076
   0.25005873  0.56482815  0.05535490
   0.24941840  0.10178361  0.94481214
   0.25027455  0.69442612  0.16667689
   0.24944113  0.15831365  0.27779284
   0.99996294  0.73990786  0.77782331
   0.24935849  0.28631414  0.38956482
   0.99953975  0.07432735  0.77769073
   0.24980698  0.43552020  0.94484922
   0.74994366  0.69425696  0.16652675
   0.49965470  0.11209984  0.66653799
Direct configuration=    37
   0.49945717  0.25930319  0.22218441
   0.00070118  0.25910403  0.22229695
   0.24956005  0.23118446  0.05522187
   0.49996588  0.79602807  0.11062505
   0.00004795  0.46314434  0.11075956
   0.00148144  0.51889289  0.44418704
   0.25047156  0.87924021  0.61086857
   0.00060889  0.66660452  0.00005642
   0.75069806  0.62021065  0.72233708
   0.49987171  0.72231701  0.33324883
   0.24977592  0.95337616  0.72198204
   0.99984612  0.40807509  0.77767724
   0.00057451  0.44484722  0.66657068
   0.24951062  0.63913441  0.83335990
   0.74976410  0.21291290  0.61131276
   0.00123244  0.77750331  0.66675892
   0.24981463  0.82419287  0.27787219
   0.49921610  0.77812761  0.66632592
   0.50039648  0.74101011  0.77799603
   0.49961187  0.99884502  0.00020925
   0.50018019  0.07402668  0.77771020
   0.49998553  0.38865607  0.33350028
   0.00032032  0.92600454  0.22227583
   0.24911680  0.62062335  0.38924640
   0.49958214  0.66699700  0.00009621
   0.75027631  0.54711976  0.61084672
   0.75044206  0.87936447  0.61099059
   0.00020895  0.12951703  0.11064209
   0.24978244  0.97191868  0.83327210
   0.50091830  0.53741676  0.88965471
   0.99977438  0.87158037  0.88940521
   0.24996115  0.49034855  0.27777865
   0.49932172  0.64843571  0.55584123
   0.00061817  0.98157756  0.55566980
   0.50002708  0.44396409  0.66664702
   0.75033506  0.23121259  0.05540640
   0.50010698  0.18537233  0.44429934
   0.75008532  0.82402722  0.27785503
   0.75012042  0.15736873  0.27791346
   0.74989649  0.02762415  0.16652009
   0.99994881  0.53727745  0.88870233
   0.74858472  0.95469577  0.38904184
   0.50007465  0.86979331  0.88960418
   0.49984622  0.33398601 -0.00001194
   0.50027798  0.20382293  0.88896662
   0.00042892  0.72254939  0.33348658
   0.74923593  0.28680986  0.38920399
   0.49905075  0.85300343  0.44450071
   0.75047247  0.10189217  0.94441807
   0.75029444  0.95426852  0.72222256
   0.24955179  0.62022844  0.72187034
   0.24927061  0.95412154  0.38946399
   0.00048412  0.31485641  0.55582723
   0.49985817  0.12931005  0.11073992
   0.74950566  0.62025320  0.38901338
   0.74989740  0.76849183  0.94423989
   0.75022894  0.75022787  0.49986806
   0.24989517  0.30546280  0.83335507
   0.00073197  0.05531375  0.33332414
   0.50055529  0.59241390  0.22192072
   0.74981024  0.41642362  0.49997382
   0.50030633  0.40724060  0.77789458
   0.00030115  0.38875597  0.33332978
   0.25006595  0.36114717  0.16666462
   0.00045932  0.64811100  0.55569946
   0.74995897  0.49092435  0.27782790
   0.00340421  0.85211044  0.44433795
   0.99920445  0.20147064  0.88890214
   0.49981687  0.46351160  0.11084458
   0.25293316  0.08152060  0.49917682
   0.49758329  0.31346050  0.55567656
   0.25146827  0.28718787  0.72285639
   0.74988949  0.08315485  0.49996503
   0.99998007  0.00008007  0.99982532
   0.75036008  0.63922133  0.83372545
   0.75136949  0.28568544  0.72294655
   0.25013305  0.75122342  0.49987756
   0.25045806  0.76784644  0.94425391
   0.24927900  0.41521061  0.49945148
   0.00092896  0.33329209 -0.00002594
   0.99992977  0.79607067  0.11139155
   0.74872147  0.89922267  0.05574670
   0.50059382  0.05559727  0.33372472
   0.50088101  0.52019951  0.44396288
   0.74958925  0.30511949  0.83316606
   0.75005035  0.96949144  0.83346019
   0.00031881  0.59258040  0.22201885
   0.99868386  0.11022808  0.66706894
   0.74986852  0.56503242  0.05552698
   0.49967079  0.92561467  0.22224873
   0.74988295  0.36140548  0.16653114
   0.49572253  0.98256097  0.55527380
   0.25110623  0.89824592  0.05529159
   0.00126089  0.18486747  0.44427962
   0.25001601  0.02776995  0.16667484
   0.24836089  0.54928444  0.61063571
   0.25076309  0.21245480  0.61046120
   0.74754952  0.43557898  0.94452076
   0.25005873  0.56482815  0.05535490
   0.24941840  0.10178361  0.94481214
   0.25027455  0.69442612  0.16667689
   0.24944113  0.15831365  0.27779284
   0.99996294  0.73990786  0.77782331
   0.24935849  0.28631414  0.38956482
   0.99953975  0.07432735  0.77769073
   0.24980698  0.43552020  0.94484922
   0.74994366  0.69425696  0.16652675
   0.49965470  0.11209984  0.66653799
Direct configuration=    38
   0.49945717  0.25930319  0.22218441
   0.00070118  0.25910403  0.22229695
   0.24956005  0.23118446  0.05522187
   0.49996588  0.79602807  0.11062505
   0.00004795  0.46314434  0.11075956
   0.00148144  0.51889289  0.44418704
   0.25047156  0.87924021  0.61086857
   0.00060889  0.66660452  0.00005642
   0.75069806  0.62021065  0.72233708
   0.49987171  0.72231701  0.33324883
   0.24977592  0.95337616  0.72198204
   0.99984612  0.40807509  0.77767724
   0.00057451  0.44484722  0.66657068
   0.24951062  0.63913441  0.83335990
   0.74976410  0.21291290  0.61131276
   0.00123244  0.77750331  0.66675892
   0.24981463  0.82419287  0.27787219
   0.49921610  0.77812761  0.66632592
   0.50039648  0.74101011  0.77799603
   0.49961187  0.99884502  0.00020925
   0.50018019  0.07402668  0.77771020
   0.49998553  0.38865607  0.33350028
   0.00032032  0.92600454  0.22227583
   0.24911680  0.62062335  0.38924640
   0.49958214  0.66699700  0.00009621
   0.75027631  0.54711976  0.61084672
   0.75044206  0.87936447  0.61099059
   0.00020895  0.12951703  0.11064209
   0.24978244  0.97191868  0.83327210
   0.50091830  0.53741676  0.88965471
   0.99977438  0.87158037  0.88940521
   0.24996115  0.49034855  0.27777865
   0.49932172  0.64843571  0.55584123
   0.00061817  0.98157756  0.55566980
   0.50002708  0.44396409  0.66664702
   0.75033506  0.23121259  0.05540640
   0.50010698  0.18537233  0.44429934
   0.75008532  0.82402722  0.27785503
   0.75012042  0.15736873  0.27791346
   0.74989649  0.02762415  0.16652009
   0.99994881  0.53727745  0.88870233
   0.74858472  0.95469577  0.38904184
   0.50007465  0.86979331  0.88960418
   0.49984622  0.33398601 -0.00001194
   0.50027798  0.20382293  0.88896662
   0.00042892  0.72254939  0.33348658
   0.74923593  0.28680986  0.38920399
   0.49905075  0.85300343  0.44450071
   0.75047247  0.10189217  0.94441807
   0.75029444  0.95426852  0.72222256
   0.24955179  0.62022844  0.72187034
   0.24927061  0.95412154  0.38946399
   0.00048412  0.31485641  0.55582723
   0.49985817  0.12931005  0.11073992
   0.74950566  0.62025320  0.38901338
   0.74989740  0.76849183  0.94423989
   0.75022894  0.75022787  0.49986806
   0.24989517  0.30546280  0.83335507
   0.00073197  0.05531375  0.33332414
   0.50055529  0.59241390  0.22192072
   0.74981024  0.41642362  0.49997382
   0.50030633  0.40724060  0.77789458
   0.00030115  0.38875597  0.33332978
   0.25006595  0.36114717  0.16666462
   0.00045932  0.64811100  0.55569946
   0.74995897  0.49092435  0.27782790
   0.00340421  0.85211044  0.44433795
   0.99920445  0.20147064  0.88890214
   0.49981687  0.46351160  0.11084458
   0.25293316  0.08152060  0.49917682
   0.49758329  0.31346050  0.55567656
   0.25146827  0.28718787  0.72285639
   0.74988949  0.08315485  0.49996503
   0.99998007  0.00008007  0.99982532
   0.75036008  0.63922133  0.83372545
   0.75136949  0.28568544  0.72294655
   0.25013305  0.75122342  0.49987756
   0.25045806  0.76784644  0.94425391
   0.24927900  0.41521061  0.49945148
   0.00092896  0.33329209 -0.00002594
   0.99992977  0.79607067  0.11139155
   0.74872147  0.89922267  0.05574670
   0.50059382  0.05559727  0.33372472
   0.50088101  0.52019951  0.44396288
   0.74958925  0.30511949  0.83316606
   0.75005035  0.96949144  0.83346019
   0.00031881  0.59258040  0.22201885
   0.99868386  0.11022808  0.66706894
   0.74986852  0.56503242  0.05552698
   0.49967079  0.92561467  0.22224873
   0.74988295  0.36140548  0.16653114
   0.49572253  0.98256097  0.55527380
   0.25110623  0.89824592  0.05529159
   0.00126089  0.18486747  0.44427962
   0.25001601  0.02776995  0.16667484
   0.24836089  0.54928444  0.61063571
   0.25076309  0.21245480  0.61046120
   0.74754952  0.43557898  0.94452076
   0.25005873  0.56482815  0.05535490
   0.24941840  0.10178361  0.94481214
   0.25027455  0.69442612  0.16667689
   0.24944113  0.15831365  0.27779284
   0.99996294  0.73990786  0.77782331
   0.24935849  0.28631414  0.38956482
   0.99953975  0.07432735  0.77769073
   0.24980698  0.43552020  0.94484922
   0.74994366  0.69425696  0.16652675
   0.49965470  0.11209984  0.66653799
Direct configuration=    39
   0.49945717  0.25930319  0.22218441
   0.00070118  0.25910403  0.22229695
   0.24956005  0.23118446  0.05522187
   0.49996588  0.79602807  0.11062505
   0.00004795  0.46314434  0.11075956
   0.00148144  0.51889289  0.44418704
   0.25047156  0.87924021  0.61086857
   0.00060889  0.66660452  0.00005642
   0.75069806  0.62021065  0.72233708
   0.49987171  0.72231701  0.33324883
   0.24977592  0.95337616  0.72198204
   0.99984612  0.40807509  0.77767724
   0.00057451  0.44484722  0.66657068
   0.24951062  0.63913441  0.83335990
   0.74976410  0.21291290  0.61131276
   0.00123244  0.77750331  0.66675892
   0.24981463  0.82419287  0.27787219
   0.49921610  0.77812761  0.66632592
   0.50039648  0.74101011  0.77799603
   0.49961187  0.99884502  0.00020925
   0.50018019  0.07402668  0.77771020
   0.49998553  0.38865607  0.33350028
   0.00032032  0.92600454  0.22227583
   0.24911680  0.62062335  0.38924640
   0.49958214  0.66699700  0.00009621
   0.75027631  0.54711976  0.61084672
   0.75044206  0.87936447  0.61099059
   0.00020895  0.12951703  0.11064209
   0.24978244  0.97191868  0.83327210
   0.50091830  0.53741676  0.88965471
   0.99977438  0.87158037  0.88940521
   0.24996115  0.49034855  0.27777865
   0.49932172  0.64843571  0.55584123
   0.00061817  0.98157756  0.55566980
   0.50002708  0.44396409  0.66664702
   0.75033506  0.23121259  0.05540640
   0.50010698  0.18537233  0.44429934
   0.75008532  0.82402722  0.27785503
   0.75012042  0.15736873  0.27791346
   0.74989649  0.02762415  0.16652009
   0.99994881  0.53727745  0.88870233
   0.74858472  0.95469577  0.38904184
   0.50007465  0.86979331  0.88960418
   0.49984622  0.33398601 -0.00001194
   0.50027798  0.20382293  0.88896662
   0.00042892  0.72254939  0.33348658
   0.74923593  0.28680986  0.38920399
   0.49905075  0.85300343  0.44450071
   0.75047247  0.10189217  0.94441807
   0.75029444  0.95426852  0.72222256
   0.24955179  0.62022844  0.72187034
   0.24927061  0.95412154  0.38946399
   0.00048412  0.31485641  0.55582723
   0.49985817  0.12931005  0.11073992
   0.74950566  0.62025320  0.38901338
   0.74989740  0.76849183  0.94423989
   0.75022894  0.75022787  0.49986806
   0.24989517  0.30546280  0.83335507
   0.00073197  0.05531375  0.33332414
   0.50055529  0.59241390  0.22192072
   0.74981024  0.41642362  0.49997382
   0.50030633  0.40724060  0.77789458
   0.00030115  0.38875597  0.33332978
   0.25006595  0.36114717  0.16666462
   0.00045932  0.64811100  0.55569946
   0.74995897  0.49092435  0.27782790
   0.00340421  0.85211044  0.44433795
   0.99920445  0.20147064  0.88890214
   0.49981687  0.46351160  0.11084458
   0.25293316  0.08152060  0.49917682
   0.49758329  0.31346050  0.55567656
   0.25146827  0.28718787  0.72285639
   0.74988949  0.08315485  0.49996503
   0.99998007  0.00008007  0.99982532
   0.75036008  0.63922133  0.83372545
   0.75136949  0.28568544  0.72294655
   0.25013305  0.75122342  0.49987756
   0.25045806  0.76784644  0.94425391
   0.24927900  0.41521061  0.49945148
   0.00092896  0.33329209 -0.00002594
   0.99992977  0.79607067  0.11139155
   0.74872147  0.89922267  0.05574670
   0.50059382  0.05559727  0.33372472
   0.50088101  0.52019951  0.44396288
   0.74958925  0.30511949  0.83316606
   0.75005035  0.96949144  0.83346019
   0.00031881  0.59258040  0.22201885
   0.99868386  0.11022808  0.66706894
   0.74986852  0.56503242  0.05552698
   0.49967079  0.92561467  0.22224873
   0.74988295  0.36140548  0.16653114
   0.49572253  0.98256097  0.55527380
   0.25110623  0.89824592  0.05529159
   0.00126089  0.18486747  0.44427962
   0.25001601  0.02776995  0.16667484
   0.24836089  0.54928444  0.61063571
   0.25076309  0.21245480  0.61046120
   0.74754952  0.43557898  0.94452076
   0.25005873  0.56482815  0.05535490
   0.24941840  0.10178361  0.94481214
   0.25027455  0.69442612  0.16667689
   0.24944113  0.15831365  0.27779284
   0.99996294  0.73990786  0.77782331
   0.24935849  0.28631414  0.38956482
   0.99953975  0.07432735  0.77769073
   0.24980698  0.43552020  0.94484922
   0.74994366  0.69425696  0.16652675
   0.49965470  0.11209984  0.66653799
Direct configuration=    40
   0.49945717  0.25930319  0.22218441
   0.00070118  0.25910403  0.22229695
   0.24956005  0.23118446  0.05522187
   0.49996588  0.79602807  0.11062505
   0.00004795  0.46314434  0.11075956
   0.00148144  0.51889289  0.44418704
   0.25047156  0.87924021  0.61086857
   0.00060889  0.66660452  0.00005642
   0.75069806  0.62021065  0.72233708
   0.49987171  0.72231701  0.33324883
   0.24977592  0.95337616  0.72198204
   0.99984612  0.40807509  0.77767724
   0.00057451  0.44484722  0.66657068
   0.24951062  0.63913441  0.83335990
   0.74976410  0.21291290  0.61131276
   0.00123244  0.77750331  0.66675892
   0.24981463  0.82419287  0.27787219
   0.49921610  0.77812761  0.66632592
   0.50039648  0.74101011  0.77799603
   0.49961187  0.99884502  0.00020925
   0.50018019  0.07402668  0.77771020
   0.49998553  0.38865607  0.33350028
   0.00032032  0.92600454  0.22227583
   0.24911680  0.62062335  0.38924640
   0.49958214  0.66699700  0.00009621
   0.75027631  0.54711976  0.61084672
   0.75044206  0.87936447  0.61099059
   0.00020895  0.12951703  0.11064209
   0.24978244  0.97191868  0.83327210
   0.50091830  0.53741676  0.88965471
   0.99977438  0.87158037  0.88940521
   0.24996115  0.49034855  0.27777865
   0.49932172  0.64843571  0.55584123
   0.00061817  0.98157756  0.55566980
   0.50002708  0.44396409  0.66664702
   0.75033506  0.23121259  0.05540640
   0.50010698  0.18537233  0.44429934
   0.75008532  0.82402722  0.27785503
   0.75012042  0.15736873  0.27791346
   0.74989649  0.02762415  0.16652009
   0.99994881  0.53727745  0.88870233
   0.74858472  0.95469577  0.38904184
   0.50007465  0.86979331  0.88960418
   0.49984622  0.33398601 -0.00001194
   0.50027798  0.20382293  0.88896662
   0.00042892  0.72254939  0.33348658
   0.74923593  0.28680986  0.38920399
   0.49905075  0.85300343  0.44450071
   0.75047247  0.10189217  0.94441807
   0.75029444  0.95426852  0.72222256
   0.24955179  0.62022844  0.72187034
   0.24927061  0.95412154  0.38946399
   0.00048412  0.31485641  0.55582723
   0.49985817  0.12931005  0.11073992
   0.74950566  0.62025320  0.38901338
   0.74989740  0.76849183  0.94423989
   0.75022894  0.75022787  0.49986806
   0.24989517  0.30546280  0.83335507
   0.00073197  0.05531375  0.33332414
   0.50055529  0.59241390  0.22192072
   0.74981024  0.41642362  0.49997382
   0.50030633  0.40724060  0.77789458
   0.00030115  0.38875597  0.33332978
   0.25006595  0.36114717  0.16666462
   0.00045932  0.64811100  0.55569946
   0.74995897  0.49092435  0.27782790
   0.00340421  0.85211044  0.44433795
   0.99920445  0.20147064  0.88890214
   0.49981687  0.46351160  0.11084458
   0.25293316  0.08152060  0.49917682
   0.49758329  0.31346050  0.55567656
   0.25146827  0.28718787  0.72285639
   0.74988949  0.08315485  0.49996503
   0.99998007  0.00008007  0.99982532
   0.75036008  0.63922133  0.83372545
   0.75136949  0.28568544  0.72294655
   0.25013305  0.75122342  0.49987756
   0.25045806  0.76784644  0.94425391
   0.24927900  0.41521061  0.49945148
   0.00092896  0.33329209 -0.00002594
   0.99992977  0.79607067  0.11139155
   0.74872147  0.89922267  0.05574670
   0.50059382  0.05559727  0.33372472
   0.50088101  0.52019951  0.44396288
   0.74958925  0.30511949  0.83316606
   0.75005035  0.96949144  0.83346019
   0.00031881  0.59258040  0.22201885
   0.99868386  0.11022808  0.66706894
   0.74986852  0.56503242  0.05552698
   0.49967079  0.92561467  0.22224873
   0.74988295  0.36140548  0.16653114
   0.49572253  0.98256097  0.55527380
   0.25110623  0.89824592  0.05529159
   0.00126089  0.18486747  0.44427962
   0.25001601  0.02776995  0.16667484
   0.24836089  0.54928444  0.61063571
   0.25076309  0.21245480  0.61046120
   0.74754952  0.43557898  0.94452076
   0.25005873  0.56482815  0.05535490
   0.24941840  0.10178361  0.94481214
   0.25027455  0.69442612  0.16667689
   0.24944113  0.15831365  0.27779284
   0.99996294  0.73990786  0.77782331
   0.24935849  0.28631414  0.38956482
   0.99953975  0.07432735  0.77769073
   0.24980698  0.43552020  0.94484922
   0.74994366  0.69425696  0.16652675
   0.49965470  0.11209984  0.66653799
Direct configuration=    41
   0.49945717  0.25930319  0.22218441
   0.00070118  0.25910403  0.22229695
   0.24956005  0.23118446  0.05522187
   0.49996588  0.79602807  0.11062505
   0.00004795  0.46314434  0.11075956
   0.00148144  0.51889289  0.44418704
   0.25047156  0.87924021  0.61086857
   0.00060889  0.66660452  0.00005642
   0.75069806  0.62021065  0.72233708
   0.49987171  0.72231701  0.33324883
   0.24977592  0.95337616  0.72198204
   0.99984612  0.40807509  0.77767724
   0.00057451  0.44484722  0.66657068
   0.24951062  0.63913441  0.83335990
   0.74976410  0.21291290  0.61131276
   0.00123244  0.77750331  0.66675892
   0.24981463  0.82419287  0.27787219
   0.49921610  0.77812761  0.66632592
   0.50039648  0.74101011  0.77799603
   0.49961187  0.99884502  0.00020925
   0.50018019  0.07402668  0.77771020
   0.49998553  0.38865607  0.33350028
   0.00032032  0.92600454  0.22227583
   0.24911680  0.62062335  0.38924640
   0.49958214  0.66699700  0.00009621
   0.75027631  0.54711976  0.61084672
   0.75044206  0.87936447  0.61099059
   0.00020895  0.12951703  0.11064209
   0.24978244  0.97191868  0.83327210
   0.50091830  0.53741676  0.88965471
   0.99977438  0.87158037  0.88940521
   0.24996115  0.49034855  0.27777865
   0.49932172  0.64843571  0.55584123
   0.00061817  0.98157756  0.55566980
   0.50002708  0.44396409  0.66664702
   0.75033506  0.23121259  0.05540640
   0.50010698  0.18537233  0.44429934
   0.75008532  0.82402722  0.27785503
   0.75012042  0.15736873  0.27791346
   0.74989649  0.02762415  0.16652009
   0.99994881  0.53727745  0.88870233
   0.74858472  0.95469577  0.38904184
   0.50007465  0.86979331  0.88960418
   0.49984622  0.33398601 -0.00001194
   0.50027798  0.20382293  0.88896662
   0.00042892  0.72254939  0.33348658
   0.74923593  0.28680986  0.38920399
   0.49905075  0.85300343  0.44450071
   0.75047247  0.10189217  0.94441807
   0.75029444  0.95426852  0.72222256
   0.24955179  0.62022844  0.72187034
   0.24927061  0.95412154  0.38946399
   0.00048412  0.31485641  0.55582723
   0.49985817  0.12931005  0.11073992
   0.74950566  0.62025320  0.38901338
   0.74989740  0.76849183  0.94423989
   0.75022894  0.75022787  0.49986806
   0.24989517  0.30546280  0.83335507
   0.00073197  0.05531375  0.33332414
   0.50055529  0.59241390  0.22192072
   0.74981024  0.41642362  0.49997382
   0.50030633  0.40724060  0.77789458
   0.00030115  0.38875597  0.33332978
   0.25006595  0.36114717  0.16666462
   0.00045932  0.64811100  0.55569946
   0.74995897  0.49092435  0.27782790
   0.00340421  0.85211044  0.44433795
   0.99920445  0.20147064  0.88890214
   0.49981687  0.46351160  0.11084458
   0.25293316  0.08152060  0.49917682
   0.49758329  0.31346050  0.55567656
   0.25146827  0.28718787  0.72285639
   0.74988949  0.08315485  0.49996503
   0.99998007  0.00008007  0.99982532
   0.75036008  0.63922133  0.83372545
   0.75136949  0.28568544  0.72294655
   0.25013305  0.75122342  0.49987756
   0.25045806  0.76784644  0.94425391
   0.24927900  0.41521061  0.49945148
   0.00092896  0.33329209 -0.00002594
   0.99992977  0.79607067  0.11139155
   0.74872147  0.89922267  0.05574670
   0.50059382  0.05559727  0.33372472
   0.50088101  0.52019951  0.44396288
   0.74958925  0.30511949  0.83316606
   0.75005035  0.96949144  0.83346019
   0.00031881  0.59258040  0.22201885
   0.99868386  0.11022808  0.66706894
   0.74986852  0.56503242  0.05552698
   0.49967079  0.92561467  0.22224873
   0.74988295  0.36140548  0.16653114
   0.49572253  0.98256097  0.55527380
   0.25110623  0.89824592  0.05529159
   0.00126089  0.18486747  0.44427962
   0.25001601  0.02776995  0.16667484
   0.24836089  0.54928444  0.61063571
   0.25076309  0.21245480  0.61046120
   0.74754952  0.43557898  0.94452076
   0.25005873  0.56482815  0.05535490
   0.24941840  0.10178361  0.94481214
   0.25027455  0.69442612  0.16667689
   0.24944113  0.15831365  0.27779284
   0.99996294  0.73990786  0.77782331
   0.24935849  0.28631414  0.38956482
   0.99953975  0.07432735  0.77769073
   0.24980698  0.43552020  0.94484922
   0.74994366  0.69425696  0.16652675
   0.49965470  0.11209984  0.66653799
Direct configuration=    42
   0.49945717  0.25930319  0.22218441
   0.00070118  0.25910403  0.22229695
   0.24956005  0.23118446  0.05522187
   0.49996588  0.79602807  0.11062505
   0.00004795  0.46314434  0.11075956
   0.00148144  0.51889289  0.44418704
   0.25047156  0.87924021  0.61086857
   0.00060889  0.66660452  0.00005642
   0.75069806  0.62021065  0.72233708
   0.49987171  0.72231701  0.33324883
   0.24977592  0.95337616  0.72198204
   0.99984612  0.40807509  0.77767724
   0.00057451  0.44484722  0.66657068
   0.24951062  0.63913441  0.83335990
   0.74976410  0.21291290  0.61131276
   0.00123244  0.77750331  0.66675892
   0.24981463  0.82419287  0.27787219
   0.49921610  0.77812761  0.66632592
   0.50039648  0.74101011  0.77799603
   0.49961187  0.99884502  0.00020925
   0.50018019  0.07402668  0.77771020
   0.49998553  0.38865607  0.33350028
   0.00032032  0.92600454  0.22227583
   0.24911680  0.62062335  0.38924640
   0.49958214  0.66699700  0.00009621
   0.75027631  0.54711976  0.61084672
   0.75044206  0.87936447  0.61099059
   0.00020895  0.12951703  0.11064209
   0.24978244  0.97191868  0.83327210
   0.50091830  0.53741676  0.88965471
   0.99977438  0.87158037  0.88940521
   0.24996115  0.49034855  0.27777865
   0.49932172  0.64843571  0.55584123
   0.00061817  0.98157756  0.55566980
   0.50002708  0.44396409  0.66664702
   0.75033506  0.23121259  0.05540640
   0.50010698  0.18537233  0.44429934
   0.75008532  0.82402722  0.27785503
   0.75012042  0.15736873  0.27791346
   0.74989649  0.02762415  0.16652009
   0.99994881  0.53727745  0.88870233
   0.74858472  0.95469577  0.38904184
   0.50007465  0.86979331  0.88960418
   0.49984622  0.33398601 -0.00001194
   0.50027798  0.20382293  0.88896662
   0.00042892  0.72254939  0.33348658
   0.74923593  0.28680986  0.38920399
   0.49905075  0.85300343  0.44450071
   0.75047247  0.10189217  0.94441807
   0.75029444  0.95426852  0.72222256
   0.24955179  0.62022844  0.72187034
   0.24927061  0.95412154  0.38946399
   0.00048412  0.31485641  0.55582723
   0.49985817  0.12931005  0.11073992
   0.74950566  0.62025320  0.38901338
   0.74989740  0.76849183  0.94423989
   0.75022894  0.75022787  0.49986806
   0.24989517  0.30546280  0.83335507
   0.00073197  0.05531375  0.33332414
   0.50055529  0.59241390  0.22192072
   0.74981024  0.41642362  0.49997382
   0.50030633  0.40724060  0.77789458
   0.00030115  0.38875597  0.33332978
   0.25006595  0.36114717  0.16666462
   0.00045932  0.64811100  0.55569946
   0.74995897  0.49092435  0.27782790
   0.00340421  0.85211044  0.44433795
   0.99920445  0.20147064  0.88890214
   0.49981687  0.46351160  0.11084458
   0.25293316  0.08152060  0.49917682
   0.49758329  0.31346050  0.55567656
   0.25146827  0.28718787  0.72285639
   0.74988949  0.08315485  0.49996503
   0.99998007  0.00008007  0.99982532
   0.75036008  0.63922133  0.83372545
   0.75136949  0.28568544  0.72294655
   0.25013305  0.75122342  0.49987756
   0.25045806  0.76784644  0.94425391
   0.24927900  0.41521061  0.49945148
   0.00092896  0.33329209 -0.00002594
   0.99992977  0.79607067  0.11139155
   0.74872147  0.89922267  0.05574670
   0.50059382  0.05559727  0.33372472
   0.50088101  0.52019951  0.44396288
   0.74958925  0.30511949  0.83316606
   0.75005035  0.96949144  0.83346019
   0.00031881  0.59258040  0.22201885
   0.99868386  0.11022808  0.66706894
   0.74986852  0.56503242  0.05552698
   0.49967079  0.92561467  0.22224873
   0.74988295  0.36140548  0.16653114
   0.49572253  0.98256097  0.55527380
   0.25110623  0.89824592  0.05529159
   0.00126089  0.18486747  0.44427962
   0.25001601  0.02776995  0.16667484
   0.24836089  0.54928444  0.61063571
   0.25076309  0.21245480  0.61046120
   0.74754952  0.43557898  0.94452076
   0.25005873  0.56482815  0.05535490
   0.24941840  0.10178361  0.94481214
   0.25027455  0.69442612  0.16667689
   0.24944113  0.15831365  0.27779284
   0.99996294  0.73990786  0.77782331
   0.24935849  0.28631414  0.38956482
   0.99953975  0.07432735  0.77769073
   0.24980698  0.43552020  0.94484922
   0.74994366  0.69425696  0.16652675
   0.49965470  0.11209984  0.66653799
Direct configuration=    43
   0.49945717  0.25930319  0.22218441
   0.00070118  0.25910403  0.22229695
   0.24956005  0.23118446  0.05522187
   0.49996588  0.79602807  0.11062505
   0.00004795  0.46314434  0.11075956
   0.00148144  0.51889289  0.44418704
   0.25047156  0.87924021  0.61086857
   0.00060889  0.66660452  0.00005642
   0.75069806  0.62021065  0.72233708
   0.49987171  0.72231701  0.33324883
   0.24977592  0.95337616  0.72198204
   0.99984612  0.40807509  0.77767724
   0.00057451  0.44484722  0.66657068
   0.24951062  0.63913441  0.83335990
   0.74976410  0.21291290  0.61131276
   0.00123244  0.77750331  0.66675892
   0.24981463  0.82419287  0.27787219
   0.49921610  0.77812761  0.66632592
   0.50039648  0.74101011  0.77799603
   0.49961187  0.99884502  0.00020925
   0.50018019  0.07402668  0.77771020
   0.49998553  0.38865607  0.33350028
   0.00032032  0.92600454  0.22227583
   0.24911680  0.62062335  0.38924640
   0.49958214  0.66699700  0.00009621
   0.75027631  0.54711976  0.61084672
   0.75044206  0.87936447  0.61099059
   0.00020895  0.12951703  0.11064209
   0.24978244  0.97191868  0.83327210
   0.50091830  0.53741676  0.88965471
   0.99977438  0.87158037  0.88940521
   0.24996115  0.49034855  0.27777865
   0.49932172  0.64843571  0.55584123
   0.00061817  0.98157756  0.55566980
   0.50002708  0.44396409  0.66664702
   0.75033506  0.23121259  0.05540640
   0.50010698  0.18537233  0.44429934
   0.75008532  0.82402722  0.27785503
   0.75012042  0.15736873  0.27791346
   0.74989649  0.02762415  0.16652009
   0.99994881  0.53727745  0.88870233
   0.74858472  0.95469577  0.38904184
   0.50007465  0.86979331  0.88960418
   0.49984622  0.33398601 -0.00001194
   0.50027798  0.20382293  0.88896662
   0.00042892  0.72254939  0.33348658
   0.74923593  0.28680986  0.38920399
   0.49905075  0.85300343  0.44450071
   0.75047247  0.10189217  0.94441807
   0.75029444  0.95426852  0.72222256
   0.24955179  0.62022844  0.72187034
   0.24927061  0.95412154  0.38946399
   0.00048412  0.31485641  0.55582723
   0.49985817  0.12931005  0.11073992
   0.74950566  0.62025320  0.38901338
   0.74989740  0.76849183  0.94423989
   0.75022894  0.75022787  0.49986806
   0.24989517  0.30546280  0.83335507
   0.00073197  0.05531375  0.33332414
   0.50055529  0.59241390  0.22192072
   0.74981024  0.41642362  0.49997382
   0.50030633  0.40724060  0.77789458
   0.00030115  0.38875597  0.33332978
   0.25006595  0.36114717  0.16666462
   0.00045932  0.64811100  0.55569946
   0.74995897  0.49092435  0.27782790
   0.00340421  0.85211044  0.44433795
   0.99920445  0.20147064  0.88890214
   0.49981687  0.46351160  0.11084458
   0.25293316  0.08152060  0.49917682
   0.49758329  0.31346050  0.55567656
   0.25146827  0.28718787  0.72285639
   0.74988949  0.08315485  0.49996503
   0.99998007  0.00008007  0.99982532
   0.75036008  0.63922133  0.83372545
   0.75136949  0.28568544  0.72294655
   0.25013305  0.75122342  0.49987756
   0.25045806  0.76784644  0.94425391
   0.24927900  0.41521061  0.49945148
   0.00092896  0.33329209 -0.00002594
   0.99992977  0.79607067  0.11139155
   0.74872147  0.89922267  0.05574670
   0.50059382  0.05559727  0.33372472
   0.50088101  0.52019951  0.44396288
   0.74958925  0.30511949  0.83316606
   0.75005035  0.96949144  0.83346019
   0.00031881  0.59258040  0.22201885
   0.99868386  0.11022808  0.66706894
   0.74986852  0.56503242  0.05552698
   0.49967079  0.92561467  0.22224873
   0.74988295  0.36140548  0.16653114
   0.49572253  0.98256097  0.55527380
   0.25110623  0.89824592  0.05529159
   0.00126089  0.18486747  0.44427962
   0.25001601  0.02776995  0.16667484
   0.24836089  0.54928444  0.61063571
   0.25076309  0.21245480  0.61046120
   0.74754952  0.43557898  0.94452076
   0.25005873  0.56482815  0.05535490
   0.24941840  0.10178361  0.94481214
   0.25027455  0.69442612  0.16667689
   0.24944113  0.15831365  0.27779284
   0.99996294  0.73990786  0.77782331
   0.24935849  0.28631414  0.38956482
   0.99953975  0.07432735  0.77769073
   0.24980698  0.43552020  0.94484922
   0.74994366  0.69425696  0.16652675
   0.49965470  0.11209984  0.66653799
Direct configuration=    44
   0.49945717  0.25930319  0.22218441
   0.00070118  0.25910403  0.22229695
   0.24956005  0.23118446  0.05522187
   0.49996588  0.79602807  0.11062505
   0.00004795  0.46314434  0.11075956
   0.00148144  0.51889289  0.44418704
   0.25047156  0.87924021  0.61086857
   0.00060889  0.66660452  0.00005642
   0.75069806  0.62021065  0.72233708
   0.49987171  0.72231701  0.33324883
   0.24977592  0.95337616  0.72198204
   0.99984612  0.40807509  0.77767724
   0.00057451  0.44484722  0.66657068
   0.24951062  0.63913441  0.83335990
   0.74976410  0.21291290  0.61131276
   0.00123244  0.77750331  0.66675892
   0.24981463  0.82419287  0.27787219
   0.49921610  0.77812761  0.66632592
   0.50039648  0.74101011  0.77799603
   0.49961187  0.99884502  0.00020925
   0.50018019  0.07402668  0.77771020
   0.49998553  0.38865607  0.33350028
   0.00032032  0.92600454  0.22227583
   0.24911680  0.62062335  0.38924640
   0.49958214  0.66699700  0.00009621
   0.75027631  0.54711976  0.61084672
   0.75044206  0.87936447  0.61099059
   0.00020895  0.12951703  0.11064209
   0.24978244  0.97191868  0.83327210
   0.50091830  0.53741676  0.88965471
   0.99977438  0.87158037  0.88940521
   0.24996115  0.49034855  0.27777865
   0.49932172  0.64843571  0.55584123
   0.00061817  0.98157756  0.55566980
   0.50002708  0.44396409  0.66664702
   0.75033506  0.23121259  0.05540640
   0.50010698  0.18537233  0.44429934
   0.75008532  0.82402722  0.27785503
   0.75012042  0.15736873  0.27791346
   0.74989649  0.02762415  0.16652009
   0.99994881  0.53727745  0.88870233
   0.74858472  0.95469577  0.38904184
   0.50007465  0.86979331  0.88960418
   0.49984622  0.33398601 -0.00001194
   0.50027798  0.20382293  0.88896662
   0.00042892  0.72254939  0.33348658
   0.74923593  0.28680986  0.38920399
   0.49905075  0.85300343  0.44450071
   0.75047247  0.10189217  0.94441807
   0.75029444  0.95426852  0.72222256
   0.24955179  0.62022844  0.72187034
   0.24927061  0.95412154  0.38946399
   0.00048412  0.31485641  0.55582723
   0.49985817  0.12931005  0.11073992
   0.74950566  0.62025320  0.38901338
   0.74989740  0.76849183  0.94423989
   0.75022894  0.75022787  0.49986806
   0.24989517  0.30546280  0.83335507
   0.00073197  0.05531375  0.33332414
   0.50055529  0.59241390  0.22192072
   0.74981024  0.41642362  0.49997382
   0.50030633  0.40724060  0.77789458
   0.00030115  0.38875597  0.33332978
   0.25006595  0.36114717  0.16666462
   0.00045932  0.64811100  0.55569946
   0.74995897  0.49092435  0.27782790
   0.00340421  0.85211044  0.44433795
   0.99920445  0.20147064  0.88890214
   0.49981687  0.46351160  0.11084458
   0.25293316  0.08152060  0.49917682
   0.49758329  0.31346050  0.55567656
   0.25146827  0.28718787  0.72285639
   0.74988949  0.08315485  0.49996503
   0.99998007  0.00008007  0.99982532
   0.75036008  0.63922133  0.83372545
   0.75136949  0.28568544  0.72294655
   0.25013305  0.75122342  0.49987756
   0.25045806  0.76784644  0.94425391
   0.24927900  0.41521061  0.49945148
   0.00092896  0.33329209 -0.00002594
   0.99992977  0.79607067  0.11139155
   0.74872147  0.89922267  0.05574670
   0.50059382  0.05559727  0.33372472
   0.50088101  0.52019951  0.44396288
   0.74958925  0.30511949  0.83316606
   0.75005035  0.96949144  0.83346019
   0.00031881  0.59258040  0.22201885
   0.99868386  0.11022808  0.66706894
   0.74986852  0.56503242  0.05552698
   0.49967079  0.92561467  0.22224873
   0.74988295  0.36140548  0.16653114
   0.49572253  0.98256097  0.55527380
   0.25110623  0.89824592  0.05529159
   0.00126089  0.18486747  0.44427962
   0.25001601  0.02776995  0.16667484
   0.24836089  0.54928444  0.61063571
   0.25076309  0.21245480  0.61046120
   0.74754952  0.43557898  0.94452076
   0.25005873  0.56482815  0.05535490
   0.24941840  0.10178361  0.94481214
   0.25027455  0.69442612  0.16667689
   0.24944113  0.15831365  0.27779284
   0.99996294  0.73990786  0.77782331
   0.24935849  0.28631414  0.38956482
   0.99953975  0.07432735  0.77769073
   0.24980698  0.43552020  0.94484922
   0.74994366  0.69425696  0.16652675
   0.49965470  0.11209984  0.66653799
Direct configuration=    45
   0.49945717  0.25930319  0.22218441
   0.00070118  0.25910403  0.22229695
   0.24956005  0.23118446  0.05522187
   0.49996588  0.79602807  0.11062505
   0.00004795  0.46314434  0.11075956
   0.00148144  0.51889289  0.44418704
   0.25047156  0.87924021  0.61086857
   0.00060889  0.66660452  0.00005642
   0.75069806  0.62021065  0.72233708
   0.49987171  0.72231701  0.33324883
   0.24977592  0.95337616  0.72198204
   0.99984612  0.40807509  0.77767724
   0.00057451  0.44484722  0.66657068
   0.24951062  0.63913441  0.83335990
   0.74976410  0.21291290  0.61131276
   0.00123244  0.77750331  0.66675892
   0.24981463  0.82419287  0.27787219
   0.49921610  0.77812761  0.66632592
   0.50039648  0.74101011  0.77799603
   0.49961187  0.99884502  0.00020925
   0.50018019  0.07402668  0.77771020
   0.49998553  0.38865607  0.33350028
   0.00032032  0.92600454  0.22227583
   0.24911680  0.62062335  0.38924640
   0.49958214  0.66699700  0.00009621
   0.75027631  0.54711976  0.61084672
   0.75044206  0.87936447  0.61099059
   0.00020895  0.12951703  0.11064209
   0.24978244  0.97191868  0.83327210
   0.50091830  0.53741676  0.88965471
   0.99977438  0.87158037  0.88940521
   0.24996115  0.49034855  0.27777865
   0.49932172  0.64843571  0.55584123
   0.00061817  0.98157756  0.55566980
   0.50002708  0.44396409  0.66664702
   0.75033506  0.23121259  0.05540640
   0.50010698  0.18537233  0.44429934
   0.75008532  0.82402722  0.27785503
   0.75012042  0.15736873  0.27791346
   0.74989649  0.02762415  0.16652009
   0.99994881  0.53727745  0.88870233
   0.74858472  0.95469577  0.38904184
   0.50007465  0.86979331  0.88960418
   0.49984622  0.33398601 -0.00001194
   0.50027798  0.20382293  0.88896662
   0.00042892  0.72254939  0.33348658
   0.74923593  0.28680986  0.38920399
   0.49905075  0.85300343  0.44450071
   0.75047247  0.10189217  0.94441807
   0.75029444  0.95426852  0.72222256
   0.24955179  0.62022844  0.72187034
   0.24927061  0.95412154  0.38946399
   0.00048412  0.31485641  0.55582723
   0.49985817  0.12931005  0.11073992
   0.74950566  0.62025320  0.38901338
   0.74989740  0.76849183  0.94423989
   0.75022894  0.75022787  0.49986806
   0.24989517  0.30546280  0.83335507
   0.00073197  0.05531375  0.33332414
   0.50055529  0.59241390  0.22192072
   0.74981024  0.41642362  0.49997382
   0.50030633  0.40724060  0.77789458
   0.00030115  0.38875597  0.33332978
   0.25006595  0.36114717  0.16666462
   0.00045932  0.64811100  0.55569946
   0.74995897  0.49092435  0.27782790
   0.00340421  0.85211044  0.44433795
   0.99920445  0.20147064  0.88890214
   0.49981687  0.46351160  0.11084458
   0.25293316  0.08152060  0.49917682
   0.49758329  0.31346050  0.55567656
   0.25146827  0.28718787  0.72285639
   0.74988949  0.08315485  0.49996503
   0.99998007  0.00008007  0.99982532
   0.75036008  0.63922133  0.83372545
   0.75136949  0.28568544  0.72294655
   0.25013305  0.75122342  0.49987756
   0.25045806  0.76784644  0.94425391
   0.24927900  0.41521061  0.49945148
   0.00092896  0.33329209 -0.00002594
   0.99992977  0.79607067  0.11139155
   0.74872147  0.89922267  0.05574670
   0.50059382  0.05559727  0.33372472
   0.50088101  0.52019951  0.44396288
   0.74958925  0.30511949  0.83316606
   0.75005035  0.96949144  0.83346019
   0.00031881  0.59258040  0.22201885
   0.99868386  0.11022808  0.66706894
   0.74986852  0.56503242  0.05552698
   0.49967079  0.92561467  0.22224873
   0.74988295  0.36140548  0.16653114
   0.49572253  0.98256097  0.55527380
   0.25110623  0.89824592  0.05529159
   0.00126089  0.18486747  0.44427962
   0.25001601  0.02776995  0.16667484
   0.24836089  0.54928444  0.61063571
   0.25076309  0.21245480  0.61046120
   0.74754952  0.43557898  0.94452076
   0.25005873  0.56482815  0.05535490
   0.24941840  0.10178361  0.94481214
   0.25027455  0.69442612  0.16667689
   0.24944113  0.15831365  0.27779284
   0.99996294  0.73990786  0.77782331
   0.24935849  0.28631414  0.38956482
   0.99953975  0.07432735  0.77769073
   0.24980698  0.43552020  0.94484922
   0.74994366  0.69425696  0.16652675
   0.49965470  0.11209984  0.66653799
Direct configuration=    46
   0.49945717  0.25930319  0.22218441
   0.00070118  0.25910403  0.22229695
   0.24956005  0.23118446  0.05522187
   0.49996588  0.79602807  0.11062505
   0.00004795  0.46314434  0.11075956
   0.00148144  0.51889289  0.44418704
   0.25047156  0.87924021  0.61086857
   0.00060889  0.66660452  0.00005642
   0.75069806  0.62021065  0.72233708
   0.49987171  0.72231701  0.33324883
   0.24977592  0.95337616  0.72198204
   0.99984612  0.40807509  0.77767724
   0.00057451  0.44484722  0.66657068
   0.24951062  0.63913441  0.83335990
   0.74976410  0.21291290  0.61131276
   0.00123244  0.77750331  0.66675892
   0.24981463  0.82419287  0.27787219
   0.49921610  0.77812761  0.66632592
   0.50039648  0.74101011  0.77799603
   0.49961187  0.99884502  0.00020925
   0.50018019  0.07402668  0.77771020
   0.49998553  0.38865607  0.33350028
   0.00032032  0.92600454  0.22227583
   0.24911680  0.62062335  0.38924640
   0.49958214  0.66699700  0.00009621
   0.75027631  0.54711976  0.61084672
   0.75044206  0.87936447  0.61099059
   0.00020895  0.12951703  0.11064209
   0.24978244  0.97191868  0.83327210
   0.50091830  0.53741676  0.88965471
   0.99977438  0.87158037  0.88940521
   0.24996115  0.49034855  0.27777865
   0.49932172  0.64843571  0.55584123
   0.00061817  0.98157756  0.55566980
   0.50002708  0.44396409  0.66664702
   0.75033506  0.23121259  0.05540640
   0.50010698  0.18537233  0.44429934
   0.75008532  0.82402722  0.27785503
   0.75012042  0.15736873  0.27791346
   0.74989649  0.02762415  0.16652009
   0.99994881  0.53727745  0.88870233
   0.74858472  0.95469577  0.38904184
   0.50007465  0.86979331  0.88960418
   0.49984622  0.33398601 -0.00001194
   0.50027798  0.20382293  0.88896662
   0.00042892  0.72254939  0.33348658
   0.74923593  0.28680986  0.38920399
   0.49905075  0.85300343  0.44450071
   0.75047247  0.10189217  0.94441807
   0.75029444  0.95426852  0.72222256
   0.24955179  0.62022844  0.72187034
   0.24927061  0.95412154  0.38946399
   0.00048412  0.31485641  0.55582723
   0.49985817  0.12931005  0.11073992
   0.74950566  0.62025320  0.38901338
   0.74989740  0.76849183  0.94423989
   0.75022894  0.75022787  0.49986806
   0.24989517  0.30546280  0.83335507
   0.00073197  0.05531375  0.33332414
   0.50055529  0.59241390  0.22192072
   0.74981024  0.41642362  0.49997382
   0.50030633  0.40724060  0.77789458
   0.00030115  0.38875597  0.33332978
   0.25006595  0.36114717  0.16666462
   0.00045932  0.64811100  0.55569946
   0.74995897  0.49092435  0.27782790
   0.00340421  0.85211044  0.44433795
   0.99920445  0.20147064  0.88890214
   0.49981687  0.46351160  0.11084458
   0.25293316  0.08152060  0.49917682
   0.49758329  0.31346050  0.55567656
   0.25146827  0.28718787  0.72285639
   0.74988949  0.08315485  0.49996503
   0.99998007  0.00008007  0.99982532
   0.75036008  0.63922133  0.83372545
   0.75136949  0.28568544  0.72294655
   0.25013305  0.75122342  0.49987756
   0.25045806  0.76784644  0.94425391
   0.24927900  0.41521061  0.49945148
   0.00092896  0.33329209 -0.00002594
   0.99992977  0.79607067  0.11139155
   0.74872147  0.89922267  0.05574670
   0.50059382  0.05559727  0.33372472
   0.50088101  0.52019951  0.44396288
   0.74958925  0.30511949  0.83316606
   0.75005035  0.96949144  0.83346019
   0.00031881  0.59258040  0.22201885
   0.99868386  0.11022808  0.66706894
   0.74986852  0.56503242  0.05552698
   0.49967079  0.92561467  0.22224873
   0.74988295  0.36140548  0.16653114
   0.49572253  0.98256097  0.55527380
   0.25110623  0.89824592  0.05529159
   0.00126089  0.18486747  0.44427962
   0.25001601  0.02776995  0.16667484
   0.24836089  0.54928444  0.61063571
   0.25076309  0.21245480  0.61046120
   0.74754952  0.43557898  0.94452076
   0.25005873  0.56482815  0.05535490
   0.24941840  0.10178361  0.94481214
   0.25027455  0.69442612  0.16667689
   0.24944113  0.15831365  0.27779284
   0.99996294  0.73990786  0.77782331
   0.24935849  0.28631414  0.38956482
   0.99953975  0.07432735  0.77769073
   0.24980698  0.43552020  0.94484922
   0.74994366  0.69425696  0.16652675
   0.49965470  0.11209984  0.66653799
Direct configuration=    47
   0.49945717  0.25930319  0.22218441
   0.00070118  0.25910403  0.22229695
   0.24956005  0.23118446  0.05522187
   0.49996588  0.79602807  0.11062505
   0.00004795  0.46314434  0.11075956
   0.00148144  0.51889289  0.44418704
   0.25047156  0.87924021  0.61086857
   0.00060889  0.66660452  0.00005642
   0.75069806  0.62021065  0.72233708
   0.49987171  0.72231701  0.33324883
   0.24977592  0.95337616  0.72198204
   0.99984612  0.40807509  0.77767724
   0.00057451  0.44484722  0.66657068
   0.24951062  0.63913441  0.83335990
   0.74976410  0.21291290  0.61131276
   0.00123244  0.77750331  0.66675892
   0.24981463  0.82419287  0.27787219
   0.49921610  0.77812761  0.66632592
   0.50039648  0.74101011  0.77799603
   0.49961187  0.99884502  0.00020925
   0.50018019  0.07402668  0.77771020
   0.49998553  0.38865607  0.33350028
   0.00032032  0.92600454  0.22227583
   0.24911680  0.62062335  0.38924640
   0.49958214  0.66699700  0.00009621
   0.75027631  0.54711976  0.61084672
   0.75044206  0.87936447  0.61099059
   0.00020895  0.12951703  0.11064209
   0.24978244  0.97191868  0.83327210
   0.50091830  0.53741676  0.88965471
   0.99977438  0.87158037  0.88940521
   0.24996115  0.49034855  0.27777865
   0.49932172  0.64843571  0.55584123
   0.00061817  0.98157756  0.55566980
   0.50002708  0.44396409  0.66664702
   0.75033506  0.23121259  0.05540640
   0.50010698  0.18537233  0.44429934
   0.75008532  0.82402722  0.27785503
   0.75012042  0.15736873  0.27791346
   0.74989649  0.02762415  0.16652009
   0.99994881  0.53727745  0.88870233
   0.74858472  0.95469577  0.38904184
   0.50007465  0.86979331  0.88960418
   0.49984622  0.33398601 -0.00001194
   0.50027798  0.20382293  0.88896662
   0.00042892  0.72254939  0.33348658
   0.74923593  0.28680986  0.38920399
   0.49905075  0.85300343  0.44450071
   0.75047247  0.10189217  0.94441807
   0.75029444  0.95426852  0.72222256
   0.24955179  0.62022844  0.72187034
   0.24927061  0.95412154  0.38946399
   0.00048412  0.31485641  0.55582723
   0.49985817  0.12931005  0.11073992
   0.74950566  0.62025320  0.38901338
   0.74989740  0.76849183  0.94423989
   0.75022894  0.75022787  0.49986806
   0.24989517  0.30546280  0.83335507
   0.00073197  0.05531375  0.33332414
   0.50055529  0.59241390  0.22192072
   0.74981024  0.41642362  0.49997382
   0.50030633  0.40724060  0.77789458
   0.00030115  0.38875597  0.33332978
   0.25006595  0.36114717  0.16666462
   0.00045932  0.64811100  0.55569946
   0.74995897  0.49092435  0.27782790
   0.00340421  0.85211044  0.44433795
   0.99920445  0.20147064  0.88890214
   0.49981687  0.46351160  0.11084458
   0.25293316  0.08152060  0.49917682
   0.49758329  0.31346050  0.55567656
   0.25146827  0.28718787  0.72285639
   0.74988949  0.08315485  0.49996503
   0.99998007  0.00008007  0.99982532
   0.75036008  0.63922133  0.83372545
   0.75136949  0.28568544  0.72294655
   0.25013305  0.75122342  0.49987756
   0.25045806  0.76784644  0.94425391
   0.24927900  0.41521061  0.49945148
   0.00092896  0.33329209 -0.00002594
   0.99992977  0.79607067  0.11139155
   0.74872147  0.89922267  0.05574670
   0.50059382  0.05559727  0.33372472
   0.50088101  0.52019951  0.44396288
   0.74958925  0.30511949  0.83316606
   0.75005035  0.96949144  0.83346019
   0.00031881  0.59258040  0.22201885
   0.99868386  0.11022808  0.66706894
   0.74986852  0.56503242  0.05552698
   0.49967079  0.92561467  0.22224873
   0.74988295  0.36140548  0.16653114
   0.49572253  0.98256097  0.55527380
   0.25110623  0.89824592  0.05529159
   0.00126089  0.18486747  0.44427962
   0.25001601  0.02776995  0.16667484
   0.24836089  0.54928444  0.61063571
   0.25076309  0.21245480  0.61046120
   0.74754952  0.43557898  0.94452076
   0.25005873  0.56482815  0.05535490
   0.24941840  0.10178361  0.94481214
   0.25027455  0.69442612  0.16667689
   0.24944113  0.15831365  0.27779284
   0.99996294  0.73990786  0.77782331
   0.24935849  0.28631414  0.38956482
   0.99953975  0.07432735  0.77769073
   0.24980698  0.43552020  0.94484922
   0.74994366  0.69425696  0.16652675
   0.49965470  0.11209984  0.66653799
Direct configuration=    48
   0.49945717  0.25930319  0.22218441
   0.00070118  0.25910403  0.22229695
   0.24956005  0.23118446  0.05522187
   0.49996588  0.79602807  0.11062505
   0.00004795  0.46314434  0.11075956
   0.00148144  0.51889289  0.44418704
   0.25047156  0.87924021  0.61086857
   0.00060889  0.66660452  0.00005642
   0.75069806  0.62021065  0.72233708
   0.49987171  0.72231701  0.33324883
   0.24977592  0.95337616  0.72198204
   0.99984612  0.40807509  0.77767724
   0.00057451  0.44484722  0.66657068
   0.24951062  0.63913441  0.83335990
   0.74976410  0.21291290  0.61131276
   0.00123244  0.77750331  0.66675892
   0.24981463  0.82419287  0.27787219
   0.49921610  0.77812761  0.66632592
   0.50039648  0.74101011  0.77799603
   0.49961187  0.99884502  0.00020925
   0.50018019  0.07402668  0.77771020
   0.49998553  0.38865607  0.33350028
   0.00032032  0.92600454  0.22227583
   0.24911680  0.62062335  0.38924640
   0.49958214  0.66699700  0.00009621
   0.75027631  0.54711976  0.61084672
   0.75044206  0.87936447  0.61099059
   0.00020895  0.12951703  0.11064209
   0.24978244  0.97191868  0.83327210
   0.50091830  0.53741676  0.88965471
   0.99977438  0.87158037  0.88940521
   0.24996115  0.49034855  0.27777865
   0.49932172  0.64843571  0.55584123
   0.00061817  0.98157756  0.55566980
   0.50002708  0.44396409  0.66664702
   0.75033506  0.23121259  0.05540640
   0.50010698  0.18537233  0.44429934
   0.75008532  0.82402722  0.27785503
   0.75012042  0.15736873  0.27791346
   0.74989649  0.02762415  0.16652009
   0.99994881  0.53727745  0.88870233
   0.74858472  0.95469577  0.38904184
   0.50007465  0.86979331  0.88960418
   0.49984622  0.33398601 -0.00001194
   0.50027798  0.20382293  0.88896662
   0.00042892  0.72254939  0.33348658
   0.74923593  0.28680986  0.38920399
   0.49905075  0.85300343  0.44450071
   0.75047247  0.10189217  0.94441807
   0.75029444  0.95426852  0.72222256
   0.24955179  0.62022844  0.72187034
   0.24927061  0.95412154  0.38946399
   0.00048412  0.31485641  0.55582723
   0.49985817  0.12931005  0.11073992
   0.74950566  0.62025320  0.38901338
   0.74989740  0.76849183  0.94423989
   0.75022894  0.75022787  0.49986806
   0.24989517  0.30546280  0.83335507
   0.00073197  0.05531375  0.33332414
   0.50055529  0.59241390  0.22192072
   0.74981024  0.41642362  0.49997382
   0.50030633  0.40724060  0.77789458
   0.00030115  0.38875597  0.33332978
   0.25006595  0.36114717  0.16666462
   0.00045932  0.64811100  0.55569946
   0.74995897  0.49092435  0.27782790
   0.00340421  0.85211044  0.44433795
   0.99920445  0.20147064  0.88890214
   0.49981687  0.46351160  0.11084458
   0.25293316  0.08152060  0.49917682
   0.49758329  0.31346050  0.55567656
   0.25146827  0.28718787  0.72285639
   0.74988949  0.08315485  0.49996503
   0.99998007  0.00008007  0.99982532
   0.75036008  0.63922133  0.83372545
   0.75136949  0.28568544  0.72294655
   0.25013305  0.75122342  0.49987756
   0.25045806  0.76784644  0.94425391
   0.24927900  0.41521061  0.49945148
   0.00092896  0.33329209 -0.00002594
   0.99992977  0.79607067  0.11139155
   0.74872147  0.89922267  0.05574670
   0.50059382  0.05559727  0.33372472
   0.50088101  0.52019951  0.44396288
   0.74958925  0.30511949  0.83316606
   0.75005035  0.96949144  0.83346019
   0.00031881  0.59258040  0.22201885
   0.99868386  0.11022808  0.66706894
   0.74986852  0.56503242  0.05552698
   0.49967079  0.92561467  0.22224873
   0.74988295  0.36140548  0.16653114
   0.49572253  0.98256097  0.55527380
   0.25110623  0.89824592  0.05529159
   0.00126089  0.18486747  0.44427962
   0.25001601  0.02776995  0.16667484
   0.24836089  0.54928444  0.61063571
   0.25076309  0.21245480  0.61046120
   0.74754952  0.43557898  0.94452076
   0.25005873  0.56482815  0.05535490
   0.24941840  0.10178361  0.94481214
   0.25027455  0.69442612  0.16667689
   0.24944113  0.15831365  0.27779284
   0.99996294  0.73990786  0.77782331
   0.24935849  0.28631414  0.38956482
   0.99953975  0.07432735  0.77769073
   0.24980698  0.43552020  0.94484922
   0.74994366  0.69425696  0.16652675
   0.49965470  0.11209984  0.66653799
Direct configuration=    49
   0.49945717  0.25930319  0.22218441
   0.00070118  0.25910403  0.22229695
   0.24956005  0.23118446  0.05522187
   0.49996588  0.79602807  0.11062505
   0.00004795  0.46314434  0.11075956
   0.00148144  0.51889289  0.44418704
   0.25047156  0.87924021  0.61086857
   0.00060889  0.66660452  0.00005642
   0.75069806  0.62021065  0.72233708
   0.49987171  0.72231701  0.33324883
   0.24977592  0.95337616  0.72198204
   0.99984612  0.40807509  0.77767724
   0.00057451  0.44484722  0.66657068
   0.24951062  0.63913441  0.83335990
   0.74976410  0.21291290  0.61131276
   0.00123244  0.77750331  0.66675892
   0.24981463  0.82419287  0.27787219
   0.49921610  0.77812761  0.66632592
   0.50039648  0.74101011  0.77799603
   0.49961187  0.99884502  0.00020925
   0.50018019  0.07402668  0.77771020
   0.49998553  0.38865607  0.33350028
   0.00032032  0.92600454  0.22227583
   0.24911680  0.62062335  0.38924640
   0.49958214  0.66699700  0.00009621
   0.75027631  0.54711976  0.61084672
   0.75044206  0.87936447  0.61099059
   0.00020895  0.12951703  0.11064209
   0.24978244  0.97191868  0.83327210
   0.50091830  0.53741676  0.88965471
   0.99977438  0.87158037  0.88940521
   0.24996115  0.49034855  0.27777865
   0.49932172  0.64843571  0.55584123
   0.00061817  0.98157756  0.55566980
   0.50002708  0.44396409  0.66664702
   0.75033506  0.23121259  0.05540640
   0.50010698  0.18537233  0.44429934
   0.75008532  0.82402722  0.27785503
   0.75012042  0.15736873  0.27791346
   0.74989649  0.02762415  0.16652009
   0.99994881  0.53727745  0.88870233
   0.74858472  0.95469577  0.38904184
   0.50007465  0.86979331  0.88960418
   0.49984622  0.33398601 -0.00001194
   0.50027798  0.20382293  0.88896662
   0.00042892  0.72254939  0.33348658
   0.74923593  0.28680986  0.38920399
   0.49905075  0.85300343  0.44450071
   0.75047247  0.10189217  0.94441807
   0.75029444  0.95426852  0.72222256
   0.24955179  0.62022844  0.72187034
   0.24927061  0.95412154  0.38946399
   0.00048412  0.31485641  0.55582723
   0.49985817  0.12931005  0.11073992
   0.74950566  0.62025320  0.38901338
   0.74989740  0.76849183  0.94423989
   0.75022894  0.75022787  0.49986806
   0.24989517  0.30546280  0.83335507
   0.00073197  0.05531375  0.33332414
   0.50055529  0.59241390  0.22192072
   0.74981024  0.41642362  0.49997382
   0.50030633  0.40724060  0.77789458
   0.00030115  0.38875597  0.33332978
   0.25006595  0.36114717  0.16666462
   0.00045932  0.64811100  0.55569946
   0.74995897  0.49092435  0.27782790
   0.00340421  0.85211044  0.44433795
   0.99920445  0.20147064  0.88890214
   0.49981687  0.46351160  0.11084458
   0.25293316  0.08152060  0.49917682
   0.49758329  0.31346050  0.55567656
   0.25146827  0.28718787  0.72285639
   0.74988949  0.08315485  0.49996503
   0.99998007  0.00008007  0.99982532
   0.75036008  0.63922133  0.83372545
   0.75136949  0.28568544  0.72294655
   0.25013305  0.75122342  0.49987756
   0.25045806  0.76784644  0.94425391
   0.24927900  0.41521061  0.49945148
   0.00092896  0.33329209 -0.00002594
   0.99992977  0.79607067  0.11139155
   0.74872147  0.89922267  0.05574670
   0.50059382  0.05559727  0.33372472
   0.50088101  0.52019951  0.44396288
   0.74958925  0.30511949  0.83316606
   0.75005035  0.96949144  0.83346019
   0.00031881  0.59258040  0.22201885
   0.99868386  0.11022808  0.66706894
   0.74986852  0.56503242  0.05552698
   0.49967079  0.92561467  0.22224873
   0.74988295  0.36140548  0.16653114
   0.49572253  0.98256097  0.55527380
   0.25110623  0.89824592  0.05529159
   0.00126089  0.18486747  0.44427962
   0.25001601  0.02776995  0.16667484
   0.24836089  0.54928444  0.61063571
   0.25076309  0.21245480  0.61046120
   0.74754952  0.43557898  0.94452076
   0.25005873  0.56482815  0.05535490
   0.24941840  0.10178361  0.94481214
   0.25027455  0.69442612  0.16667689
   0.24944113  0.15831365  0.27779284
   0.99996294  0.73990786  0.77782331
   0.24935849  0.28631414  0.38956482
   0.99953975  0.07432735  0.77769073
   0.24980698  0.43552020  0.94484922
   0.74994366  0.69425696  0.16652675
   0.49965470  0.11209984  0.66653799
Direct configuration=    50
   0.49945717  0.25930319  0.22218441
   0.00070118  0.25910403  0.22229695
   0.24956005  0.23118446  0.05522187
   0.49996588  0.79602807  0.11062505
   0.00004795  0.46314434  0.11075956
   0.00148144  0.51889289  0.44418704
   0.25047156  0.87924021  0.61086857
   0.00060889  0.66660452  0.00005642
   0.75069806  0.62021065  0.72233708
   0.49987171  0.72231701  0.33324883
   0.24977592  0.95337616  0.72198204
   0.99984612  0.40807509  0.77767724
   0.00057451  0.44484722  0.66657068
   0.24951062  0.63913441  0.83335990
   0.74976410  0.21291290  0.61131276
   0.00123244  0.77750331  0.66675892
   0.24981463  0.82419287  0.27787219
   0.49921610  0.77812761  0.66632592
   0.50039648  0.74101011  0.77799603
   0.49961187  0.99884502  0.00020925
   0.50018019  0.07402668  0.77771020
   0.49998553  0.38865607  0.33350028
   0.00032032  0.92600454  0.22227583
   0.24911680  0.62062335  0.38924640
   0.49958214  0.66699700  0.00009621
   0.75027631  0.54711976  0.61084672
   0.75044206  0.87936447  0.61099059
   0.00020895  0.12951703  0.11064209
   0.24978244  0.97191868  0.83327210
   0.50091830  0.53741676  0.88965471
   0.99977438  0.87158037  0.88940521
   0.24996115  0.49034855  0.27777865
   0.49932172  0.64843571  0.55584123
   0.00061817  0.98157756  0.55566980
   0.50002708  0.44396409  0.66664702
   0.75033506  0.23121259  0.05540640
   0.50010698  0.18537233  0.44429934
   0.75008532  0.82402722  0.27785503
   0.75012042  0.15736873  0.27791346
   0.74989649  0.02762415  0.16652009
   0.99994881  0.53727745  0.88870233
   0.74858472  0.95469577  0.38904184
   0.50007465  0.86979331  0.88960418
   0.49984622  0.33398601 -0.00001194
   0.50027798  0.20382293  0.88896662
   0.00042892  0.72254939  0.33348658
   0.74923593  0.28680986  0.38920399
   0.49905075  0.85300343  0.44450071
   0.75047247  0.10189217  0.94441807
   0.75029444  0.95426852  0.72222256
   0.24955179  0.62022844  0.72187034
   0.24927061  0.95412154  0.38946399
   0.00048412  0.31485641  0.55582723
   0.49985817  0.12931005  0.11073992
   0.74950566  0.62025320  0.38901338
   0.74989740  0.76849183  0.94423989
   0.75022894  0.75022787  0.49986806
   0.24989517  0.30546280  0.83335507
   0.00073197  0.05531375  0.33332414
   0.50055529  0.59241390  0.22192072
   0.74981024  0.41642362  0.49997382
   0.50030633  0.40724060  0.77789458
   0.00030115  0.38875597  0.33332978
   0.25006595  0.36114717  0.16666462
   0.00045932  0.64811100  0.55569946
   0.74995897  0.49092435  0.27782790
   0.00340421  0.85211044  0.44433795
   0.99920445  0.20147064  0.88890214
   0.49981687  0.46351160  0.11084458
   0.25293316  0.08152060  0.49917682
   0.49758329  0.31346050  0.55567656
   0.25146827  0.28718787  0.72285639
   0.74988949  0.08315485  0.49996503
   0.99998007  0.00008007  0.99982532
   0.75036008  0.63922133  0.83372545
   0.75136949  0.28568544  0.72294655
   0.25013305  0.75122342  0.49987756
   0.25045806  0.76784644  0.94425391
   0.24927900  0.41521061  0.49945148
   0.00092896  0.33329209 -0.00002594
   0.99992977  0.79607067  0.11139155
   0.74872147  0.89922267  0.05574670
   0.50059382  0.05559727  0.33372472
   0.50088101  0.52019951  0.44396288
   0.74958925  0.30511949  0.83316606
   0.75005035  0.96949144  0.83346019
   0.00031881  0.59258040  0.22201885
   0.99868386  0.11022808  0.66706894
   0.74986852  0.56503242  0.05552698
   0.49967079  0.92561467  0.22224873
   0.74988295  0.36140548  0.16653114
   0.49572253  0.98256097  0.55527380
   0.25110623  0.89824592  0.05529159
   0.00126089  0.18486747  0.44427962
   0.25001601  0.02776995  0.16667484
   0.24836089  0.54928444  0.61063571
   0.25076309  0.21245480  0.61046120
   0.74754952  0.43557898  0.94452076
   0.25005873  0.56482815  0.05535490
   0.24941840  0.10178361  0.94481214
   0.25027455  0.69442612  0.16667689
   0.24944113  0.15831365  0.27779284
   0.99996294  0.73990786  0.77782331
   0.24935849  0.28631414  0.38956482
   0.99953975  0.07432735  0.77769073
   0.24980698  0.43552020  0.94484922
   0.74994366  0.69425696  0.16652675
   0.49965470  0.11209984  0.66653799
Direct configuration=    51
   0.49945717  0.25930319  0.22218441
   0.00070118  0.25910403  0.22229695
   0.24956005  0.23118446  0.05522187
   0.49996588  0.79602807  0.11062505
   0.00004795  0.46314434  0.11075956
   0.00148144  0.51889289  0.44418704
   0.25047156  0.87924021  0.61086857
   0.00060889  0.66660452  0.00005642
   0.75069806  0.62021065  0.72233708
   0.49987171  0.72231701  0.33324883
   0.24977592  0.95337616  0.72198204
   0.99984612  0.40807509  0.77767724
   0.00057451  0.44484722  0.66657068
   0.24951062  0.63913441  0.83335990
   0.74976410  0.21291290  0.61131276
   0.00123244  0.77750331  0.66675892
   0.24981463  0.82419287  0.27787219
   0.49921610  0.77812761  0.66632592
   0.50039648  0.74101011  0.77799603
   0.49961187  0.99884502  0.00020925
   0.50018019  0.07402668  0.77771020
   0.49998553  0.38865607  0.33350028
   0.00032032  0.92600454  0.22227583
   0.24911680  0.62062335  0.38924640
   0.49958214  0.66699700  0.00009621
   0.75027631  0.54711976  0.61084672
   0.75044206  0.87936447  0.61099059
   0.00020895  0.12951703  0.11064209
   0.24978244  0.97191868  0.83327210
   0.50091830  0.53741676  0.88965471
   0.99977438  0.87158037  0.88940521
   0.24996115  0.49034855  0.27777865
   0.49932172  0.64843571  0.55584123
   0.00061817  0.98157756  0.55566980
   0.50002708  0.44396409  0.66664702
   0.75033506  0.23121259  0.05540640
   0.50010698  0.18537233  0.44429934
   0.75008532  0.82402722  0.27785503
   0.75012042  0.15736873  0.27791346
   0.74989649  0.02762415  0.16652009
   0.99994881  0.53727745  0.88870233
   0.74858472  0.95469577  0.38904184
   0.50007465  0.86979331  0.88960418
   0.49984622  0.33398601 -0.00001194
   0.50027798  0.20382293  0.88896662
   0.00042892  0.72254939  0.33348658
   0.74923593  0.28680986  0.38920399
   0.49905075  0.85300343  0.44450071
   0.75047247  0.10189217  0.94441807
   0.75029444  0.95426852  0.72222256
   0.24955179  0.62022844  0.72187034
   0.24927061  0.95412154  0.38946399
   0.00048412  0.31485641  0.55582723
   0.49985817  0.12931005  0.11073992
   0.74950566  0.62025320  0.38901338
   0.74989740  0.76849183  0.94423989
   0.75022894  0.75022787  0.49986806
   0.24989517  0.30546280  0.83335507
   0.00073197  0.05531375  0.33332414
   0.50055529  0.59241390  0.22192072
   0.74981024  0.41642362  0.49997382
   0.50030633  0.40724060  0.77789458
   0.00030115  0.38875597  0.33332978
   0.25006595  0.36114717  0.16666462
   0.00045932  0.64811100  0.55569946
   0.74995897  0.49092435  0.27782790
   0.00340421  0.85211044  0.44433795
   0.99920445  0.20147064  0.88890214
   0.49981687  0.46351160  0.11084458
   0.25293316  0.08152060  0.49917682
   0.49758329  0.31346050  0.55567656
   0.25146827  0.28718787  0.72285639
   0.74988949  0.08315485  0.49996503
   0.99998007  0.00008007  0.99982532
   0.75036008  0.63922133  0.83372545
   0.75136949  0.28568544  0.72294655
   0.25013305  0.75122342  0.49987756
   0.25045806  0.76784644  0.94425391
   0.24927900  0.41521061  0.49945148
   0.00092896  0.33329209 -0.00002594
   0.99992977  0.79607067  0.11139155
   0.74872147  0.89922267  0.05574670
   0.50059382  0.05559727  0.33372472
   0.50088101  0.52019951  0.44396288
   0.74958925  0.30511949  0.83316606
   0.75005035  0.96949144  0.83346019
   0.00031881  0.59258040  0.22201885
   0.99868386  0.11022808  0.66706894
   0.74986852  0.56503242  0.05552698
   0.49967079  0.92561467  0.22224873
   0.74988295  0.36140548  0.16653114
   0.49572253  0.98256097  0.55527380
   0.25110623  0.89824592  0.05529159
   0.00126089  0.18486747  0.44427962
   0.25001601  0.02776995  0.16667484
   0.24836089  0.54928444  0.61063571
   0.25076309  0.21245480  0.61046120
   0.74754952  0.43557898  0.94452076
   0.25005873  0.56482815  0.05535490
   0.24941840  0.10178361  0.94481214
   0.25027455  0.69442612  0.16667689
   0.24944113  0.15831365  0.27779284
   0.99996294  0.73990786  0.77782331
   0.24935849  0.28631414  0.38956482
   0.99953975  0.07432735  0.77769073
   0.24980698  0.43552020  0.94484922
   0.74994366  0.69425696  0.16652675
   0.49965470  0.11209984  0.66653799
Direct configuration=    52
   0.49945717  0.25930319  0.22218441
   0.00070118  0.25910403  0.22229695
   0.24956005  0.23118446  0.05522187
   0.49996588  0.79602807  0.11062505
   0.00004795  0.46314434  0.11075956
   0.00148144  0.51889289  0.44418704
   0.25047156  0.87924021  0.61086857
   0.00060889  0.66660452  0.00005642
   0.75069806  0.62021065  0.72233708
   0.49987171  0.72231701  0.33324883
   0.24977592  0.95337616  0.72198204
   0.99984612  0.40807509  0.77767724
   0.00057451  0.44484722  0.66657068
   0.24951062  0.63913441  0.83335990
   0.74976410  0.21291290  0.61131276
   0.00123244  0.77750331  0.66675892
   0.24981463  0.82419287  0.27787219
   0.49921610  0.77812761  0.66632592
   0.50039648  0.74101011  0.77799603
   0.49961187  0.99884502  0.00020925
   0.50018019  0.07402668  0.77771020
   0.49998553  0.38865607  0.33350028
   0.00032032  0.92600454  0.22227583
   0.24911680  0.62062335  0.38924640
   0.49958214  0.66699700  0.00009621
   0.75027631  0.54711976  0.61084672
   0.75044206  0.87936447  0.61099059
   0.00020895  0.12951703  0.11064209
   0.24978244  0.97191868  0.83327210
   0.50091830  0.53741676  0.88965471
   0.99977438  0.87158037  0.88940521
   0.24996115  0.49034855  0.27777865
   0.49932172  0.64843571  0.55584123
   0.00061817  0.98157756  0.55566980
   0.50002708  0.44396409  0.66664702
   0.75033506  0.23121259  0.05540640
   0.50010698  0.18537233  0.44429934
   0.75008532  0.82402722  0.27785503
   0.75012042  0.15736873  0.27791346
   0.74989649  0.02762415  0.16652009
   0.99994881  0.53727745  0.88870233
   0.74858472  0.95469577  0.38904184
   0.50007465  0.86979331  0.88960418
   0.49984622  0.33398601 -0.00001194
   0.50027798  0.20382293  0.88896662
   0.00042892  0.72254939  0.33348658
   0.74923593  0.28680986  0.38920399
   0.49905075  0.85300343  0.44450071
   0.75047247  0.10189217  0.94441807
   0.75029444  0.95426852  0.72222256
   0.24955179  0.62022844  0.72187034
   0.24927061  0.95412154  0.38946399
   0.00048412  0.31485641  0.55582723
   0.49985817  0.12931005  0.11073992
   0.74950566  0.62025320  0.38901338
   0.74989740  0.76849183  0.94423989
   0.75022894  0.75022787  0.49986806
   0.24989517  0.30546280  0.83335507
   0.00073197  0.05531375  0.33332414
   0.50055529  0.59241390  0.22192072
   0.74981024  0.41642362  0.49997382
   0.50030633  0.40724060  0.77789458
   0.00030115  0.38875597  0.33332978
   0.25006595  0.36114717  0.16666462
   0.00045932  0.64811100  0.55569946
   0.74995897  0.49092435  0.27782790
   0.00340421  0.85211044  0.44433795
   0.99920445  0.20147064  0.88890214
   0.49981687  0.46351160  0.11084458
   0.25293316  0.08152060  0.49917682
   0.49758329  0.31346050  0.55567656
   0.25146827  0.28718787  0.72285639
   0.74988949  0.08315485  0.49996503
   0.99998007  0.00008007  0.99982532
   0.75036008  0.63922133  0.83372545
   0.75136949  0.28568544  0.72294655
   0.25013305  0.75122342  0.49987756
   0.25045806  0.76784644  0.94425391
   0.24927900  0.41521061  0.49945148
   0.00092896  0.33329209 -0.00002594
   0.99992977  0.79607067  0.11139155
   0.74872147  0.89922267  0.05574670
   0.50059382  0.05559727  0.33372472
   0.50088101  0.52019951  0.44396288
   0.74958925  0.30511949  0.83316606
   0.75005035  0.96949144  0.83346019
   0.00031881  0.59258040  0.22201885
   0.99868386  0.11022808  0.66706894
   0.74986852  0.56503242  0.05552698
   0.49967079  0.92561467  0.22224873
   0.74988295  0.36140548  0.16653114
   0.49572253  0.98256097  0.55527380
   0.25110623  0.89824592  0.05529159
   0.00126089  0.18486747  0.44427962
   0.25001601  0.02776995  0.16667484
   0.24836089  0.54928444  0.61063571
   0.25076309  0.21245480  0.61046120
   0.74754952  0.43557898  0.94452076
   0.25005873  0.56482815  0.05535490
   0.24941840  0.10178361  0.94481214
   0.25027455  0.69442612  0.16667689
   0.24944113  0.15831365  0.27779284
   0.99996294  0.73990786  0.77782331
   0.24935849  0.28631414  0.38956482
   0.99953975  0.07432735  0.77769073
   0.24980698  0.43552020  0.94484922
   0.74994366  0.69425696  0.16652675
   0.49965470  0.11209984  0.66653799
Direct configuration=    53
   0.49945717  0.25930319  0.22218441
   0.00070118  0.25910403  0.22229695
   0.24956005  0.23118446  0.05522187
   0.49996588  0.79602807  0.11062505
   0.00004795  0.46314434  0.11075956
   0.00148144  0.51889289  0.44418704
   0.25047156  0.87924021  0.61086857
   0.00060889  0.66660452  0.00005642
   0.75069806  0.62021065  0.72233708
   0.49987171  0.72231701  0.33324883
   0.24977592  0.95337616  0.72198204
   0.99984612  0.40807509  0.77767724
   0.00057451  0.44484722  0.66657068
   0.24951062  0.63913441  0.83335990
   0.74976410  0.21291290  0.61131276
   0.00123244  0.77750331  0.66675892
   0.24981463  0.82419287  0.27787219
   0.49921610  0.77812761  0.66632592
   0.50039648  0.74101011  0.77799603
   0.49961187  0.99884502  0.00020925
   0.50018019  0.07402668  0.77771020
   0.49998553  0.38865607  0.33350028
   0.00032032  0.92600454  0.22227583
   0.24911680  0.62062335  0.38924640
   0.49958214  0.66699700  0.00009621
   0.75027631  0.54711976  0.61084672
   0.75044206  0.87936447  0.61099059
   0.00020895  0.12951703  0.11064209
   0.24978244  0.97191868  0.83327210
   0.50091830  0.53741676  0.88965471
   0.99977438  0.87158037  0.88940521
   0.24996115  0.49034855  0.27777865
   0.49932172  0.64843571  0.55584123
   0.00061817  0.98157756  0.55566980
   0.50002708  0.44396409  0.66664702
   0.75033506  0.23121259  0.05540640
   0.50010698  0.18537233  0.44429934
   0.75008532  0.82402722  0.27785503
   0.75012042  0.15736873  0.27791346
   0.74989649  0.02762415  0.16652009
   0.99994881  0.53727745  0.88870233
   0.74858472  0.95469577  0.38904184
   0.50007465  0.86979331  0.88960418
   0.49984622  0.33398601 -0.00001194
   0.50027798  0.20382293  0.88896662
   0.00042892  0.72254939  0.33348658
   0.74923593  0.28680986  0.38920399
   0.49905075  0.85300343  0.44450071
   0.75047247  0.10189217  0.94441807
   0.75029444  0.95426852  0.72222256
   0.24955179  0.62022844  0.72187034
   0.24927061  0.95412154  0.38946399
   0.00048412  0.31485641  0.55582723
   0.49985817  0.12931005  0.11073992
   0.74950566  0.62025320  0.38901338
   0.74989740  0.76849183  0.94423989
   0.75022894  0.75022787  0.49986806
   0.24989517  0.30546280  0.83335507
   0.00073197  0.05531375  0.33332414
   0.50055529  0.59241390  0.22192072
   0.74981024  0.41642362  0.49997382
   0.50030633  0.40724060  0.77789458
   0.00030115  0.38875597  0.33332978
   0.25006595  0.36114717  0.16666462
   0.00045932  0.64811100  0.55569946
   0.74995897  0.49092435  0.27782790
   0.00340421  0.85211044  0.44433795
   0.99920445  0.20147064  0.88890214
   0.49981687  0.46351160  0.11084458
   0.25293316  0.08152060  0.49917682
   0.49758329  0.31346050  0.55567656
   0.25146827  0.28718787  0.72285639
   0.74988949  0.08315485  0.49996503
   0.99998007  0.00008007  0.99982532
   0.75036008  0.63922133  0.83372545
   0.75136949  0.28568544  0.72294655
   0.25013305  0.75122342  0.49987756
   0.25045806  0.76784644  0.94425391
   0.24927900  0.41521061  0.49945148
   0.00092896  0.33329209 -0.00002594
   0.99992977  0.79607067  0.11139155
   0.74872147  0.89922267  0.05574670
   0.50059382  0.05559727  0.33372472
   0.50088101  0.52019951  0.44396288
   0.74958925  0.30511949  0.83316606
   0.75005035  0.96949144  0.83346019
   0.00031881  0.59258040  0.22201885
   0.99868386  0.11022808  0.66706894
   0.74986852  0.56503242  0.05552698
   0.49967079  0.92561467  0.22224873
   0.74988295  0.36140548  0.16653114
   0.49572253  0.98256097  0.55527380
   0.25110623  0.89824592  0.05529159
   0.00126089  0.18486747  0.44427962
   0.25001601  0.02776995  0.16667484
   0.24836089  0.54928444  0.61063571
   0.25076309  0.21245480  0.61046120
   0.74754952  0.43557898  0.94452076
   0.25005873  0.56482815  0.05535490
   0.24941840  0.10178361  0.94481214
   0.25027455  0.69442612  0.16667689
   0.24944113  0.15831365  0.27779284
   0.99996294  0.73990786  0.77782331
   0.24935849  0.28631414  0.38956482
   0.99953975  0.07432735  0.77769073
   0.24980698  0.43552020  0.94484922
   0.74994366  0.69425696  0.16652675
   0.49965470  0.11209984  0.66653799
Direct configuration=    54
   0.49945717  0.25930319  0.22218441
   0.00070118  0.25910403  0.22229695
   0.24956005  0.23118446  0.05522187
   0.49996588  0.79602807  0.11062505
   0.00004795  0.46314434  0.11075956
   0.00148144  0.51889289  0.44418704
   0.25047156  0.87924021  0.61086857
   0.00060889  0.66660452  0.00005642
   0.75069806  0.62021065  0.72233708
   0.49987171  0.72231701  0.33324883
   0.24977592  0.95337616  0.72198204
   0.99984612  0.40807509  0.77767724
   0.00057451  0.44484722  0.66657068
   0.24951062  0.63913441  0.83335990
   0.74976410  0.21291290  0.61131276
   0.00123244  0.77750331  0.66675892
   0.24981463  0.82419287  0.27787219
   0.49921610  0.77812761  0.66632592
   0.50039648  0.74101011  0.77799603
   0.49961187  0.99884502  0.00020925
   0.50018019  0.07402668  0.77771020
   0.49998553  0.38865607  0.33350028
   0.00032032  0.92600454  0.22227583
   0.24911680  0.62062335  0.38924640
   0.49958214  0.66699700  0.00009621
   0.75027631  0.54711976  0.61084672
   0.75044206  0.87936447  0.61099059
   0.00020895  0.12951703  0.11064209
   0.24978244  0.97191868  0.83327210
   0.50091830  0.53741676  0.88965471
   0.99977438  0.87158037  0.88940521
   0.24996115  0.49034855  0.27777865
   0.49932172  0.64843571  0.55584123
   0.00061817  0.98157756  0.55566980
   0.50002708  0.44396409  0.66664702
   0.75033506  0.23121259  0.05540640
   0.50010698  0.18537233  0.44429934
   0.75008532  0.82402722  0.27785503
   0.75012042  0.15736873  0.27791346
   0.74989649  0.02762415  0.16652009
   0.99994881  0.53727745  0.88870233
   0.74858472  0.95469577  0.38904184
   0.50007465  0.86979331  0.88960418
   0.49984622  0.33398601 -0.00001194
   0.50027798  0.20382293  0.88896662
   0.00042892  0.72254939  0.33348658
   0.74923593  0.28680986  0.38920399
   0.49905075  0.85300343  0.44450071
   0.75047247  0.10189217  0.94441807
   0.75029444  0.95426852  0.72222256
   0.24955179  0.62022844  0.72187034
   0.24927061  0.95412154  0.38946399
   0.00048412  0.31485641  0.55582723
   0.49985817  0.12931005  0.11073992
   0.74950566  0.62025320  0.38901338
   0.74989740  0.76849183  0.94423989
   0.75022894  0.75022787  0.49986806
   0.24989517  0.30546280  0.83335507
   0.00073197  0.05531375  0.33332414
   0.50055529  0.59241390  0.22192072
   0.74981024  0.41642362  0.49997382
   0.50030633  0.40724060  0.77789458
   0.00030115  0.38875597  0.33332978
   0.25006595  0.36114717  0.16666462
   0.00045932  0.64811100  0.55569946
   0.74995897  0.49092435  0.27782790
   0.00340421  0.85211044  0.44433795
   0.99920445  0.20147064  0.88890214
   0.49981687  0.46351160  0.11084458
   0.25293316  0.08152060  0.49917682
   0.49758329  0.31346050  0.55567656
   0.25146827  0.28718787  0.72285639
   0.74988949  0.08315485  0.49996503
   0.99998007  0.00008007  0.99982532
   0.75036008  0.63922133  0.83372545
   0.75136949  0.28568544  0.72294655
   0.25013305  0.75122342  0.49987756
   0.25045806  0.76784644  0.94425391
   0.24927900  0.41521061  0.49945148
   0.00092896  0.33329209 -0.00002594
   0.99992977  0.79607067  0.11139155
   0.74872147  0.89922267  0.05574670
   0.50059382  0.05559727  0.33372472
   0.50088101  0.52019951  0.44396288
   0.74958925  0.30511949  0.83316606
   0.75005035  0.96949144  0.83346019
   0.00031881  0.59258040  0.22201885
   0.99868386  0.11022808  0.66706894
   0.74986852  0.56503242  0.05552698
   0.49967079  0.92561467  0.22224873
   0.74988295  0.36140548  0.16653114
   0.49572253  0.98256097  0.55527380
   0.25110623  0.89824592  0.05529159
   0.00126089  0.18486747  0.44427962
   0.25001601  0.02776995  0.16667484
   0.24836089  0.54928444  0.61063571
   0.25076309  0.21245480  0.61046120
   0.74754952  0.43557898  0.94452076
   0.25005873  0.56482815  0.05535490
   0.24941840  0.10178361  0.94481214
   0.25027455  0.69442612  0.16667689
   0.24944113  0.15831365  0.27779284
   0.99996294  0.73990786  0.77782331
   0.24935849  0.28631414  0.38956482
   0.99953975  0.07432735  0.77769073
   0.24980698  0.43552020  0.94484922
   0.74994366  0.69425696  0.16652675
   0.49965470  0.11209984  0.66653799
Direct configuration=    55
   0.49945717  0.25930319  0.22218441
   0.00070118  0.25910403  0.22229695
   0.24956005  0.23118446  0.05522187
   0.49996588  0.79602807  0.11062505
   0.00004795  0.46314434  0.11075956
   0.00148144  0.51889289  0.44418704
   0.25047156  0.87924021  0.61086857
   0.00060889  0.66660452  0.00005642
   0.75069806  0.62021065  0.72233708
   0.49987171  0.72231701  0.33324883
   0.24977592  0.95337616  0.72198204
   0.99984612  0.40807509  0.77767724
   0.00057451  0.44484722  0.66657068
   0.24951062  0.63913441  0.83335990
   0.74976410  0.21291290  0.61131276
   0.00123244  0.77750331  0.66675892
   0.24981463  0.82419287  0.27787219
   0.49921610  0.77812761  0.66632592
   0.50039648  0.74101011  0.77799603
   0.49961187  0.99884502  0.00020925
   0.50018019  0.07402668  0.77771020
   0.49998553  0.38865607  0.33350028
   0.00032032  0.92600454  0.22227583
   0.24911680  0.62062335  0.38924640
   0.49958214  0.66699700  0.00009621
   0.75027631  0.54711976  0.61084672
   0.75044206  0.87936447  0.61099059
   0.00020895  0.12951703  0.11064209
   0.24978244  0.97191868  0.83327210
   0.50091830  0.53741676  0.88965471
   0.99977438  0.87158037  0.88940521
   0.24996115  0.49034855  0.27777865
   0.49932172  0.64843571  0.55584123
   0.00061817  0.98157756  0.55566980
   0.50002708  0.44396409  0.66664702
   0.75033506  0.23121259  0.05540640
   0.50010698  0.18537233  0.44429934
   0.75008532  0.82402722  0.27785503
   0.75012042  0.15736873  0.27791346
   0.74989649  0.02762415  0.16652009
   0.99994881  0.53727745  0.88870233
   0.74858472  0.95469577  0.38904184
   0.50007465  0.86979331  0.88960418
   0.49984622  0.33398601 -0.00001194
   0.50027798  0.20382293  0.88896662
   0.00042892  0.72254939  0.33348658
   0.74923593  0.28680986  0.38920399
   0.49905075  0.85300343  0.44450071
   0.75047247  0.10189217  0.94441807
   0.75029444  0.95426852  0.72222256
   0.24955179  0.62022844  0.72187034
   0.24927061  0.95412154  0.38946399
   0.00048412  0.31485641  0.55582723
   0.49985817  0.12931005  0.11073992
   0.74950566  0.62025320  0.38901338
   0.74989740  0.76849183  0.94423989
   0.75022894  0.75022787  0.49986806
   0.24989517  0.30546280  0.83335507
   0.00073197  0.05531375  0.33332414
   0.50055529  0.59241390  0.22192072
   0.74981024  0.41642362  0.49997382
   0.50030633  0.40724060  0.77789458
   0.00030115  0.38875597  0.33332978
   0.25006595  0.36114717  0.16666462
   0.00045932  0.64811100  0.55569946
   0.74995897  0.49092435  0.27782790
   0.00340421  0.85211044  0.44433795
   0.99920445  0.20147064  0.88890214
   0.49981687  0.46351160  0.11084458
   0.25293316  0.08152060  0.49917682
   0.49758329  0.31346050  0.55567656
   0.25146827  0.28718787  0.72285639
   0.74988949  0.08315485  0.49996503
   0.99998007  0.00008007  0.99982532
   0.75036008  0.63922133  0.83372545
   0.75136949  0.28568544  0.72294655
   0.25013305  0.75122342  0.49987756
   0.25045806  0.76784644  0.94425391
   0.24927900  0.41521061  0.49945148
   0.00092896  0.33329209 -0.00002594
   0.99992977  0.79607067  0.11139155
   0.74872147  0.89922267  0.05574670
   0.50059382  0.05559727  0.33372472
   0.50088101  0.52019951  0.44396288
   0.74958925  0.30511949  0.83316606
   0.75005035  0.96949144  0.83346019
   0.00031881  0.59258040  0.22201885
   0.99868386  0.11022808  0.66706894
   0.74986852  0.56503242  0.05552698
   0.49967079  0.92561467  0.22224873
   0.74988295  0.36140548  0.16653114
   0.49572253  0.98256097  0.55527380
   0.25110623  0.89824592  0.05529159
   0.00126089  0.18486747  0.44427962
   0.25001601  0.02776995  0.16667484
   0.24836089  0.54928444  0.61063571
   0.25076309  0.21245480  0.61046120
   0.74754952  0.43557898  0.94452076
   0.25005873  0.56482815  0.05535490
   0.24941840  0.10178361  0.94481214
   0.25027455  0.69442612  0.16667689
   0.24944113  0.15831365  0.27779284
   0.99996294  0.73990786  0.77782331
   0.24935849  0.28631414  0.38956482
   0.99953975  0.07432735  0.77769073
   0.24980698  0.43552020  0.94484922
   0.74994366  0.69425696  0.16652675
   0.49965470  0.11209984  0.66653799
Direct configuration=    56
   0.49945717  0.25930319  0.22218441
   0.00070118  0.25910403  0.22229695
   0.24956005  0.23118446  0.05522187
   0.49996588  0.79602807  0.11062505
   0.00004795  0.46314434  0.11075956
   0.00148144  0.51889289  0.44418704
   0.25047156  0.87924021  0.61086857
   0.00060889  0.66660452  0.00005642
   0.75069806  0.62021065  0.72233708
   0.49987171  0.72231701  0.33324883
   0.24977592  0.95337616  0.72198204
   0.99984612  0.40807509  0.77767724
   0.00057451  0.44484722  0.66657068
   0.24951062  0.63913441  0.83335990
   0.74976410  0.21291290  0.61131276
   0.00123244  0.77750331  0.66675892
   0.24981463  0.82419287  0.27787219
   0.49921610  0.77812761  0.66632592
   0.50039648  0.74101011  0.77799603
   0.49961187  0.99884502  0.00020925
   0.50018019  0.07402668  0.77771020
   0.49998553  0.38865607  0.33350028
   0.00032032  0.92600454  0.22227583
   0.24911680  0.62062335  0.38924640
   0.49958214  0.66699700  0.00009621
   0.75027631  0.54711976  0.61084672
   0.75044206  0.87936447  0.61099059
   0.00020895  0.12951703  0.11064209
   0.24978244  0.97191868  0.83327210
   0.50091830  0.53741676  0.88965471
   0.99977438  0.87158037  0.88940521
   0.24996115  0.49034855  0.27777865
   0.49932172  0.64843571  0.55584123
   0.00061817  0.98157756  0.55566980
   0.50002708  0.44396409  0.66664702
   0.75033506  0.23121259  0.05540640
   0.50010698  0.18537233  0.44429934
   0.75008532  0.82402722  0.27785503
   0.75012042  0.15736873  0.27791346
   0.74989649  0.02762415  0.16652009
   0.99994881  0.53727745  0.88870233
   0.74858472  0.95469577  0.38904184
   0.50007465  0.86979331  0.88960418
   0.49984622  0.33398601 -0.00001194
   0.50027798  0.20382293  0.88896662
   0.00042892  0.72254939  0.33348658
   0.74923593  0.28680986  0.38920399
   0.49905075  0.85300343  0.44450071
   0.75047247  0.10189217  0.94441807
   0.75029444  0.95426852  0.72222256
   0.24955179  0.62022844  0.72187034
   0.24927061  0.95412154  0.38946399
   0.00048412  0.31485641  0.55582723
   0.49985817  0.12931005  0.11073992
   0.74950566  0.62025320  0.38901338
   0.74989740  0.76849183  0.94423989
   0.75022894  0.75022787  0.49986806
   0.24989517  0.30546280  0.83335507
   0.00073197  0.05531375  0.33332414
   0.50055529  0.59241390  0.22192072
   0.74981024  0.41642362  0.49997382
   0.50030633  0.40724060  0.77789458
   0.00030115  0.38875597  0.33332978
   0.25006595  0.36114717  0.16666462
   0.00045932  0.64811100  0.55569946
   0.74995897  0.49092435  0.27782790
   0.00340421  0.85211044  0.44433795
   0.99920445  0.20147064  0.88890214
   0.49981687  0.46351160  0.11084458
   0.25293316  0.08152060  0.49917682
   0.49758329  0.31346050  0.55567656
   0.25146827  0.28718787  0.72285639
   0.74988949  0.08315485  0.49996503
   0.99998007  0.00008007  0.99982532
   0.75036008  0.63922133  0.83372545
   0.75136949  0.28568544  0.72294655
   0.25013305  0.75122342  0.49987756
   0.25045806  0.76784644  0.94425391
   0.24927900  0.41521061  0.49945148
   0.00092896  0.33329209 -0.00002594
   0.99992977  0.79607067  0.11139155
   0.74872147  0.89922267  0.05574670
   0.50059382  0.05559727  0.33372472
   0.50088101  0.52019951  0.44396288
   0.74958925  0.30511949  0.83316606
   0.75005035  0.96949144  0.83346019
   0.00031881  0.59258040  0.22201885
   0.99868386  0.11022808  0.66706894
   0.74986852  0.56503242  0.05552698
   0.49967079  0.92561467  0.22224873
   0.74988295  0.36140548  0.16653114
   0.49572253  0.98256097  0.55527380
   0.25110623  0.89824592  0.05529159
   0.00126089  0.18486747  0.44427962
   0.25001601  0.02776995  0.16667484
   0.24836089  0.54928444  0.61063571
   0.25076309  0.21245480  0.61046120
   0.74754952  0.43557898  0.94452076
   0.25005873  0.56482815  0.05535490
   0.24941840  0.10178361  0.94481214
   0.25027455  0.69442612  0.16667689
   0.24944113  0.15831365  0.27779284
   0.99996294  0.73990786  0.77782331
   0.24935849  0.28631414  0.38956482
   0.99953975  0.07432735  0.77769073
   0.24980698  0.43552020  0.94484922
   0.74994366  0.69425696  0.16652675
   0.49965470  0.11209984  0.66653799
Direct configuration=    57
   0.49945717  0.25930319  0.22218441
   0.00070118  0.25910403  0.22229695
   0.24956005  0.23118446  0.05522187
   0.49996588  0.79602807  0.11062505
   0.00004795  0.46314434  0.11075956
   0.00148144  0.51889289  0.44418704
   0.25047156  0.87924021  0.61086857
   0.00060889  0.66660452  0.00005642
   0.75069806  0.62021065  0.72233708
   0.49987171  0.72231701  0.33324883
   0.24977592  0.95337616  0.72198204
   0.99984612  0.40807509  0.77767724
   0.00057451  0.44484722  0.66657068
   0.24951062  0.63913441  0.83335990
   0.74976410  0.21291290  0.61131276
   0.00123244  0.77750331  0.66675892
   0.24981463  0.82419287  0.27787219
   0.49921610  0.77812761  0.66632592
   0.50039648  0.74101011  0.77799603
   0.49961187  0.99884502  0.00020925
   0.50018019  0.07402668  0.77771020
   0.49998553  0.38865607  0.33350028
   0.00032032  0.92600454  0.22227583
   0.24911680  0.62062335  0.38924640
   0.49958214  0.66699700  0.00009621
   0.75027631  0.54711976  0.61084672
   0.75044206  0.87936447  0.61099059
   0.00020895  0.12951703  0.11064209
   0.24978244  0.97191868  0.83327210
   0.50091830  0.53741676  0.88965471
   0.99977438  0.87158037  0.88940521
   0.24996115  0.49034855  0.27777865
   0.49932172  0.64843571  0.55584123
   0.00061817  0.98157756  0.55566980
   0.50002708  0.44396409  0.66664702
   0.75033506  0.23121259  0.05540640
   0.50010698  0.18537233  0.44429934
   0.75008532  0.82402722  0.27785503
   0.75012042  0.15736873  0.27791346
   0.74989649  0.02762415  0.16652009
   0.99994881  0.53727745  0.88870233
   0.74858472  0.95469577  0.38904184
   0.50007465  0.86979331  0.88960418
   0.49984622  0.33398601 -0.00001194
   0.50027798  0.20382293  0.88896662
   0.00042892  0.72254939  0.33348658
   0.74923593  0.28680986  0.38920399
   0.49905075  0.85300343  0.44450071
   0.75047247  0.10189217  0.94441807
   0.75029444  0.95426852  0.72222256
   0.24955179  0.62022844  0.72187034
   0.24927061  0.95412154  0.38946399
   0.00048412  0.31485641  0.55582723
   0.49985817  0.12931005  0.11073992
   0.74950566  0.62025320  0.38901338
   0.74989740  0.76849183  0.94423989
   0.75022894  0.75022787  0.49986806
   0.24989517  0.30546280  0.83335507
   0.00073197  0.05531375  0.33332414
   0.50055529  0.59241390  0.22192072
   0.74981024  0.41642362  0.49997382
   0.50030633  0.40724060  0.77789458
   0.00030115  0.38875597  0.33332978
   0.25006595  0.36114717  0.16666462
   0.00045932  0.64811100  0.55569946
   0.74995897  0.49092435  0.27782790
   0.00340421  0.85211044  0.44433795
   0.99920445  0.20147064  0.88890214
   0.49981687  0.46351160  0.11084458
   0.25293316  0.08152060  0.49917682
   0.49758329  0.31346050  0.55567656
   0.25146827  0.28718787  0.72285639
   0.74988949  0.08315485  0.49996503
   0.99998007  0.00008007  0.99982532
   0.75036008  0.63922133  0.83372545
   0.75136949  0.28568544  0.72294655
   0.25013305  0.75122342  0.49987756
   0.25045806  0.76784644  0.94425391
   0.24927900  0.41521061  0.49945148
   0.00092896  0.33329209 -0.00002594
   0.99992977  0.79607067  0.11139155
   0.74872147  0.89922267  0.05574670
   0.50059382  0.05559727  0.33372472
   0.50088101  0.52019951  0.44396288
   0.74958925  0.30511949  0.83316606
   0.75005035  0.96949144  0.83346019
   0.00031881  0.59258040  0.22201885
   0.99868386  0.11022808  0.66706894
   0.74986852  0.56503242  0.05552698
   0.49967079  0.92561467  0.22224873
   0.74988295  0.36140548  0.16653114
   0.49572253  0.98256097  0.55527380
   0.25110623  0.89824592  0.05529159
   0.00126089  0.18486747  0.44427962
   0.25001601  0.02776995  0.16667484
   0.24836089  0.54928444  0.61063571
   0.25076309  0.21245480  0.61046120
   0.74754952  0.43557898  0.94452076
   0.25005873  0.56482815  0.05535490
   0.24941840  0.10178361  0.94481214
   0.25027455  0.69442612  0.16667689
   0.24944113  0.15831365  0.27779284
   0.99996294  0.73990786  0.77782331
   0.24935849  0.28631414  0.38956482
   0.99953975  0.07432735  0.77769073
   0.24980698  0.43552020  0.94484922
   0.74994366  0.69425696  0.16652675
   0.49965470  0.11209984  0.66653799
Direct configuration=    58
   0.49945717  0.25930319  0.22218441
   0.00070118  0.25910403  0.22229695
   0.24956005  0.23118446  0.05522187
   0.49996588  0.79602807  0.11062505
   0.00004795  0.46314434  0.11075956
   0.00148144  0.51889289  0.44418704
   0.25047156  0.87924021  0.61086857
   0.00060889  0.66660452  0.00005642
   0.75069806  0.62021065  0.72233708
   0.49987171  0.72231701  0.33324883
   0.24977592  0.95337616  0.72198204
   0.99984612  0.40807509  0.77767724
   0.00057451  0.44484722  0.66657068
   0.24951062  0.63913441  0.83335990
   0.74976410  0.21291290  0.61131276
   0.00123244  0.77750331  0.66675892
   0.24981463  0.82419287  0.27787219
   0.49921610  0.77812761  0.66632592
   0.50039648  0.74101011  0.77799603
   0.49961187  0.99884502  0.00020925
   0.50018019  0.07402668  0.77771020
   0.49998553  0.38865607  0.33350028
   0.00032032  0.92600454  0.22227583
   0.24911680  0.62062335  0.38924640
   0.49958214  0.66699700  0.00009621
   0.75027631  0.54711976  0.61084672
   0.75044206  0.87936447  0.61099059
   0.00020895  0.12951703  0.11064209
   0.24978244  0.97191868  0.83327210
   0.50091830  0.53741676  0.88965471
   0.99977438  0.87158037  0.88940521
   0.24996115  0.49034855  0.27777865
   0.49932172  0.64843571  0.55584123
   0.00061817  0.98157756  0.55566980
   0.50002708  0.44396409  0.66664702
   0.75033506  0.23121259  0.05540640
   0.50010698  0.18537233  0.44429934
   0.75008532  0.82402722  0.27785503
   0.75012042  0.15736873  0.27791346
   0.74989649  0.02762415  0.16652009
   0.99994881  0.53727745  0.88870233
   0.74858472  0.95469577  0.38904184
   0.50007465  0.86979331  0.88960418
   0.49984622  0.33398601 -0.00001194
   0.50027798  0.20382293  0.88896662
   0.00042892  0.72254939  0.33348658
   0.74923593  0.28680986  0.38920399
   0.49905075  0.85300343  0.44450071
   0.75047247  0.10189217  0.94441807
   0.75029444  0.95426852  0.72222256
   0.24955179  0.62022844  0.72187034
   0.24927061  0.95412154  0.38946399
   0.00048412  0.31485641  0.55582723
   0.49985817  0.12931005  0.11073992
   0.74950566  0.62025320  0.38901338
   0.74989740  0.76849183  0.94423989
   0.75022894  0.75022787  0.49986806
   0.24989517  0.30546280  0.83335507
   0.00073197  0.05531375  0.33332414
   0.50055529  0.59241390  0.22192072
   0.74981024  0.41642362  0.49997382
   0.50030633  0.40724060  0.77789458
   0.00030115  0.38875597  0.33332978
   0.25006595  0.36114717  0.16666462
   0.00045932  0.64811100  0.55569946
   0.74995897  0.49092435  0.27782790
   0.00340421  0.85211044  0.44433795
   0.99920445  0.20147064  0.88890214
   0.49981687  0.46351160  0.11084458
   0.25293316  0.08152060  0.49917682
   0.49758329  0.31346050  0.55567656
   0.25146827  0.28718787  0.72285639
   0.74988949  0.08315485  0.49996503
   0.99998007  0.00008007  0.99982532
   0.75036008  0.63922133  0.83372545
   0.75136949  0.28568544  0.72294655
   0.25013305  0.75122342  0.49987756
   0.25045806  0.76784644  0.94425391
   0.24927900  0.41521061  0.49945148
   0.00092896  0.33329209 -0.00002594
   0.99992977  0.79607067  0.11139155
   0.74872147  0.89922267  0.05574670
   0.50059382  0.05559727  0.33372472
   0.50088101  0.52019951  0.44396288
   0.74958925  0.30511949  0.83316606
   0.75005035  0.96949144  0.83346019
   0.00031881  0.59258040  0.22201885
   0.99868386  0.11022808  0.66706894
   0.74986852  0.56503242  0.05552698
   0.49967079  0.92561467  0.22224873
   0.74988295  0.36140548  0.16653114
   0.49572253  0.98256097  0.55527380
   0.25110623  0.89824592  0.05529159
   0.00126089  0.18486747  0.44427962
   0.25001601  0.02776995  0.16667484
   0.24836089  0.54928444  0.61063571
   0.25076309  0.21245480  0.61046120
   0.74754952  0.43557898  0.94452076
   0.25005873  0.56482815  0.05535490
   0.24941840  0.10178361  0.94481214
   0.25027455  0.69442612  0.16667689
   0.24944113  0.15831365  0.27779284
   0.99996294  0.73990786  0.77782331
   0.24935849  0.28631414  0.38956482
   0.99953975  0.07432735  0.77769073
   0.24980698  0.43552020  0.94484922
   0.74994366  0.69425696  0.16652675
   0.49965470  0.11209984  0.66653799
Direct configuration=    59
   0.49945717  0.25930319  0.22218441
   0.00070118  0.25910403  0.22229695
   0.24956005  0.23118446  0.05522187
   0.49996588  0.79602807  0.11062505
   0.00004795  0.46314434  0.11075956
   0.00148144  0.51889289  0.44418704
   0.25047156  0.87924021  0.61086857
   0.00060889  0.66660452  0.00005642
   0.75069806  0.62021065  0.72233708
   0.49987171  0.72231701  0.33324883
   0.24977592  0.95337616  0.72198204
   0.99984612  0.40807509  0.77767724
   0.00057451  0.44484722  0.66657068
   0.24951062  0.63913441  0.83335990
   0.74976410  0.21291290  0.61131276
   0.00123244  0.77750331  0.66675892
   0.24981463  0.82419287  0.27787219
   0.49921610  0.77812761  0.66632592
   0.50039648  0.74101011  0.77799603
   0.49961187  0.99884502  0.00020925
   0.50018019  0.07402668  0.77771020
   0.49998553  0.38865607  0.33350028
   0.00032032  0.92600454  0.22227583
   0.24911680  0.62062335  0.38924640
   0.49958214  0.66699700  0.00009621
   0.75027631  0.54711976  0.61084672
   0.75044206  0.87936447  0.61099059
   0.00020895  0.12951703  0.11064209
   0.24978244  0.97191868  0.83327210
   0.50091830  0.53741676  0.88965471
   0.99977438  0.87158037  0.88940521
   0.24996115  0.49034855  0.27777865
   0.49932172  0.64843571  0.55584123
   0.00061817  0.98157756  0.55566980
   0.50002708  0.44396409  0.66664702
   0.75033506  0.23121259  0.05540640
   0.50010698  0.18537233  0.44429934
   0.75008532  0.82402722  0.27785503
   0.75012042  0.15736873  0.27791346
   0.74989649  0.02762415  0.16652009
   0.99994881  0.53727745  0.88870233
   0.74858472  0.95469577  0.38904184
   0.50007465  0.86979331  0.88960418
   0.49984622  0.33398601 -0.00001194
   0.50027798  0.20382293  0.88896662
   0.00042892  0.72254939  0.33348658
   0.74923593  0.28680986  0.38920399
   0.49905075  0.85300343  0.44450071
   0.75047247  0.10189217  0.94441807
   0.75029444  0.95426852  0.72222256
   0.24955179  0.62022844  0.72187034
   0.24927061  0.95412154  0.38946399
   0.00048412  0.31485641  0.55582723
   0.49985817  0.12931005  0.11073992
   0.74950566  0.62025320  0.38901338
   0.74989740  0.76849183  0.94423989
   0.75022894  0.75022787  0.49986806
   0.24989517  0.30546280  0.83335507
   0.00073197  0.05531375  0.33332414
   0.50055529  0.59241390  0.22192072
   0.74981024  0.41642362  0.49997382
   0.50030633  0.40724060  0.77789458
   0.00030115  0.38875597  0.33332978
   0.25006595  0.36114717  0.16666462
   0.00045932  0.64811100  0.55569946
   0.74995897  0.49092435  0.27782790
   0.00340421  0.85211044  0.44433795
   0.99920445  0.20147064  0.88890214
   0.49981687  0.46351160  0.11084458
   0.25293316  0.08152060  0.49917682
   0.49758329  0.31346050  0.55567656
   0.25146827  0.28718787  0.72285639
   0.74988949  0.08315485  0.49996503
   0.99998007  0.00008007  0.99982532
   0.75036008  0.63922133  0.83372545
   0.75136949  0.28568544  0.72294655
   0.25013305  0.75122342  0.49987756
   0.25045806  0.76784644  0.94425391
   0.24927900  0.41521061  0.49945148
   0.00092896  0.33329209 -0.00002594
   0.99992977  0.79607067  0.11139155
   0.74872147  0.89922267  0.05574670
   0.50059382  0.05559727  0.33372472
   0.50088101  0.52019951  0.44396288
   0.74958925  0.30511949  0.83316606
   0.75005035  0.96949144  0.83346019
   0.00031881  0.59258040  0.22201885
   0.99868386  0.11022808  0.66706894
   0.74986852  0.56503242  0.05552698
   0.49967079  0.92561467  0.22224873
   0.74988295  0.36140548  0.16653114
   0.49572253  0.98256097  0.55527380
   0.25110623  0.89824592  0.05529159
   0.00126089  0.18486747  0.44427962
   0.25001601  0.02776995  0.16667484
   0.24836089  0.54928444  0.61063571
   0.25076309  0.21245480  0.61046120
   0.74754952  0.43557898  0.94452076
   0.25005873  0.56482815  0.05535490
   0.24941840  0.10178361  0.94481214
   0.25027455  0.69442612  0.16667689
   0.24944113  0.15831365  0.27779284
   0.99996294  0.73990786  0.77782331
   0.24935849  0.28631414  0.38956482
   0.99953975  0.07432735  0.77769073
   0.24980698  0.43552020  0.94484922
   0.74994366  0.69425696  0.16652675
   0.49965470  0.11209984  0.66653799
Direct configuration=    60
   0.49945717  0.25930319  0.22218441
   0.00070118  0.25910403  0.22229695
   0.24956005  0.23118446  0.05522187
   0.49996588  0.79602807  0.11062505
   0.00004795  0.46314434  0.11075956
   0.00148144  0.51889289  0.44418704
   0.25047156  0.87924021  0.61086857
   0.00060889  0.66660452  0.00005642
   0.75069806  0.62021065  0.72233708
   0.49987171  0.72231701  0.33324883
   0.24977592  0.95337616  0.72198204
   0.99984612  0.40807509  0.77767724
   0.00057451  0.44484722  0.66657068
   0.24951062  0.63913441  0.83335990
   0.74976410  0.21291290  0.61131276
   0.00123244  0.77750331  0.66675892
   0.24981463  0.82419287  0.27787219
   0.49921610  0.77812761  0.66632592
   0.50039648  0.74101011  0.77799603
   0.49961187  0.99884502  0.00020925
   0.50018019  0.07402668  0.77771020
   0.49998553  0.38865607  0.33350028
   0.00032032  0.92600454  0.22227583
   0.24911680  0.62062335  0.38924640
   0.49958214  0.66699700  0.00009621
   0.75027631  0.54711976  0.61084672
   0.75044206  0.87936447  0.61099059
   0.00020895  0.12951703  0.11064209
   0.24978244  0.97191868  0.83327210
   0.50091830  0.53741676  0.88965471
   0.99977438  0.87158037  0.88940521
   0.24996115  0.49034855  0.27777865
   0.49932172  0.64843571  0.55584123
   0.00061817  0.98157756  0.55566980
   0.50002708  0.44396409  0.66664702
   0.75033506  0.23121259  0.05540640
   0.50010698  0.18537233  0.44429934
   0.75008532  0.82402722  0.27785503
   0.75012042  0.15736873  0.27791346
   0.74989649  0.02762415  0.16652009
   0.99994881  0.53727745  0.88870233
   0.74858472  0.95469577  0.38904184
   0.50007465  0.86979331  0.88960418
   0.49984622  0.33398601 -0.00001194
   0.50027798  0.20382293  0.88896662
   0.00042892  0.72254939  0.33348658
   0.74923593  0.28680986  0.38920399
   0.49905075  0.85300343  0.44450071
   0.75047247  0.10189217  0.94441807
   0.75029444  0.95426852  0.72222256
   0.24955179  0.62022844  0.72187034
   0.24927061  0.95412154  0.38946399
   0.00048412  0.31485641  0.55582723
   0.49985817  0.12931005  0.11073992
   0.74950566  0.62025320  0.38901338
   0.74989740  0.76849183  0.94423989
   0.75022894  0.75022787  0.49986806
   0.24989517  0.30546280  0.83335507
   0.00073197  0.05531375  0.33332414
   0.50055529  0.59241390  0.22192072
   0.74981024  0.41642362  0.49997382
   0.50030633  0.40724060  0.77789458
   0.00030115  0.38875597  0.33332978
   0.25006595  0.36114717  0.16666462
   0.00045932  0.64811100  0.55569946
   0.74995897  0.49092435  0.27782790
   0.00340421  0.85211044  0.44433795
   0.99920445  0.20147064  0.88890214
   0.49981687  0.46351160  0.11084458
   0.25293316  0.08152060  0.49917682
   0.49758329  0.31346050  0.55567656
   0.25146827  0.28718787  0.72285639
   0.74988949  0.08315485  0.49996503
   0.99998007  0.00008007  0.99982532
   0.75036008  0.63922133  0.83372545
   0.75136949  0.28568544  0.72294655
   0.25013305  0.75122342  0.49987756
   0.25045806  0.76784644  0.94425391
   0.24927900  0.41521061  0.49945148
   0.00092896  0.33329209 -0.00002594
   0.99992977  0.79607067  0.11139155
   0.74872147  0.89922267  0.05574670
   0.50059382  0.05559727  0.33372472
   0.50088101  0.52019951  0.44396288
   0.74958925  0.30511949  0.83316606
   0.75005035  0.96949144  0.83346019
   0.00031881  0.59258040  0.22201885
   0.99868386  0.11022808  0.66706894
   0.74986852  0.56503242  0.05552698
   0.49967079  0.92561467  0.22224873
   0.74988295  0.36140548  0.16653114
   0.49572253  0.98256097  0.55527380
   0.25110623  0.89824592  0.05529159
   0.00126089  0.18486747  0.44427962
   0.25001601  0.02776995  0.16667484
   0.24836089  0.54928444  0.61063571
   0.25076309  0.21245480  0.61046120
   0.74754952  0.43557898  0.94452076
   0.25005873  0.56482815  0.05535490
   0.24941840  0.10178361  0.94481214
   0.25027455  0.69442612  0.16667689
   0.24944113  0.15831365  0.27779284
   0.99996294  0.73990786  0.77782331
   0.24935849  0.28631414  0.38956482
   0.99953975  0.07432735  0.77769073
   0.24980698  0.43552020  0.94484922
   0.74994366  0.69425696  0.16652675
   0.49965470  0.11209984  0.66653799
Direct configuration=    61
   0.49945717  0.25930319  0.22218441
   0.00070118  0.25910403  0.22229695
   0.24956005  0.23118446  0.05522187
   0.49996588  0.79602807  0.11062505
   0.00004795  0.46314434  0.11075956
   0.00148144  0.51889289  0.44418704
   0.25047156  0.87924021  0.61086857
   0.00060889  0.66660452  0.00005642
   0.75069806  0.62021065  0.72233708
   0.49987171  0.72231701  0.33324883
   0.24977592  0.95337616  0.72198204
   0.99984612  0.40807509  0.77767724
   0.00057451  0.44484722  0.66657068
   0.24951062  0.63913441  0.83335990
   0.74976410  0.21291290  0.61131276
   0.00123244  0.77750331  0.66675892
   0.24981463  0.82419287  0.27787219
   0.49921610  0.77812761  0.66632592
   0.50039648  0.74101011  0.77799603
   0.49961187  0.99884502  0.00020925
   0.50018019  0.07402668  0.77771020
   0.49998553  0.38865607  0.33350028
   0.00032032  0.92600454  0.22227583
   0.24911680  0.62062335  0.38924640
   0.49958214  0.66699700  0.00009621
   0.75027631  0.54711976  0.61084672
   0.75044206  0.87936447  0.61099059
   0.00020895  0.12951703  0.11064209
   0.24978244  0.97191868  0.83327210
   0.50091830  0.53741676  0.88965471
   0.99977438  0.87158037  0.88940521
   0.24996115  0.49034855  0.27777865
   0.49932172  0.64843571  0.55584123
   0.00061817  0.98157756  0.55566980
   0.50002708  0.44396409  0.66664702
   0.75033506  0.23121259  0.05540640
   0.50010698  0.18537233  0.44429934
   0.75008532  0.82402722  0.27785503
   0.75012042  0.15736873  0.27791346
   0.74989649  0.02762415  0.16652009
   0.99994881  0.53727745  0.88870233
   0.74858472  0.95469577  0.38904184
   0.50007465  0.86979331  0.88960418
   0.49984622  0.33398601 -0.00001194
   0.50027798  0.20382293  0.88896662
   0.00042892  0.72254939  0.33348658
   0.74923593  0.28680986  0.38920399
   0.49905075  0.85300343  0.44450071
   0.75047247  0.10189217  0.94441807
   0.75029444  0.95426852  0.72222256
   0.24955179  0.62022844  0.72187034
   0.24927061  0.95412154  0.38946399
   0.00048412  0.31485641  0.55582723
   0.49985817  0.12931005  0.11073992
   0.74950566  0.62025320  0.38901338
   0.74989740  0.76849183  0.94423989
   0.75022894  0.75022787  0.49986806
   0.24989517  0.30546280  0.83335507
   0.00073197  0.05531375  0.33332414
   0.50055529  0.59241390  0.22192072
   0.74981024  0.41642362  0.49997382
   0.50030633  0.40724060  0.77789458
   0.00030115  0.38875597  0.33332978
   0.25006595  0.36114717  0.16666462
   0.00045932  0.64811100  0.55569946
   0.74995897  0.49092435  0.27782790
   0.00340421  0.85211044  0.44433795
   0.99920445  0.20147064  0.88890214
   0.49981687  0.46351160  0.11084458
   0.25293316  0.08152060  0.49917682
   0.49758329  0.31346050  0.55567656
   0.25146827  0.28718787  0.72285639
   0.74988949  0.08315485  0.49996503
   0.99998007  0.00008007  0.99982532
   0.75036008  0.63922133  0.83372545
   0.75136949  0.28568544  0.72294655
   0.25013305  0.75122342  0.49987756
   0.25045806  0.76784644  0.94425391
   0.24927900  0.41521061  0.49945148
   0.00092896  0.33329209 -0.00002594
   0.99992977  0.79607067  0.11139155
   0.74872147  0.89922267  0.05574670
   0.50059382  0.05559727  0.33372472
   0.50088101  0.52019951  0.44396288
   0.74958925  0.30511949  0.83316606
   0.75005035  0.96949144  0.83346019
   0.00031881  0.59258040  0.22201885
   0.99868386  0.11022808  0.66706894
   0.74986852  0.56503242  0.05552698
   0.49967079  0.92561467  0.22224873
   0.74988295  0.36140548  0.16653114
   0.49572253  0.98256097  0.55527380
   0.25110623  0.89824592  0.05529159
   0.00126089  0.18486747  0.44427962
   0.25001601  0.02776995  0.16667484
   0.24836089  0.54928444  0.61063571
   0.25076309  0.21245480  0.61046120
   0.74754952  0.43557898  0.94452076
   0.25005873  0.56482815  0.05535490
   0.24941840  0.10178361  0.94481214
   0.25027455  0.69442612  0.16667689
   0.24944113  0.15831365  0.27779284
   0.99996294  0.73990786  0.77782331
   0.24935849  0.28631414  0.38956482
   0.99953975  0.07432735  0.77769073
   0.24980698  0.43552020  0.94484922
   0.74994366  0.69425696  0.16652675
   0.49965470  0.11209984  0.66653799
Direct configuration=    62
   0.49945717  0.25930319  0.22218441
   0.00070118  0.25910403  0.22229695
   0.24956005  0.23118446  0.05522187
   0.49996588  0.79602807  0.11062505
   0.00004795  0.46314434  0.11075956
   0.00148144  0.51889289  0.44418704
   0.25047156  0.87924021  0.61086857
   0.00060889  0.66660452  0.00005642
   0.75069806  0.62021065  0.72233708
   0.49987171  0.72231701  0.33324883
   0.24977592  0.95337616  0.72198204
   0.99984612  0.40807509  0.77767724
   0.00057451  0.44484722  0.66657068
   0.24951062  0.63913441  0.83335990
   0.74976410  0.21291290  0.61131276
   0.00123244  0.77750331  0.66675892
   0.24981463  0.82419287  0.27787219
   0.49921610  0.77812761  0.66632592
   0.50039648  0.74101011  0.77799603
   0.49961187  0.99884502  0.00020925
   0.50018019  0.07402668  0.77771020
   0.49998553  0.38865607  0.33350028
   0.00032032  0.92600454  0.22227583
   0.24911680  0.62062335  0.38924640
   0.49958214  0.66699700  0.00009621
   0.75027631  0.54711976  0.61084672
   0.75044206  0.87936447  0.61099059
   0.00020895  0.12951703  0.11064209
   0.24978244  0.97191868  0.83327210
   0.50091830  0.53741676  0.88965471
   0.99977438  0.87158037  0.88940521
   0.24996115  0.49034855  0.27777865
   0.49932172  0.64843571  0.55584123
   0.00061817  0.98157756  0.55566980
   0.50002708  0.44396409  0.66664702
   0.75033506  0.23121259  0.05540640
   0.50010698  0.18537233  0.44429934
   0.75008532  0.82402722  0.27785503
   0.75012042  0.15736873  0.27791346
   0.74989649  0.02762415  0.16652009
   0.99994881  0.53727745  0.88870233
   0.74858472  0.95469577  0.38904184
   0.50007465  0.86979331  0.88960418
   0.49984622  0.33398601 -0.00001194
   0.50027798  0.20382293  0.88896662
   0.00042892  0.72254939  0.33348658
   0.74923593  0.28680986  0.38920399
   0.49905075  0.85300343  0.44450071
   0.75047247  0.10189217  0.94441807
   0.75029444  0.95426852  0.72222256
   0.24955179  0.62022844  0.72187034
   0.24927061  0.95412154  0.38946399
   0.00048412  0.31485641  0.55582723
   0.49985817  0.12931005  0.11073992
   0.74950566  0.62025320  0.38901338
   0.74989740  0.76849183  0.94423989
   0.75022894  0.75022787  0.49986806
   0.24989517  0.30546280  0.83335507
   0.00073197  0.05531375  0.33332414
   0.50055529  0.59241390  0.22192072
   0.74981024  0.41642362  0.49997382
   0.50030633  0.40724060  0.77789458
   0.00030115  0.38875597  0.33332978
   0.25006595  0.36114717  0.16666462
   0.00045932  0.64811100  0.55569946
   0.74995897  0.49092435  0.27782790
   0.00340421  0.85211044  0.44433795
   0.99920445  0.20147064  0.88890214
   0.49981687  0.46351160  0.11084458
   0.25293316  0.08152060  0.49917682
   0.49758329  0.31346050  0.55567656
   0.25146827  0.28718787  0.72285639
   0.74988949  0.08315485  0.49996503
   0.99998007  0.00008007  0.99982532
   0.75036008  0.63922133  0.83372545
   0.75136949  0.28568544  0.72294655
   0.25013305  0.75122342  0.49987756
   0.25045806  0.76784644  0.94425391
   0.24927900  0.41521061  0.49945148
   0.00092896  0.33329209 -0.00002594
   0.99992977  0.79607067  0.11139155
   0.74872147  0.89922267  0.05574670
   0.50059382  0.05559727  0.33372472
   0.50088101  0.52019951  0.44396288
   0.74958925  0.30511949  0.83316606
   0.75005035  0.96949144  0.83346019
   0.00031881  0.59258040  0.22201885
   0.99868386  0.11022808  0.66706894
   0.74986852  0.56503242  0.05552698
   0.49967079  0.92561467  0.22224873
   0.74988295  0.36140548  0.16653114
   0.49572253  0.98256097  0.55527380
   0.25110623  0.89824592  0.05529159
   0.00126089  0.18486747  0.44427962
   0.25001601  0.02776995  0.16667484
   0.24836089  0.54928444  0.61063571
   0.25076309  0.21245480  0.61046120
   0.74754952  0.43557898  0.94452076
   0.25005873  0.56482815  0.05535490
   0.24941840  0.10178361  0.94481214
   0.25027455  0.69442612  0.16667689
   0.24944113  0.15831365  0.27779284
   0.99996294  0.73990786  0.77782331
   0.24935849  0.28631414  0.38956482
   0.99953975  0.07432735  0.77769073
   0.24980698  0.43552020  0.94484922
   0.74994366  0.69425696  0.16652675
   0.49965470  0.11209984  0.66653799
Direct configuration=    63
   0.49945717  0.25930319  0.22218441
   0.00070118  0.25910403  0.22229695
   0.24956005  0.23118446  0.05522187
   0.49996588  0.79602807  0.11062505
   0.00004795  0.46314434  0.11075956
   0.00148144  0.51889289  0.44418704
   0.25047156  0.87924021  0.61086857
   0.00060889  0.66660452  0.00005642
   0.75069806  0.62021065  0.72233708
   0.49987171  0.72231701  0.33324883
   0.24977592  0.95337616  0.72198204
   0.99984612  0.40807509  0.77767724
   0.00057451  0.44484722  0.66657068
   0.24951062  0.63913441  0.83335990
   0.74976410  0.21291290  0.61131276
   0.00123244  0.77750331  0.66675892
   0.24981463  0.82419287  0.27787219
   0.49921610  0.77812761  0.66632592
   0.50039648  0.74101011  0.77799603
   0.49961187  0.99884502  0.00020925
   0.50018019  0.07402668  0.77771020
   0.49998553  0.38865607  0.33350028
   0.00032032  0.92600454  0.22227583
   0.24911680  0.62062335  0.38924640
   0.49958214  0.66699700  0.00009621
   0.75027631  0.54711976  0.61084672
   0.75044206  0.87936447  0.61099059
   0.00020895  0.12951703  0.11064209
   0.24978244  0.97191868  0.83327210
   0.50091830  0.53741676  0.88965471
   0.99977438  0.87158037  0.88940521
   0.24996115  0.49034855  0.27777865
   0.49932172  0.64843571  0.55584123
   0.00061817  0.98157756  0.55566980
   0.50002708  0.44396409  0.66664702
   0.75033506  0.23121259  0.05540640
   0.50010698  0.18537233  0.44429934
   0.75008532  0.82402722  0.27785503
   0.75012042  0.15736873  0.27791346
   0.74989649  0.02762415  0.16652009
   0.99994881  0.53727745  0.88870233
   0.74858472  0.95469577  0.38904184
   0.50007465  0.86979331  0.88960418
   0.49984622  0.33398601 -0.00001194
   0.50027798  0.20382293  0.88896662
   0.00042892  0.72254939  0.33348658
   0.74923593  0.28680986  0.38920399
   0.49905075  0.85300343  0.44450071
   0.75047247  0.10189217  0.94441807
   0.75029444  0.95426852  0.72222256
   0.24955179  0.62022844  0.72187034
   0.24927061  0.95412154  0.38946399
   0.00048412  0.31485641  0.55582723
   0.49985817  0.12931005  0.11073992
   0.74950566  0.62025320  0.38901338
   0.74989740  0.76849183  0.94423989
   0.75022894  0.75022787  0.49986806
   0.24989517  0.30546280  0.83335507
   0.00073197  0.05531375  0.33332414
   0.50055529  0.59241390  0.22192072
   0.74981024  0.41642362  0.49997382
   0.50030633  0.40724060  0.77789458
   0.00030115  0.38875597  0.33332978
   0.25006595  0.36114717  0.16666462
   0.00045932  0.64811100  0.55569946
   0.74995897  0.49092435  0.27782790
   0.00340421  0.85211044  0.44433795
   0.99920445  0.20147064  0.88890214
   0.49981687  0.46351160  0.11084458
   0.25293316  0.08152060  0.49917682
   0.49758329  0.31346050  0.55567656
   0.25146827  0.28718787  0.72285639
   0.74988949  0.08315485  0.49996503
   0.99998007  0.00008007  0.99982532
   0.75036008  0.63922133  0.83372545
   0.75136949  0.28568544  0.72294655
   0.25013305  0.75122342  0.49987756
   0.25045806  0.76784644  0.94425391
   0.24927900  0.41521061  0.49945148
   0.00092896  0.33329209 -0.00002594
   0.99992977  0.79607067  0.11139155
   0.74872147  0.89922267  0.05574670
   0.50059382  0.05559727  0.33372472
   0.50088101  0.52019951  0.44396288
   0.74958925  0.30511949  0.83316606
   0.75005035  0.96949144  0.83346019
   0.00031881  0.59258040  0.22201885
   0.99868386  0.11022808  0.66706894
   0.74986852  0.56503242  0.05552698
   0.49967079  0.92561467  0.22224873
   0.74988295  0.36140548  0.16653114
   0.49572253  0.98256097  0.55527380
   0.25110623  0.89824592  0.05529159
   0.00126089  0.18486747  0.44427962
   0.25001601  0.02776995  0.16667484
   0.24836089  0.54928444  0.61063571
   0.25076309  0.21245480  0.61046120
   0.74754952  0.43557898  0.94452076
   0.25005873  0.56482815  0.05535490
   0.24941840  0.10178361  0.94481214
   0.25027455  0.69442612  0.16667689
   0.24944113  0.15831365  0.27779284
   0.99996294  0.73990786  0.77782331
   0.24935849  0.28631414  0.38956482
   0.99953975  0.07432735  0.77769073
   0.24980698  0.43552020  0.94484922
   0.74994366  0.69425696  0.16652675
   0.49965470  0.11209984  0.66653799
Direct configuration=    64
   0.49945717  0.25930319  0.22218441
   0.00070118  0.25910403  0.22229695
   0.24956005  0.23118446  0.05522187
   0.49996588  0.79602807  0.11062505
   0.00004795  0.46314434  0.11075956
   0.00148144  0.51889289  0.44418704
   0.25047156  0.87924021  0.61086857
   0.00060889  0.66660452  0.00005642
   0.75069806  0.62021065  0.72233708
   0.49987171  0.72231701  0.33324883
   0.24977592  0.95337616  0.72198204
   0.99984612  0.40807509  0.77767724
   0.00057451  0.44484722  0.66657068
   0.24951062  0.63913441  0.83335990
   0.74976410  0.21291290  0.61131276
   0.00123244  0.77750331  0.66675892
   0.24981463  0.82419287  0.27787219
   0.49921610  0.77812761  0.66632592
   0.50039648  0.74101011  0.77799603
   0.49961187  0.99884502  0.00020925
   0.50018019  0.07402668  0.77771020
   0.49998553  0.38865607  0.33350028
   0.00032032  0.92600454  0.22227583
   0.24911680  0.62062335  0.38924640
   0.49958214  0.66699700  0.00009621
   0.75027631  0.54711976  0.61084672
   0.75044206  0.87936447  0.61099059
   0.00020895  0.12951703  0.11064209
   0.24978244  0.97191868  0.83327210
   0.50091830  0.53741676  0.88965471
   0.99977438  0.87158037  0.88940521
   0.24996115  0.49034855  0.27777865
   0.49932172  0.64843571  0.55584123
   0.00061817  0.98157756  0.55566980
   0.50002708  0.44396409  0.66664702
   0.75033506  0.23121259  0.05540640
   0.50010698  0.18537233  0.44429934
   0.75008532  0.82402722  0.27785503
   0.75012042  0.15736873  0.27791346
   0.74989649  0.02762415  0.16652009
   0.99994881  0.53727745  0.88870233
   0.74858472  0.95469577  0.38904184
   0.50007465  0.86979331  0.88960418
   0.49984622  0.33398601 -0.00001194
   0.50027798  0.20382293  0.88896662
   0.00042892  0.72254939  0.33348658
   0.74923593  0.28680986  0.38920399
   0.49905075  0.85300343  0.44450071
   0.75047247  0.10189217  0.94441807
   0.75029444  0.95426852  0.72222256
   0.24955179  0.62022844  0.72187034
   0.24927061  0.95412154  0.38946399
   0.00048412  0.31485641  0.55582723
   0.49985817  0.12931005  0.11073992
   0.74950566  0.62025320  0.38901338
   0.74989740  0.76849183  0.94423989
   0.75022894  0.75022787  0.49986806
   0.24989517  0.30546280  0.83335507
   0.00073197  0.05531375  0.33332414
   0.50055529  0.59241390  0.22192072
   0.74981024  0.41642362  0.49997382
   0.50030633  0.40724060  0.77789458
   0.00030115  0.38875597  0.33332978
   0.25006595  0.36114717  0.16666462
   0.00045932  0.64811100  0.55569946
   0.74995897  0.49092435  0.27782790
   0.00340421  0.85211044  0.44433795
   0.99920445  0.20147064  0.88890214
   0.49981687  0.46351160  0.11084458
   0.25293316  0.08152060  0.49917682
   0.49758329  0.31346050  0.55567656
   0.25146827  0.28718787  0.72285639
   0.74988949  0.08315485  0.49996503
   0.99998007  0.00008007  0.99982532
   0.75036008  0.63922133  0.83372545
   0.75136949  0.28568544  0.72294655
   0.25013305  0.75122342  0.49987756
   0.25045806  0.76784644  0.94425391
   0.24927900  0.41521061  0.49945148
   0.00092896  0.33329209 -0.00002594
   0.99992977  0.79607067  0.11139155
   0.74872147  0.89922267  0.05574670
   0.50059382  0.05559727  0.33372472
   0.50088101  0.52019951  0.44396288
   0.74958925  0.30511949  0.83316606
   0.75005035  0.96949144  0.83346019
   0.00031881  0.59258040  0.22201885
   0.99868386  0.11022808  0.66706894
   0.74986852  0.56503242  0.05552698
   0.49967079  0.92561467  0.22224873
   0.74988295  0.36140548  0.16653114
   0.49572253  0.98256097  0.55527380
   0.25110623  0.89824592  0.05529159
   0.00126089  0.18486747  0.44427962
   0.25001601  0.02776995  0.16667484
   0.24836089  0.54928444  0.61063571
   0.25076309  0.21245480  0.61046120
   0.74754952  0.43557898  0.94452076
   0.25005873  0.56482815  0.05535490
   0.24941840  0.10178361  0.94481214
   0.25027455  0.69442612  0.16667689
   0.24944113  0.15831365  0.27779284
   0.99996294  0.73990786  0.77782331
   0.24935849  0.28631414  0.38956482
   0.99953975  0.07432735  0.77769073
   0.24980698  0.43552020  0.94484922
   0.74994366  0.69425696  0.16652675
   0.49965470  0.11209984  0.66653799
Direct configuration=    65
   0.49945717  0.25930319  0.22218441
   0.00070118  0.25910403  0.22229695
   0.24956005  0.23118446  0.05522187
   0.49996588  0.79602807  0.11062505
   0.00004795  0.46314434  0.11075956
   0.00148144  0.51889289  0.44418704
   0.25047156  0.87924021  0.61086857
   0.00060889  0.66660452  0.00005642
   0.75069806  0.62021065  0.72233708
   0.49987171  0.72231701  0.33324883
   0.24977592  0.95337616  0.72198204
   0.99984612  0.40807509  0.77767724
   0.00057451  0.44484722  0.66657068
   0.24951062  0.63913441  0.83335990
   0.74976410  0.21291290  0.61131276
   0.00123244  0.77750331  0.66675892
   0.24981463  0.82419287  0.27787219
   0.49921610  0.77812761  0.66632592
   0.50039648  0.74101011  0.77799603
   0.49961187  0.99884502  0.00020925
   0.50018019  0.07402668  0.77771020
   0.49998553  0.38865607  0.33350028
   0.00032032  0.92600454  0.22227583
   0.24911680  0.62062335  0.38924640
   0.49958214  0.66699700  0.00009621
   0.75027631  0.54711976  0.61084672
   0.75044206  0.87936447  0.61099059
   0.00020895  0.12951703  0.11064209
   0.24978244  0.97191868  0.83327210
   0.50091830  0.53741676  0.88965471
   0.99977438  0.87158037  0.88940521
   0.24996115  0.49034855  0.27777865
   0.49932172  0.64843571  0.55584123
   0.00061817  0.98157756  0.55566980
   0.50002708  0.44396409  0.66664702
   0.75033506  0.23121259  0.05540640
   0.50010698  0.18537233  0.44429934
   0.75008532  0.82402722  0.27785503
   0.75012042  0.15736873  0.27791346
   0.74989649  0.02762415  0.16652009
   0.99994881  0.53727745  0.88870233
   0.74858472  0.95469577  0.38904184
   0.50007465  0.86979331  0.88960418
   0.49984622  0.33398601 -0.00001194
   0.50027798  0.20382293  0.88896662
   0.00042892  0.72254939  0.33348658
   0.74923593  0.28680986  0.38920399
   0.49905075  0.85300343  0.44450071
   0.75047247  0.10189217  0.94441807
   0.75029444  0.95426852  0.72222256
   0.24955179  0.62022844  0.72187034
   0.24927061  0.95412154  0.38946399
   0.00048412  0.31485641  0.55582723
   0.49985817  0.12931005  0.11073992
   0.74950566  0.62025320  0.38901338
   0.74989740  0.76849183  0.94423989
   0.75022894  0.75022787  0.49986806
   0.24989517  0.30546280  0.83335507
   0.00073197  0.05531375  0.33332414
   0.50055529  0.59241390  0.22192072
   0.74981024  0.41642362  0.49997382
   0.50030633  0.40724060  0.77789458
   0.00030115  0.38875597  0.33332978
   0.25006595  0.36114717  0.16666462
   0.00045932  0.64811100  0.55569946
   0.74995897  0.49092435  0.27782790
   0.00340421  0.85211044  0.44433795
   0.99920445  0.20147064  0.88890214
   0.49981687  0.46351160  0.11084458
   0.25293316  0.08152060  0.49917682
   0.49758329  0.31346050  0.55567656
   0.25146827  0.28718787  0.72285639
   0.74988949  0.08315485  0.49996503
   0.99998007  0.00008007  0.99982532
   0.75036008  0.63922133  0.83372545
   0.75136949  0.28568544  0.72294655
   0.25013305  0.75122342  0.49987756
   0.25045806  0.76784644  0.94425391
   0.24927900  0.41521061  0.49945148
   0.00092896  0.33329209 -0.00002594
   0.99992977  0.79607067  0.11139155
   0.74872147  0.89922267  0.05574670
   0.50059382  0.05559727  0.33372472
   0.50088101  0.52019951  0.44396288
   0.74958925  0.30511949  0.83316606
   0.75005035  0.96949144  0.83346019
   0.00031881  0.59258040  0.22201885
   0.99868386  0.11022808  0.66706894
   0.74986852  0.56503242  0.05552698
   0.49967079  0.92561467  0.22224873
   0.74988295  0.36140548  0.16653114
   0.49572253  0.98256097  0.55527380
   0.25110623  0.89824592  0.05529159
   0.00126089  0.18486747  0.44427962
   0.25001601  0.02776995  0.16667484
   0.24836089  0.54928444  0.61063571
   0.25076309  0.21245480  0.61046120
   0.74754952  0.43557898  0.94452076
   0.25005873  0.56482815  0.05535490
   0.24941840  0.10178361  0.94481214
   0.25027455  0.69442612  0.16667689
   0.24944113  0.15831365  0.27779284
   0.99996294  0.73990786  0.77782331
   0.24935849  0.28631414  0.38956482
   0.99953975  0.07432735  0.77769073
   0.24980698  0.43552020  0.94484922
   0.74994366  0.69425696  0.16652675
   0.49965470  0.11209984  0.66653799
Direct configuration=    66
   0.49945717  0.25930319  0.22218441
   0.00070118  0.25910403  0.22229695
   0.24956005  0.23118446  0.05522187
   0.49996588  0.79602807  0.11062505
   0.00004795  0.46314434  0.11075956
   0.00148144  0.51889289  0.44418704
   0.25047156  0.87924021  0.61086857
   0.00060889  0.66660452  0.00005642
   0.75069806  0.62021065  0.72233708
   0.49987171  0.72231701  0.33324883
   0.24977592  0.95337616  0.72198204
   0.99984612  0.40807509  0.77767724
   0.00057451  0.44484722  0.66657068
   0.24951062  0.63913441  0.83335990
   0.74976410  0.21291290  0.61131276
   0.00123244  0.77750331  0.66675892
   0.24981463  0.82419287  0.27787219
   0.49921610  0.77812761  0.66632592
   0.50039648  0.74101011  0.77799603
   0.49961187  0.99884502  0.00020925
   0.50018019  0.07402668  0.77771020
   0.49998553  0.38865607  0.33350028
   0.00032032  0.92600454  0.22227583
   0.24911680  0.62062335  0.38924640
   0.49958214  0.66699700  0.00009621
   0.75027631  0.54711976  0.61084672
   0.75044206  0.87936447  0.61099059
   0.00020895  0.12951703  0.11064209
   0.24978244  0.97191868  0.83327210
   0.50091830  0.53741676  0.88965471
   0.99977438  0.87158037  0.88940521
   0.24996115  0.49034855  0.27777865
   0.49932172  0.64843571  0.55584123
   0.00061817  0.98157756  0.55566980
   0.50002708  0.44396409  0.66664702
   0.75033506  0.23121259  0.05540640
   0.50010698  0.18537233  0.44429934
   0.75008532  0.82402722  0.27785503
   0.75012042  0.15736873  0.27791346
   0.74989649  0.02762415  0.16652009
   0.99994881  0.53727745  0.88870233
   0.74858472  0.95469577  0.38904184
   0.50007465  0.86979331  0.88960418
   0.49984622  0.33398601 -0.00001194
   0.50027798  0.20382293  0.88896662
   0.00042892  0.72254939  0.33348658
   0.74923593  0.28680986  0.38920399
   0.49905075  0.85300343  0.44450071
   0.75047247  0.10189217  0.94441807
   0.75029444  0.95426852  0.72222256
   0.24955179  0.62022844  0.72187034
   0.24927061  0.95412154  0.38946399
   0.00048412  0.31485641  0.55582723
   0.49985817  0.12931005  0.11073992
   0.74950566  0.62025320  0.38901338
   0.74989740  0.76849183  0.94423989
   0.75022894  0.75022787  0.49986806
   0.24989517  0.30546280  0.83335507
   0.00073197  0.05531375  0.33332414
   0.50055529  0.59241390  0.22192072
   0.74981024  0.41642362  0.49997382
   0.50030633  0.40724060  0.77789458
   0.00030115  0.38875597  0.33332978
   0.25006595  0.36114717  0.16666462
   0.00045932  0.64811100  0.55569946
   0.74995897  0.49092435  0.27782790
   0.00340421  0.85211044  0.44433795
   0.99920445  0.20147064  0.88890214
   0.49981687  0.46351160  0.11084458
   0.25293316  0.08152060  0.49917682
   0.49758329  0.31346050  0.55567656
   0.25146827  0.28718787  0.72285639
   0.74988949  0.08315485  0.49996503
   0.99998007  0.00008007  0.99982532
   0.75036008  0.63922133  0.83372545
   0.75136949  0.28568544  0.72294655
   0.25013305  0.75122342  0.49987756
   0.25045806  0.76784644  0.94425391
   0.24927900  0.41521061  0.49945148
   0.00092896  0.33329209 -0.00002594
   0.99992977  0.79607067  0.11139155
   0.74872147  0.89922267  0.05574670
   0.50059382  0.05559727  0.33372472
   0.50088101  0.52019951  0.44396288
   0.74958925  0.30511949  0.83316606
   0.75005035  0.96949144  0.83346019
   0.00031881  0.59258040  0.22201885
   0.99868386  0.11022808  0.66706894
   0.74986852  0.56503242  0.05552698
   0.49967079  0.92561467  0.22224873
   0.74988295  0.36140548  0.16653114
   0.49572253  0.98256097  0.55527380
   0.25110623  0.89824592  0.05529159
   0.00126089  0.18486747  0.44427962
   0.25001601  0.02776995  0.16667484
   0.24836089  0.54928444  0.61063571
   0.25076309  0.21245480  0.61046120
   0.74754952  0.43557898  0.94452076
   0.25005873  0.56482815  0.05535490
   0.24941840  0.10178361  0.94481214
   0.25027455  0.69442612  0.16667689
   0.24944113  0.15831365  0.27779284
   0.99996294  0.73990786  0.77782331
   0.24935849  0.28631414  0.38956482
   0.99953975  0.07432735  0.77769073
   0.24980698  0.43552020  0.94484922
   0.74994366  0.69425696  0.16652675
   0.49965470  0.11209984  0.66653799
Direct configuration=    67
   0.49945717  0.25930319  0.22218441
   0.00070118  0.25910403  0.22229695
   0.24956005  0.23118446  0.05522187
   0.49996588  0.79602807  0.11062505
   0.00004795  0.46314434  0.11075956
   0.00148144  0.51889289  0.44418704
   0.25047156  0.87924021  0.61086857
   0.00060889  0.66660452  0.00005642
   0.75069806  0.62021065  0.72233708
   0.49987171  0.72231701  0.33324883
   0.24977592  0.95337616  0.72198204
   0.99984612  0.40807509  0.77767724
   0.00057451  0.44484722  0.66657068
   0.24951062  0.63913441  0.83335990
   0.74976410  0.21291290  0.61131276
   0.00123244  0.77750331  0.66675892
   0.24981463  0.82419287  0.27787219
   0.49921610  0.77812761  0.66632592
   0.50039648  0.74101011  0.77799603
   0.49961187  0.99884502  0.00020925
   0.50018019  0.07402668  0.77771020
   0.49998553  0.38865607  0.33350028
   0.00032032  0.92600454  0.22227583
   0.24911680  0.62062335  0.38924640
   0.49958214  0.66699700  0.00009621
   0.75027631  0.54711976  0.61084672
   0.75044206  0.87936447  0.61099059
   0.00020895  0.12951703  0.11064209
   0.24978244  0.97191868  0.83327210
   0.50091830  0.53741676  0.88965471
   0.99977438  0.87158037  0.88940521
   0.24996115  0.49034855  0.27777865
   0.49932172  0.64843571  0.55584123
   0.00061817  0.98157756  0.55566980
   0.50002708  0.44396409  0.66664702
   0.75033506  0.23121259  0.05540640
   0.50010698  0.18537233  0.44429934
   0.75008532  0.82402722  0.27785503
   0.75012042  0.15736873  0.27791346
   0.74989649  0.02762415  0.16652009
   0.99994881  0.53727745  0.88870233
   0.74858472  0.95469577  0.38904184
   0.50007465  0.86979331  0.88960418
   0.49984622  0.33398601 -0.00001194
   0.50027798  0.20382293  0.88896662
   0.00042892  0.72254939  0.33348658
   0.74923593  0.28680986  0.38920399
   0.49905075  0.85300343  0.44450071
   0.75047247  0.10189217  0.94441807
   0.75029444  0.95426852  0.72222256
   0.24955179  0.62022844  0.72187034
   0.24927061  0.95412154  0.38946399
   0.00048412  0.31485641  0.55582723
   0.49985817  0.12931005  0.11073992
   0.74950566  0.62025320  0.38901338
   0.74989740  0.76849183  0.94423989
   0.75022894  0.75022787  0.49986806
   0.24989517  0.30546280  0.83335507
   0.00073197  0.05531375  0.33332414
   0.50055529  0.59241390  0.22192072
   0.74981024  0.41642362  0.49997382
   0.50030633  0.40724060  0.77789458
   0.00030115  0.38875597  0.33332978
   0.25006595  0.36114717  0.16666462
   0.00045932  0.64811100  0.55569946
   0.74995897  0.49092435  0.27782790
   0.00340421  0.85211044  0.44433795
   0.99920445  0.20147064  0.88890214
   0.49981687  0.46351160  0.11084458
   0.25293316  0.08152060  0.49917682
   0.49758329  0.31346050  0.55567656
   0.25146827  0.28718787  0.72285639
   0.74988949  0.08315485  0.49996503
   0.99998007  0.00008007  0.99982532
   0.75036008  0.63922133  0.83372545
   0.75136949  0.28568544  0.72294655
   0.25013305  0.75122342  0.49987756
   0.25045806  0.76784644  0.94425391
   0.24927900  0.41521061  0.49945148
   0.00092896  0.33329209 -0.00002594
   0.99992977  0.79607067  0.11139155
   0.74872147  0.89922267  0.05574670
   0.50059382  0.05559727  0.33372472
   0.50088101  0.52019951  0.44396288
   0.74958925  0.30511949  0.83316606
   0.75005035  0.96949144  0.83346019
   0.00031881  0.59258040  0.22201885
   0.99868386  0.11022808  0.66706894
   0.74986852  0.56503242  0.05552698
   0.49967079  0.92561467  0.22224873
   0.74988295  0.36140548  0.16653114
   0.49572253  0.98256097  0.55527380
   0.25110623  0.89824592  0.05529159
   0.00126089  0.18486747  0.44427962
   0.25001601  0.02776995  0.16667484
   0.24836089  0.54928444  0.61063571
   0.25076309  0.21245480  0.61046120
   0.74754952  0.43557898  0.94452076
   0.25005873  0.56482815  0.05535490
   0.24941840  0.10178361  0.94481214
   0.25027455  0.69442612  0.16667689
   0.24944113  0.15831365  0.27779284
   0.99996294  0.73990786  0.77782331
   0.24935849  0.28631414  0.38956482
   0.99953975  0.07432735  0.77769073
   0.24980698  0.43552020  0.94484922
   0.74994366  0.69425696  0.16652675
   0.49965470  0.11209984  0.66653799
Direct configuration=    68
   0.49945717  0.25930319  0.22218441
   0.00070118  0.25910403  0.22229695
   0.24956005  0.23118446  0.05522187
   0.49996588  0.79602807  0.11062505
   0.00004795  0.46314434  0.11075956
   0.00148144  0.51889289  0.44418704
   0.25047156  0.87924021  0.61086857
   0.00060889  0.66660452  0.00005642
   0.75069806  0.62021065  0.72233708
   0.49987171  0.72231701  0.33324883
   0.24977592  0.95337616  0.72198204
   0.99984612  0.40807509  0.77767724
   0.00057451  0.44484722  0.66657068
   0.24951062  0.63913441  0.83335990
   0.74976410  0.21291290  0.61131276
   0.00123244  0.77750331  0.66675892
   0.24981463  0.82419287  0.27787219
   0.49921610  0.77812761  0.66632592
   0.50039648  0.74101011  0.77799603
   0.49961187  0.99884502  0.00020925
   0.50018019  0.07402668  0.77771020
   0.49998553  0.38865607  0.33350028
   0.00032032  0.92600454  0.22227583
   0.24911680  0.62062335  0.38924640
   0.49958214  0.66699700  0.00009621
   0.75027631  0.54711976  0.61084672
   0.75044206  0.87936447  0.61099059
   0.00020895  0.12951703  0.11064209
   0.24978244  0.97191868  0.83327210
   0.50091830  0.53741676  0.88965471
   0.99977438  0.87158037  0.88940521
   0.24996115  0.49034855  0.27777865
   0.49932172  0.64843571  0.55584123
   0.00061817  0.98157756  0.55566980
   0.50002708  0.44396409  0.66664702
   0.75033506  0.23121259  0.05540640
   0.50010698  0.18537233  0.44429934
   0.75008532  0.82402722  0.27785503
   0.75012042  0.15736873  0.27791346
   0.74989649  0.02762415  0.16652009
   0.99994881  0.53727745  0.88870233
   0.74858472  0.95469577  0.38904184
   0.50007465  0.86979331  0.88960418
   0.49984622  0.33398601 -0.00001194
   0.50027798  0.20382293  0.88896662
   0.00042892  0.72254939  0.33348658
   0.74923593  0.28680986  0.38920399
   0.49905075  0.85300343  0.44450071
   0.75047247  0.10189217  0.94441807
   0.75029444  0.95426852  0.72222256
   0.24955179  0.62022844  0.72187034
   0.24927061  0.95412154  0.38946399
   0.00048412  0.31485641  0.55582723
   0.49985817  0.12931005  0.11073992
   0.74950566  0.62025320  0.38901338
   0.74989740  0.76849183  0.94423989
   0.75022894  0.75022787  0.49986806
   0.24989517  0.30546280  0.83335507
   0.00073197  0.05531375  0.33332414
   0.50055529  0.59241390  0.22192072
   0.74981024  0.41642362  0.49997382
   0.50030633  0.40724060  0.77789458
   0.00030115  0.38875597  0.33332978
   0.25006595  0.36114717  0.16666462
   0.00045932  0.64811100  0.55569946
   0.74995897  0.49092435  0.27782790
   0.00340421  0.85211044  0.44433795
   0.99920445  0.20147064  0.88890214
   0.49981687  0.46351160  0.11084458
   0.25293316  0.08152060  0.49917682
   0.49758329  0.31346050  0.55567656
   0.25146827  0.28718787  0.72285639
   0.74988949  0.08315485  0.49996503
   0.99998007  0.00008007  0.99982532
   0.75036008  0.63922133  0.83372545
   0.75136949  0.28568544  0.72294655
   0.25013305  0.75122342  0.49987756
   0.25045806  0.76784644  0.94425391
   0.24927900  0.41521061  0.49945148
   0.00092896  0.33329209 -0.00002594
   0.99992977  0.79607067  0.11139155
   0.74872147  0.89922267  0.05574670
   0.50059382  0.05559727  0.33372472
   0.50088101  0.52019951  0.44396288
   0.74958925  0.30511949  0.83316606
   0.75005035  0.96949144  0.83346019
   0.00031881  0.59258040  0.22201885
   0.99868386  0.11022808  0.66706894
   0.74986852  0.56503242  0.05552698
   0.49967079  0.92561467  0.22224873
   0.74988295  0.36140548  0.16653114
   0.49572253  0.98256097  0.55527380
   0.25110623  0.89824592  0.05529159
   0.00126089  0.18486747  0.44427962
   0.25001601  0.02776995  0.16667484
   0.24836089  0.54928444  0.61063571
   0.25076309  0.21245480  0.61046120
   0.74754952  0.43557898  0.94452076
   0.25005873  0.56482815  0.05535490
   0.24941840  0.10178361  0.94481214
   0.25027455  0.69442612  0.16667689
   0.24944113  0.15831365  0.27779284
   0.99996294  0.73990786  0.77782331
   0.24935849  0.28631414  0.38956482
   0.99953975  0.07432735  0.77769073
   0.24980698  0.43552020  0.94484922
   0.74994366  0.69425696  0.16652675
   0.49965470  0.11209984  0.66653799
Direct configuration=    69
   0.49945717  0.25930319  0.22218441
   0.00070118  0.25910403  0.22229695
   0.24956005  0.23118446  0.05522187
   0.49996588  0.79602807  0.11062505
   0.00004795  0.46314434  0.11075956
   0.00148144  0.51889289  0.44418704
   0.25047156  0.87924021  0.61086857
   0.00060889  0.66660452  0.00005642
   0.75069806  0.62021065  0.72233708
   0.49987171  0.72231701  0.33324883
   0.24977592  0.95337616  0.72198204
   0.99984612  0.40807509  0.77767724
   0.00057451  0.44484722  0.66657068
   0.24951062  0.63913441  0.83335990
   0.74976410  0.21291290  0.61131276
   0.00123244  0.77750331  0.66675892
   0.24981463  0.82419287  0.27787219
   0.49921610  0.77812761  0.66632592
   0.50039648  0.74101011  0.77799603
   0.49961187  0.99884502  0.00020925
   0.50018019  0.07402668  0.77771020
   0.49998553  0.38865607  0.33350028
   0.00032032  0.92600454  0.22227583
   0.24911680  0.62062335  0.38924640
   0.49958214  0.66699700  0.00009621
   0.75027631  0.54711976  0.61084672
   0.75044206  0.87936447  0.61099059
   0.00020895  0.12951703  0.11064209
   0.24978244  0.97191868  0.83327210
   0.50091830  0.53741676  0.88965471
   0.99977438  0.87158037  0.88940521
   0.24996115  0.49034855  0.27777865
   0.49932172  0.64843571  0.55584123
   0.00061817  0.98157756  0.55566980
   0.50002708  0.44396409  0.66664702
   0.75033506  0.23121259  0.05540640
   0.50010698  0.18537233  0.44429934
   0.75008532  0.82402722  0.27785503
   0.75012042  0.15736873  0.27791346
   0.74989649  0.02762415  0.16652009
   0.99994881  0.53727745  0.88870233
   0.74858472  0.95469577  0.38904184
   0.50007465  0.86979331  0.88960418
   0.49984622  0.33398601 -0.00001194
   0.50027798  0.20382293  0.88896662
   0.00042892  0.72254939  0.33348658
   0.74923593  0.28680986  0.38920399
   0.49905075  0.85300343  0.44450071
   0.75047247  0.10189217  0.94441807
   0.75029444  0.95426852  0.72222256
   0.24955179  0.62022844  0.72187034
   0.24927061  0.95412154  0.38946399
   0.00048412  0.31485641  0.55582723
   0.49985817  0.12931005  0.11073992
   0.74950566  0.62025320  0.38901338
   0.74989740  0.76849183  0.94423989
   0.75022894  0.75022787  0.49986806
   0.24989517  0.30546280  0.83335507
   0.00073197  0.05531375  0.33332414
   0.50055529  0.59241390  0.22192072
   0.74981024  0.41642362  0.49997382
   0.50030633  0.40724060  0.77789458
   0.00030115  0.38875597  0.33332978
   0.25006595  0.36114717  0.16666462
   0.00045932  0.64811100  0.55569946
   0.74995897  0.49092435  0.27782790
   0.00340421  0.85211044  0.44433795
   0.99920445  0.20147064  0.88890214
   0.49981687  0.46351160  0.11084458
   0.25293316  0.08152060  0.49917682
   0.49758329  0.31346050  0.55567656
   0.25146827  0.28718787  0.72285639
   0.74988949  0.08315485  0.49996503
   0.99998007  0.00008007  0.99982532
   0.75036008  0.63922133  0.83372545
   0.75136949  0.28568544  0.72294655
   0.25013305  0.75122342  0.49987756
   0.25045806  0.76784644  0.94425391
   0.24927900  0.41521061  0.49945148
   0.00092896  0.33329209 -0.00002594
   0.99992977  0.79607067  0.11139155
   0.74872147  0.89922267  0.05574670
   0.50059382  0.05559727  0.33372472
   0.50088101  0.52019951  0.44396288
   0.74958925  0.30511949  0.83316606
   0.75005035  0.96949144  0.83346019
   0.00031881  0.59258040  0.22201885
   0.99868386  0.11022808  0.66706894
   0.74986852  0.56503242  0.05552698
   0.49967079  0.92561467  0.22224873
   0.74988295  0.36140548  0.16653114
   0.49572253  0.98256097  0.55527380
   0.25110623  0.89824592  0.05529159
   0.00126089  0.18486747  0.44427962
   0.25001601  0.02776995  0.16667484
   0.24836089  0.54928444  0.61063571
   0.25076309  0.21245480  0.61046120
   0.74754952  0.43557898  0.94452076
   0.25005873  0.56482815  0.05535490
   0.24941840  0.10178361  0.94481214
   0.25027455  0.69442612  0.16667689
   0.24944113  0.15831365  0.27779284
   0.99996294  0.73990786  0.77782331
   0.24935849  0.28631414  0.38956482
   0.99953975  0.07432735  0.77769073
   0.24980698  0.43552020  0.94484922
   0.74994366  0.69425696  0.16652675
   0.49965470  0.11209984  0.66653799
Direct configuration=    70
   0.49945717  0.25930319  0.22218441
   0.00070118  0.25910403  0.22229695
   0.24956005  0.23118446  0.05522187
   0.49996588  0.79602807  0.11062505
   0.00004795  0.46314434  0.11075956
   0.00148144  0.51889289  0.44418704
   0.25047156  0.87924021  0.61086857
   0.00060889  0.66660452  0.00005642
   0.75069806  0.62021065  0.72233708
   0.49987171  0.72231701  0.33324883
   0.24977592  0.95337616  0.72198204
   0.99984612  0.40807509  0.77767724
   0.00057451  0.44484722  0.66657068
   0.24951062  0.63913441  0.83335990
   0.74976410  0.21291290  0.61131276
   0.00123244  0.77750331  0.66675892
   0.24981463  0.82419287  0.27787219
   0.49921610  0.77812761  0.66632592
   0.50039648  0.74101011  0.77799603
   0.49961187  0.99884502  0.00020925
   0.50018019  0.07402668  0.77771020
   0.49998553  0.38865607  0.33350028
   0.00032032  0.92600454  0.22227583
   0.24911680  0.62062335  0.38924640
   0.49958214  0.66699700  0.00009621
   0.75027631  0.54711976  0.61084672
   0.75044206  0.87936447  0.61099059
   0.00020895  0.12951703  0.11064209
   0.24978244  0.97191868  0.83327210
   0.50091830  0.53741676  0.88965471
   0.99977438  0.87158037  0.88940521
   0.24996115  0.49034855  0.27777865
   0.49932172  0.64843571  0.55584123
   0.00061817  0.98157756  0.55566980
   0.50002708  0.44396409  0.66664702
   0.75033506  0.23121259  0.05540640
   0.50010698  0.18537233  0.44429934
   0.75008532  0.82402722  0.27785503
   0.75012042  0.15736873  0.27791346
   0.74989649  0.02762415  0.16652009
   0.99994881  0.53727745  0.88870233
   0.74858472  0.95469577  0.38904184
   0.50007465  0.86979331  0.88960418
   0.49984622  0.33398601 -0.00001194
   0.50027798  0.20382293  0.88896662
   0.00042892  0.72254939  0.33348658
   0.74923593  0.28680986  0.38920399
   0.49905075  0.85300343  0.44450071
   0.75047247  0.10189217  0.94441807
   0.75029444  0.95426852  0.72222256
   0.24955179  0.62022844  0.72187034
   0.24927061  0.95412154  0.38946399
   0.00048412  0.31485641  0.55582723
   0.49985817  0.12931005  0.11073992
   0.74950566  0.62025320  0.38901338
   0.74989740  0.76849183  0.94423989
   0.75022894  0.75022787  0.49986806
   0.24989517  0.30546280  0.83335507
   0.00073197  0.05531375  0.33332414
   0.50055529  0.59241390  0.22192072
   0.74981024  0.41642362  0.49997382
   0.50030633  0.40724060  0.77789458
   0.00030115  0.38875597  0.33332978
   0.25006595  0.36114717  0.16666462
   0.00045932  0.64811100  0.55569946
   0.74995897  0.49092435  0.27782790
   0.00340421  0.85211044  0.44433795
   0.99920445  0.20147064  0.88890214
   0.49981687  0.46351160  0.11084458
   0.25293316  0.08152060  0.49917682
   0.49758329  0.31346050  0.55567656
   0.25146827  0.28718787  0.72285639
   0.74988949  0.08315485  0.49996503
   0.99998007  0.00008007  0.99982532
   0.75036008  0.63922133  0.83372545
   0.75136949  0.28568544  0.72294655
   0.25013305  0.75122342  0.49987756
   0.25045806  0.76784644  0.94425391
   0.24927900  0.41521061  0.49945148
   0.00092896  0.33329209 -0.00002594
   0.99992977  0.79607067  0.11139155
   0.74872147  0.89922267  0.05574670
   0.50059382  0.05559727  0.33372472
   0.50088101  0.52019951  0.44396288
   0.74958925  0.30511949  0.83316606
   0.75005035  0.96949144  0.83346019
   0.00031881  0.59258040  0.22201885
   0.99868386  0.11022808  0.66706894
   0.74986852  0.56503242  0.05552698
   0.49967079  0.92561467  0.22224873
   0.74988295  0.36140548  0.16653114
   0.49572253  0.98256097  0.55527380
   0.25110623  0.89824592  0.05529159
   0.00126089  0.18486747  0.44427962
   0.25001601  0.02776995  0.16667484
   0.24836089  0.54928444  0.61063571
   0.25076309  0.21245480  0.61046120
   0.74754952  0.43557898  0.94452076
   0.25005873  0.56482815  0.05535490
   0.24941840  0.10178361  0.94481214
   0.25027455  0.69442612  0.16667689
   0.24944113  0.15831365  0.27779284
   0.99996294  0.73990786  0.77782331
   0.24935849  0.28631414  0.38956482
   0.99953975  0.07432735  0.77769073
   0.24980698  0.43552020  0.94484922
   0.74994366  0.69425696  0.16652675
   0.49965470  0.11209984  0.66653799
Direct configuration=    71
   0.49945717  0.25930319  0.22218441
   0.00070118  0.25910403  0.22229695
   0.24956005  0.23118446  0.05522187
   0.49996588  0.79602807  0.11062505
   0.00004795  0.46314434  0.11075956
   0.00148144  0.51889289  0.44418704
   0.25047156  0.87924021  0.61086857
   0.00060889  0.66660452  0.00005642
   0.75069806  0.62021065  0.72233708
   0.49987171  0.72231701  0.33324883
   0.24977592  0.95337616  0.72198204
   0.99984612  0.40807509  0.77767724
   0.00057451  0.44484722  0.66657068
   0.24951062  0.63913441  0.83335990
   0.74976410  0.21291290  0.61131276
   0.00123244  0.77750331  0.66675892
   0.24981463  0.82419287  0.27787219
   0.49921610  0.77812761  0.66632592
   0.50039648  0.74101011  0.77799603
   0.49961187  0.99884502  0.00020925
   0.50018019  0.07402668  0.77771020
   0.49998553  0.38865607  0.33350028
   0.00032032  0.92600454  0.22227583
   0.24911680  0.62062335  0.38924640
   0.49958214  0.66699700  0.00009621
   0.75027631  0.54711976  0.61084672
   0.75044206  0.87936447  0.61099059
   0.00020895  0.12951703  0.11064209
   0.24978244  0.97191868  0.83327210
   0.50091830  0.53741676  0.88965471
   0.99977438  0.87158037  0.88940521
   0.24996115  0.49034855  0.27777865
   0.49932172  0.64843571  0.55584123
   0.00061817  0.98157756  0.55566980
   0.50002708  0.44396409  0.66664702
   0.75033506  0.23121259  0.05540640
   0.50010698  0.18537233  0.44429934
   0.75008532  0.82402722  0.27785503
   0.75012042  0.15736873  0.27791346
   0.74989649  0.02762415  0.16652009
   0.99994881  0.53727745  0.88870233
   0.74858472  0.95469577  0.38904184
   0.50007465  0.86979331  0.88960418
   0.49984622  0.33398601 -0.00001194
   0.50027798  0.20382293  0.88896662
   0.00042892  0.72254939  0.33348658
   0.74923593  0.28680986  0.38920399
   0.49905075  0.85300343  0.44450071
   0.75047247  0.10189217  0.94441807
   0.75029444  0.95426852  0.72222256
   0.24955179  0.62022844  0.72187034
   0.24927061  0.95412154  0.38946399
   0.00048412  0.31485641  0.55582723
   0.49985817  0.12931005  0.11073992
   0.74950566  0.62025320  0.38901338
   0.74989740  0.76849183  0.94423989
   0.75022894  0.75022787  0.49986806
   0.24989517  0.30546280  0.83335507
   0.00073197  0.05531375  0.33332414
   0.50055529  0.59241390  0.22192072
   0.74981024  0.41642362  0.49997382
   0.50030633  0.40724060  0.77789458
   0.00030115  0.38875597  0.33332978
   0.25006595  0.36114717  0.16666462
   0.00045932  0.64811100  0.55569946
   0.74995897  0.49092435  0.27782790
   0.00340421  0.85211044  0.44433795
   0.99920445  0.20147064  0.88890214
   0.49981687  0.46351160  0.11084458
   0.25293316  0.08152060  0.49917682
   0.49758329  0.31346050  0.55567656
   0.25146827  0.28718787  0.72285639
   0.74988949  0.08315485  0.49996503
   0.99998007  0.00008007  0.99982532
   0.75036008  0.63922133  0.83372545
   0.75136949  0.28568544  0.72294655
   0.25013305  0.75122342  0.49987756
   0.25045806  0.76784644  0.94425391
   0.24927900  0.41521061  0.49945148
   0.00092896  0.33329209 -0.00002594
   0.99992977  0.79607067  0.11139155
   0.74872147  0.89922267  0.05574670
   0.50059382  0.05559727  0.33372472
   0.50088101  0.52019951  0.44396288
   0.74958925  0.30511949  0.83316606
   0.75005035  0.96949144  0.83346019
   0.00031881  0.59258040  0.22201885
   0.99868386  0.11022808  0.66706894
   0.74986852  0.56503242  0.05552698
   0.49967079  0.92561467  0.22224873
   0.74988295  0.36140548  0.16653114
   0.49572253  0.98256097  0.55527380
   0.25110623  0.89824592  0.05529159
   0.00126089  0.18486747  0.44427962
   0.25001601  0.02776995  0.16667484
   0.24836089  0.54928444  0.61063571
   0.25076309  0.21245480  0.61046120
   0.74754952  0.43557898  0.94452076
   0.25005873  0.56482815  0.05535490
   0.24941840  0.10178361  0.94481214
   0.25027455  0.69442612  0.16667689
   0.24944113  0.15831365  0.27779284
   0.99996294  0.73990786  0.77782331
   0.24935849  0.28631414  0.38956482
   0.99953975  0.07432735  0.77769073
   0.24980698  0.43552020  0.94484922
   0.74994366  0.69425696  0.16652675
   0.49965470  0.11209984  0.66653799
Direct configuration=    72
   0.49945717  0.25930319  0.22218441
   0.00070118  0.25910403  0.22229695
   0.24956005  0.23118446  0.05522187
   0.49996588  0.79602807  0.11062505
   0.00004795  0.46314434  0.11075956
   0.00148144  0.51889289  0.44418704
   0.25047156  0.87924021  0.61086857
   0.00060889  0.66660452  0.00005642
   0.75069806  0.62021065  0.72233708
   0.49987171  0.72231701  0.33324883
   0.24977592  0.95337616  0.72198204
   0.99984612  0.40807509  0.77767724
   0.00057451  0.44484722  0.66657068
   0.24951062  0.63913441  0.83335990
   0.74976410  0.21291290  0.61131276
   0.00123244  0.77750331  0.66675892
   0.24981463  0.82419287  0.27787219
   0.49921610  0.77812761  0.66632592
   0.50039648  0.74101011  0.77799603
   0.49961187  0.99884502  0.00020925
   0.50018019  0.07402668  0.77771020
   0.49998553  0.38865607  0.33350028
   0.00032032  0.92600454  0.22227583
   0.24911680  0.62062335  0.38924640
   0.49958214  0.66699700  0.00009621
   0.75027631  0.54711976  0.61084672
   0.75044206  0.87936447  0.61099059
   0.00020895  0.12951703  0.11064209
   0.24978244  0.97191868  0.83327210
   0.50091830  0.53741676  0.88965471
   0.99977438  0.87158037  0.88940521
   0.24996115  0.49034855  0.27777865
   0.49932172  0.64843571  0.55584123
   0.00061817  0.98157756  0.55566980
   0.50002708  0.44396409  0.66664702
   0.75033506  0.23121259  0.05540640
   0.50010698  0.18537233  0.44429934
   0.75008532  0.82402722  0.27785503
   0.75012042  0.15736873  0.27791346
   0.74989649  0.02762415  0.16652009
   0.99994881  0.53727745  0.88870233
   0.74858472  0.95469577  0.38904184
   0.50007465  0.86979331  0.88960418
   0.49984622  0.33398601 -0.00001194
   0.50027798  0.20382293  0.88896662
   0.00042892  0.72254939  0.33348658
   0.74923593  0.28680986  0.38920399
   0.49905075  0.85300343  0.44450071
   0.75047247  0.10189217  0.94441807
   0.75029444  0.95426852  0.72222256
   0.24955179  0.62022844  0.72187034
   0.24927061  0.95412154  0.38946399
   0.00048412  0.31485641  0.55582723
   0.49985817  0.12931005  0.11073992
   0.74950566  0.62025320  0.38901338
   0.74989740  0.76849183  0.94423989
   0.75022894  0.75022787  0.49986806
   0.24989517  0.30546280  0.83335507
   0.00073197  0.05531375  0.33332414
   0.50055529  0.59241390  0.22192072
   0.74981024  0.41642362  0.49997382
   0.50030633  0.40724060  0.77789458
   0.00030115  0.38875597  0.33332978
   0.25006595  0.36114717  0.16666462
   0.00045932  0.64811100  0.55569946
   0.74995897  0.49092435  0.27782790
   0.00340421  0.85211044  0.44433795
   0.99920445  0.20147064  0.88890214
   0.49981687  0.46351160  0.11084458
   0.25293316  0.08152060  0.49917682
   0.49758329  0.31346050  0.55567656
   0.25146827  0.28718787  0.72285639
   0.74988949  0.08315485  0.49996503
   0.99998007  0.00008007  0.99982532
   0.75036008  0.63922133  0.83372545
   0.75136949  0.28568544  0.72294655
   0.25013305  0.75122342  0.49987756
   0.25045806  0.76784644  0.94425391
   0.24927900  0.41521061  0.49945148
   0.00092896  0.33329209 -0.00002594
   0.99992977  0.79607067  0.11139155
   0.74872147  0.89922267  0.05574670
   0.50059382  0.05559727  0.33372472
   0.50088101  0.52019951  0.44396288
   0.74958925  0.30511949  0.83316606
   0.75005035  0.96949144  0.83346019
   0.00031881  0.59258040  0.22201885
   0.99868386  0.11022808  0.66706894
   0.74986852  0.56503242  0.05552698
   0.49967079  0.92561467  0.22224873
   0.74988295  0.36140548  0.16653114
   0.49572253  0.98256097  0.55527380
   0.25110623  0.89824592  0.05529159
   0.00126089  0.18486747  0.44427962
   0.25001601  0.02776995  0.16667484
   0.24836089  0.54928444  0.61063571
   0.25076309  0.21245480  0.61046120
   0.74754952  0.43557898  0.94452076
   0.25005873  0.56482815  0.05535490
   0.24941840  0.10178361  0.94481214
   0.25027455  0.69442612  0.16667689
   0.24944113  0.15831365  0.27779284
   0.99996294  0.73990786  0.77782331
   0.24935849  0.28631414  0.38956482
   0.99953975  0.07432735  0.77769073
   0.24980698  0.43552020  0.94484922
   0.74994366  0.69425696  0.16652675
   0.49965470  0.11209984  0.66653799
Direct configuration=    73
   0.49945717  0.25930319  0.22218441
   0.00070118  0.25910403  0.22229695
   0.24956005  0.23118446  0.05522187
   0.49996588  0.79602807  0.11062505
   0.00004795  0.46314434  0.11075956
   0.00148144  0.51889289  0.44418704
   0.25047156  0.87924021  0.61086857
   0.00060889  0.66660452  0.00005642
   0.75069806  0.62021065  0.72233708
   0.49987171  0.72231701  0.33324883
   0.24977592  0.95337616  0.72198204
   0.99984612  0.40807509  0.77767724
   0.00057451  0.44484722  0.66657068
   0.24951062  0.63913441  0.83335990
   0.74976410  0.21291290  0.61131276
   0.00123244  0.77750331  0.66675892
   0.24981463  0.82419287  0.27787219
   0.49921610  0.77812761  0.66632592
   0.50039648  0.74101011  0.77799603
   0.49961187  0.99884502  0.00020925
   0.50018019  0.07402668  0.77771020
   0.49998553  0.38865607  0.33350028
   0.00032032  0.92600454  0.22227583
   0.24911680  0.62062335  0.38924640
   0.49958214  0.66699700  0.00009621
   0.75027631  0.54711976  0.61084672
   0.75044206  0.87936447  0.61099059
   0.00020895  0.12951703  0.11064209
   0.24978244  0.97191868  0.83327210
   0.50091830  0.53741676  0.88965471
   0.99977438  0.87158037  0.88940521
   0.24996115  0.49034855  0.27777865
   0.49932172  0.64843571  0.55584123
   0.00061817  0.98157756  0.55566980
   0.50002708  0.44396409  0.66664702
   0.75033506  0.23121259  0.05540640
   0.50010698  0.18537233  0.44429934
   0.75008532  0.82402722  0.27785503
   0.75012042  0.15736873  0.27791346
   0.74989649  0.02762415  0.16652009
   0.99994881  0.53727745  0.88870233
   0.74858472  0.95469577  0.38904184
   0.50007465  0.86979331  0.88960418
   0.49984622  0.33398601 -0.00001194
   0.50027798  0.20382293  0.88896662
   0.00042892  0.72254939  0.33348658
   0.74923593  0.28680986  0.38920399
   0.49905075  0.85300343  0.44450071
   0.75047247  0.10189217  0.94441807
   0.75029444  0.95426852  0.72222256
   0.24955179  0.62022844  0.72187034
   0.24927061  0.95412154  0.38946399
   0.00048412  0.31485641  0.55582723
   0.49985817  0.12931005  0.11073992
   0.74950566  0.62025320  0.38901338
   0.74989740  0.76849183  0.94423989
   0.75022894  0.75022787  0.49986806
   0.24989517  0.30546280  0.83335507
   0.00073197  0.05531375  0.33332414
   0.50055529  0.59241390  0.22192072
   0.74981024  0.41642362  0.49997382
   0.50030633  0.40724060  0.77789458
   0.00030115  0.38875597  0.33332978
   0.25006595  0.36114717  0.16666462
   0.00045932  0.64811100  0.55569946
   0.74995897  0.49092435  0.27782790
   0.00340421  0.85211044  0.44433795
   0.99920445  0.20147064  0.88890214
   0.49981687  0.46351160  0.11084458
   0.25293316  0.08152060  0.49917682
   0.49758329  0.31346050  0.55567656
   0.25146827  0.28718787  0.72285639
   0.74988949  0.08315485  0.49996503
   0.99998007  0.00008007  0.99982532
   0.75036008  0.63922133  0.83372545
   0.75136949  0.28568544  0.72294655
   0.25013305  0.75122342  0.49987756
   0.25045806  0.76784644  0.94425391
   0.24927900  0.41521061  0.49945148
   0.00092896  0.33329209 -0.00002594
   0.99992977  0.79607067  0.11139155
   0.74872147  0.89922267  0.05574670
   0.50059382  0.05559727  0.33372472
   0.50088101  0.52019951  0.44396288
   0.74958925  0.30511949  0.83316606
   0.75005035  0.96949144  0.83346019
   0.00031881  0.59258040  0.22201885
   0.99868386  0.11022808  0.66706894
   0.74986852  0.56503242  0.05552698
   0.49967079  0.92561467  0.22224873
   0.74988295  0.36140548  0.16653114
   0.49572253  0.98256097  0.55527380
   0.25110623  0.89824592  0.05529159
   0.00126089  0.18486747  0.44427962
   0.25001601  0.02776995  0.16667484
   0.24836089  0.54928444  0.61063571
   0.25076309  0.21245480  0.61046120
   0.74754952  0.43557898  0.94452076
   0.25005873  0.56482815  0.05535490
   0.24941840  0.10178361  0.94481214
   0.25027455  0.69442612  0.16667689
   0.24944113  0.15831365  0.27779284
   0.99996294  0.73990786  0.77782331
   0.24935849  0.28631414  0.38956482
   0.99953975  0.07432735  0.77769073
   0.24980698  0.43552020  0.94484922
   0.74994366  0.69425696  0.16652675
   0.49965470  0.11209984  0.66653799
Direct configuration=    74
   0.49945717  0.25930319  0.22218441
   0.00070118  0.25910403  0.22229695
   0.24956005  0.23118446  0.05522187
   0.49996588  0.79602807  0.11062505
   0.00004795  0.46314434  0.11075956
   0.00148144  0.51889289  0.44418704
   0.25047156  0.87924021  0.61086857
   0.00060889  0.66660452  0.00005642
   0.75069806  0.62021065  0.72233708
   0.49987171  0.72231701  0.33324883
   0.24977592  0.95337616  0.72198204
   0.99984612  0.40807509  0.77767724
   0.00057451  0.44484722  0.66657068
   0.24951062  0.63913441  0.83335990
   0.74976410  0.21291290  0.61131276
   0.00123244  0.77750331  0.66675892
   0.24981463  0.82419287  0.27787219
   0.49921610  0.77812761  0.66632592
   0.50039648  0.74101011  0.77799603
   0.49961187  0.99884502  0.00020925
   0.50018019  0.07402668  0.77771020
   0.49998553  0.38865607  0.33350028
   0.00032032  0.92600454  0.22227583
   0.24911680  0.62062335  0.38924640
   0.49958214  0.66699700  0.00009621
   0.75027631  0.54711976  0.61084672
   0.75044206  0.87936447  0.61099059
   0.00020895  0.12951703  0.11064209
   0.24978244  0.97191868  0.83327210
   0.50091830  0.53741676  0.88965471
   0.99977438  0.87158037  0.88940521
   0.24996115  0.49034855  0.27777865
   0.49932172  0.64843571  0.55584123
   0.00061817  0.98157756  0.55566980
   0.50002708  0.44396409  0.66664702
   0.75033506  0.23121259  0.05540640
   0.50010698  0.18537233  0.44429934
   0.75008532  0.82402722  0.27785503
   0.75012042  0.15736873  0.27791346
   0.74989649  0.02762415  0.16652009
   0.99994881  0.53727745  0.88870233
   0.74858472  0.95469577  0.38904184
   0.50007465  0.86979331  0.88960418
   0.49984622  0.33398601 -0.00001194
   0.50027798  0.20382293  0.88896662
   0.00042892  0.72254939  0.33348658
   0.74923593  0.28680986  0.38920399
   0.49905075  0.85300343  0.44450071
   0.75047247  0.10189217  0.94441807
   0.75029444  0.95426852  0.72222256
   0.24955179  0.62022844  0.72187034
   0.24927061  0.95412154  0.38946399
   0.00048412  0.31485641  0.55582723
   0.49985817  0.12931005  0.11073992
   0.74950566  0.62025320  0.38901338
   0.74989740  0.76849183  0.94423989
   0.75022894  0.75022787  0.49986806
   0.24989517  0.30546280  0.83335507
   0.00073197  0.05531375  0.33332414
   0.50055529  0.59241390  0.22192072
   0.74981024  0.41642362  0.49997382
   0.50030633  0.40724060  0.77789458
   0.00030115  0.38875597  0.33332978
   0.25006595  0.36114717  0.16666462
   0.00045932  0.64811100  0.55569946
   0.74995897  0.49092435  0.27782790
   0.00340421  0.85211044  0.44433795
   0.99920445  0.20147064  0.88890214
   0.49981687  0.46351160  0.11084458
   0.25293316  0.08152060  0.49917682
   0.49758329  0.31346050  0.55567656
   0.25146827  0.28718787  0.72285639
   0.74988949  0.08315485  0.49996503
   0.99998007  0.00008007  0.99982532
   0.75036008  0.63922133  0.83372545
   0.75136949  0.28568544  0.72294655
   0.25013305  0.75122342  0.49987756
   0.25045806  0.76784644  0.94425391
   0.24927900  0.41521061  0.49945148
   0.00092896  0.33329209 -0.00002594
   0.99992977  0.79607067  0.11139155
   0.74872147  0.89922267  0.05574670
   0.50059382  0.05559727  0.33372472
   0.50088101  0.52019951  0.44396288
   0.74958925  0.30511949  0.83316606
   0.75005035  0.96949144  0.83346019
   0.00031881  0.59258040  0.22201885
   0.99868386  0.11022808  0.66706894
   0.74986852  0.56503242  0.05552698
   0.49967079  0.92561467  0.22224873
   0.74988295  0.36140548  0.16653114
   0.49572253  0.98256097  0.55527380
   0.25110623  0.89824592  0.05529159
   0.00126089  0.18486747  0.44427962
   0.25001601  0.02776995  0.16667484
   0.24836089  0.54928444  0.61063571
   0.25076309  0.21245480  0.61046120
   0.74754952  0.43557898  0.94452076
   0.25005873  0.56482815  0.05535490
   0.24941840  0.10178361  0.94481214
   0.25027455  0.69442612  0.16667689
   0.24944113  0.15831365  0.27779284
   0.99996294  0.73990786  0.77782331
   0.24935849  0.28631414  0.38956482
   0.99953975  0.07432735  0.77769073
   0.24980698  0.43552020  0.94484922
   0.74994366  0.69425696  0.16652675
   0.49965470  0.11209984  0.66653799
Direct configuration=    75
   0.49945717  0.25930319  0.22218441
   0.00070118  0.25910403  0.22229695
   0.24956005  0.23118446  0.05522187
   0.49996588  0.79602807  0.11062505
   0.00004795  0.46314434  0.11075956
   0.00148144  0.51889289  0.44418704
   0.25047156  0.87924021  0.61086857
   0.00060889  0.66660452  0.00005642
   0.75069806  0.62021065  0.72233708
   0.49987171  0.72231701  0.33324883
   0.24977592  0.95337616  0.72198204
   0.99984612  0.40807509  0.77767724
   0.00057451  0.44484722  0.66657068
   0.24951062  0.63913441  0.83335990
   0.74976410  0.21291290  0.61131276
   0.00123244  0.77750331  0.66675892
   0.24981463  0.82419287  0.27787219
   0.49921610  0.77812761  0.66632592
   0.50039648  0.74101011  0.77799603
   0.49961187  0.99884502  0.00020925
   0.50018019  0.07402668  0.77771020
   0.49998553  0.38865607  0.33350028
   0.00032032  0.92600454  0.22227583
   0.24911680  0.62062335  0.38924640
   0.49958214  0.66699700  0.00009621
   0.75027631  0.54711976  0.61084672
   0.75044206  0.87936447  0.61099059
   0.00020895  0.12951703  0.11064209
   0.24978244  0.97191868  0.83327210
   0.50091830  0.53741676  0.88965471
   0.99977438  0.87158037  0.88940521
   0.24996115  0.49034855  0.27777865
   0.49932172  0.64843571  0.55584123
   0.00061817  0.98157756  0.55566980
   0.50002708  0.44396409  0.66664702
   0.75033506  0.23121259  0.05540640
   0.50010698  0.18537233  0.44429934
   0.75008532  0.82402722  0.27785503
   0.75012042  0.15736873  0.27791346
   0.74989649  0.02762415  0.16652009
   0.99994881  0.53727745  0.88870233
   0.74858472  0.95469577  0.38904184
   0.50007465  0.86979331  0.88960418
   0.49984622  0.33398601 -0.00001194
   0.50027798  0.20382293  0.88896662
   0.00042892  0.72254939  0.33348658
   0.74923593  0.28680986  0.38920399
   0.49905075  0.85300343  0.44450071
   0.75047247  0.10189217  0.94441807
   0.75029444  0.95426852  0.72222256
   0.24955179  0.62022844  0.72187034
   0.24927061  0.95412154  0.38946399
   0.00048412  0.31485641  0.55582723
   0.49985817  0.12931005  0.11073992
   0.74950566  0.62025320  0.38901338
   0.74989740  0.76849183  0.94423989
   0.75022894  0.75022787  0.49986806
   0.24989517  0.30546280  0.83335507
   0.00073197  0.05531375  0.33332414
   0.50055529  0.59241390  0.22192072
   0.74981024  0.41642362  0.49997382
   0.50030633  0.40724060  0.77789458
   0.00030115  0.38875597  0.33332978
   0.25006595  0.36114717  0.16666462
   0.00045932  0.64811100  0.55569946
   0.74995897  0.49092435  0.27782790
   0.00340421  0.85211044  0.44433795
   0.99920445  0.20147064  0.88890214
   0.49981687  0.46351160  0.11084458
   0.25293316  0.08152060  0.49917682
   0.49758329  0.31346050  0.55567656
   0.25146827  0.28718787  0.72285639
   0.74988949  0.08315485  0.49996503
   0.99998007  0.00008007  0.99982532
   0.75036008  0.63922133  0.83372545
   0.75136949  0.28568544  0.72294655
   0.25013305  0.75122342  0.49987756
   0.25045806  0.76784644  0.94425391
   0.24927900  0.41521061  0.49945148
   0.00092896  0.33329209 -0.00002594
   0.99992977  0.79607067  0.11139155
   0.74872147  0.89922267  0.05574670
   0.50059382  0.05559727  0.33372472
   0.50088101  0.52019951  0.44396288
   0.74958925  0.30511949  0.83316606
   0.75005035  0.96949144  0.83346019
   0.00031881  0.59258040  0.22201885
   0.99868386  0.11022808  0.66706894
   0.74986852  0.56503242  0.05552698
   0.49967079  0.92561467  0.22224873
   0.74988295  0.36140548  0.16653114
   0.49572253  0.98256097  0.55527380
   0.25110623  0.89824592  0.05529159
   0.00126089  0.18486747  0.44427962
   0.25001601  0.02776995  0.16667484
   0.24836089  0.54928444  0.61063571
   0.25076309  0.21245480  0.61046120
   0.74754952  0.43557898  0.94452076
   0.25005873  0.56482815  0.05535490
   0.24941840  0.10178361  0.94481214
   0.25027455  0.69442612  0.16667689
   0.24944113  0.15831365  0.27779284
   0.99996294  0.73990786  0.77782331
   0.24935849  0.28631414  0.38956482
   0.99953975  0.07432735  0.77769073
   0.24980698  0.43552020  0.94484922
   0.74994366  0.69425696  0.16652675
   0.49965470  0.11209984  0.66653799
Direct configuration=    76
   0.49945717  0.25930319  0.22218441
   0.00070118  0.25910403  0.22229695
   0.24956005  0.23118446  0.05522187
   0.49996588  0.79602807  0.11062505
   0.00004795  0.46314434  0.11075956
   0.00148144  0.51889289  0.44418704
   0.25047156  0.87924021  0.61086857
   0.00060889  0.66660452  0.00005642
   0.75069806  0.62021065  0.72233708
   0.49987171  0.72231701  0.33324883
   0.24977592  0.95337616  0.72198204
   0.99984612  0.40807509  0.77767724
   0.00057451  0.44484722  0.66657068
   0.24951062  0.63913441  0.83335990
   0.74976410  0.21291290  0.61131276
   0.00123244  0.77750331  0.66675892
   0.24981463  0.82419287  0.27787219
   0.49921610  0.77812761  0.66632592
   0.50039648  0.74101011  0.77799603
   0.49961187  0.99884502  0.00020925
   0.50018019  0.07402668  0.77771020
   0.49998553  0.38865607  0.33350028
   0.00032032  0.92600454  0.22227583
   0.24911680  0.62062335  0.38924640
   0.49958214  0.66699700  0.00009621
   0.75027631  0.54711976  0.61084672
   0.75044206  0.87936447  0.61099059
   0.00020895  0.12951703  0.11064209
   0.24978244  0.97191868  0.83327210
   0.50091830  0.53741676  0.88965471
   0.99977438  0.87158037  0.88940521
   0.24996115  0.49034855  0.27777865
   0.49932172  0.64843571  0.55584123
   0.00061817  0.98157756  0.55566980
   0.50002708  0.44396409  0.66664702
   0.75033506  0.23121259  0.05540640
   0.50010698  0.18537233  0.44429934
   0.75008532  0.82402722  0.27785503
   0.75012042  0.15736873  0.27791346
   0.74989649  0.02762415  0.16652009
   0.99994881  0.53727745  0.88870233
   0.74858472  0.95469577  0.38904184
   0.50007465  0.86979331  0.88960418
   0.49984622  0.33398601 -0.00001194
   0.50027798  0.20382293  0.88896662
   0.00042892  0.72254939  0.33348658
   0.74923593  0.28680986  0.38920399
   0.49905075  0.85300343  0.44450071
   0.75047247  0.10189217  0.94441807
   0.75029444  0.95426852  0.72222256
   0.24955179  0.62022844  0.72187034
   0.24927061  0.95412154  0.38946399
   0.00048412  0.31485641  0.55582723
   0.49985817  0.12931005  0.11073992
   0.74950566  0.62025320  0.38901338
   0.74989740  0.76849183  0.94423989
   0.75022894  0.75022787  0.49986806
   0.24989517  0.30546280  0.83335507
   0.00073197  0.05531375  0.33332414
   0.50055529  0.59241390  0.22192072
   0.74981024  0.41642362  0.49997382
   0.50030633  0.40724060  0.77789458
   0.00030115  0.38875597  0.33332978
   0.25006595  0.36114717  0.16666462
   0.00045932  0.64811100  0.55569946
   0.74995897  0.49092435  0.27782790
   0.00340421  0.85211044  0.44433795
   0.99920445  0.20147064  0.88890214
   0.49981687  0.46351160  0.11084458
   0.25293316  0.08152060  0.49917682
   0.49758329  0.31346050  0.55567656
   0.25146827  0.28718787  0.72285639
   0.74988949  0.08315485  0.49996503
   0.99998007  0.00008007  0.99982532
   0.75036008  0.63922133  0.83372545
   0.75136949  0.28568544  0.72294655
   0.25013305  0.75122342  0.49987756
   0.25045806  0.76784644  0.94425391
   0.24927900  0.41521061  0.49945148
   0.00092896  0.33329209 -0.00002594
   0.99992977  0.79607067  0.11139155
   0.74872147  0.89922267  0.05574670
   0.50059382  0.05559727  0.33372472
   0.50088101  0.52019951  0.44396288
   0.74958925  0.30511949  0.83316606
   0.75005035  0.96949144  0.83346019
   0.00031881  0.59258040  0.22201885
   0.99868386  0.11022808  0.66706894
   0.74986852  0.56503242  0.05552698
   0.49967079  0.92561467  0.22224873
   0.74988295  0.36140548  0.16653114
   0.49572253  0.98256097  0.55527380
   0.25110623  0.89824592  0.05529159
   0.00126089  0.18486747  0.44427962
   0.25001601  0.02776995  0.16667484
   0.24836089  0.54928444  0.61063571
   0.25076309  0.21245480  0.61046120
   0.74754952  0.43557898  0.94452076
   0.25005873  0.56482815  0.05535490
   0.24941840  0.10178361  0.94481214
   0.25027455  0.69442612  0.16667689
   0.24944113  0.15831365  0.27779284
   0.99996294  0.73990786  0.77782331
   0.24935849  0.28631414  0.38956482
   0.99953975  0.07432735  0.77769073
   0.24980698  0.43552020  0.94484922
   0.74994366  0.69425696  0.16652675
   0.49965470  0.11209984  0.66653799
Direct configuration=    77
   0.49945717  0.25930319  0.22218441
   0.00070118  0.25910403  0.22229695
   0.24956005  0.23118446  0.05522187
   0.49996588  0.79602807  0.11062505
   0.00004795  0.46314434  0.11075956
   0.00148144  0.51889289  0.44418704
   0.25047156  0.87924021  0.61086857
   0.00060889  0.66660452  0.00005642
   0.75069806  0.62021065  0.72233708
   0.49987171  0.72231701  0.33324883
   0.24977592  0.95337616  0.72198204
   0.99984612  0.40807509  0.77767724
   0.00057451  0.44484722  0.66657068
   0.24951062  0.63913441  0.83335990
   0.74976410  0.21291290  0.61131276
   0.00123244  0.77750331  0.66675892
   0.24981463  0.82419287  0.27787219
   0.49921610  0.77812761  0.66632592
   0.50039648  0.74101011  0.77799603
   0.49961187  0.99884502  0.00020925
   0.50018019  0.07402668  0.77771020
   0.49998553  0.38865607  0.33350028
   0.00032032  0.92600454  0.22227583
   0.24911680  0.62062335  0.38924640
   0.49958214  0.66699700  0.00009621
   0.75027631  0.54711976  0.61084672
   0.75044206  0.87936447  0.61099059
   0.00020895  0.12951703  0.11064209
   0.24978244  0.97191868  0.83327210
   0.50091830  0.53741676  0.88965471
   0.99977438  0.87158037  0.88940521
   0.24996115  0.49034855  0.27777865
   0.49932172  0.64843571  0.55584123
   0.00061817  0.98157756  0.55566980
   0.50002708  0.44396409  0.66664702
   0.75033506  0.23121259  0.05540640
   0.50010698  0.18537233  0.44429934
   0.75008532  0.82402722  0.27785503
   0.75012042  0.15736873  0.27791346
   0.74989649  0.02762415  0.16652009
   0.99994881  0.53727745  0.88870233
   0.74858472  0.95469577  0.38904184
   0.50007465  0.86979331  0.88960418
   0.49984622  0.33398601 -0.00001194
   0.50027798  0.20382293  0.88896662
   0.00042892  0.72254939  0.33348658
   0.74923593  0.28680986  0.38920399
   0.49905075  0.85300343  0.44450071
   0.75047247  0.10189217  0.94441807
   0.75029444  0.95426852  0.72222256
   0.24955179  0.62022844  0.72187034
   0.24927061  0.95412154  0.38946399
   0.00048412  0.31485641  0.55582723
   0.49985817  0.12931005  0.11073992
   0.74950566  0.62025320  0.38901338
   0.74989740  0.76849183  0.94423989
   0.75022894  0.75022787  0.49986806
   0.24989517  0.30546280  0.83335507
   0.00073197  0.05531375  0.33332414
   0.50055529  0.59241390  0.22192072
   0.74981024  0.41642362  0.49997382
   0.50030633  0.40724060  0.77789458
   0.00030115  0.38875597  0.33332978
   0.25006595  0.36114717  0.16666462
   0.00045932  0.64811100  0.55569946
   0.74995897  0.49092435  0.27782790
   0.00340421  0.85211044  0.44433795
   0.99920445  0.20147064  0.88890214
   0.49981687  0.46351160  0.11084458
   0.25293316  0.08152060  0.49917682
   0.49758329  0.31346050  0.55567656
   0.25146827  0.28718787  0.72285639
   0.74988949  0.08315485  0.49996503
   0.99998007  0.00008007  0.99982532
   0.75036008  0.63922133  0.83372545
   0.75136949  0.28568544  0.72294655
   0.25013305  0.75122342  0.49987756
   0.25045806  0.76784644  0.94425391
   0.24927900  0.41521061  0.49945148
   0.00092896  0.33329209 -0.00002594
   0.99992977  0.79607067  0.11139155
   0.74872147  0.89922267  0.05574670
   0.50059382  0.05559727  0.33372472
   0.50088101  0.52019951  0.44396288
   0.74958925  0.30511949  0.83316606
   0.75005035  0.96949144  0.83346019
   0.00031881  0.59258040  0.22201885
   0.99868386  0.11022808  0.66706894
   0.74986852  0.56503242  0.05552698
   0.49967079  0.92561467  0.22224873
   0.74988295  0.36140548  0.16653114
   0.49572253  0.98256097  0.55527380
   0.25110623  0.89824592  0.05529159
   0.00126089  0.18486747  0.44427962
   0.25001601  0.02776995  0.16667484
   0.24836089  0.54928444  0.61063571
   0.25076309  0.21245480  0.61046120
   0.74754952  0.43557898  0.94452076
   0.25005873  0.56482815  0.05535490
   0.24941840  0.10178361  0.94481214
   0.25027455  0.69442612  0.16667689
   0.24944113  0.15831365  0.27779284
   0.99996294  0.73990786  0.77782331
   0.24935849  0.28631414  0.38956482
   0.99953975  0.07432735  0.77769073
   0.24980698  0.43552020  0.94484922
   0.74994366  0.69425696  0.16652675
   0.49965470  0.11209984  0.66653799
Direct configuration=    78
   0.49945717  0.25930319  0.22218441
   0.00070118  0.25910403  0.22229695
   0.24956005  0.23118446  0.05522187
   0.49996588  0.79602807  0.11062505
   0.00004795  0.46314434  0.11075956
   0.00148144  0.51889289  0.44418704
   0.25047156  0.87924021  0.61086857
   0.00060889  0.66660452  0.00005642
   0.75069806  0.62021065  0.72233708
   0.49987171  0.72231701  0.33324883
   0.24977592  0.95337616  0.72198204
   0.99984612  0.40807509  0.77767724
   0.00057451  0.44484722  0.66657068
   0.24951062  0.63913441  0.83335990
   0.74976410  0.21291290  0.61131276
   0.00123244  0.77750331  0.66675892
   0.24981463  0.82419287  0.27787219
   0.49921610  0.77812761  0.66632592
   0.50039648  0.74101011  0.77799603
   0.49961187  0.99884502  0.00020925
   0.50018019  0.07402668  0.77771020
   0.49998553  0.38865607  0.33350028
   0.00032032  0.92600454  0.22227583
   0.24911680  0.62062335  0.38924640
   0.49958214  0.66699700  0.00009621
   0.75027631  0.54711976  0.61084672
   0.75044206  0.87936447  0.61099059
   0.00020895  0.12951703  0.11064209
   0.24978244  0.97191868  0.83327210
   0.50091830  0.53741676  0.88965471
   0.99977438  0.87158037  0.88940521
   0.24996115  0.49034855  0.27777865
   0.49932172  0.64843571  0.55584123
   0.00061817  0.98157756  0.55566980
   0.50002708  0.44396409  0.66664702
   0.75033506  0.23121259  0.05540640
   0.50010698  0.18537233  0.44429934
   0.75008532  0.82402722  0.27785503
   0.75012042  0.15736873  0.27791346
   0.74989649  0.02762415  0.16652009
   0.99994881  0.53727745  0.88870233
   0.74858472  0.95469577  0.38904184
   0.50007465  0.86979331  0.88960418
   0.49984622  0.33398601 -0.00001194
   0.50027798  0.20382293  0.88896662
   0.00042892  0.72254939  0.33348658
   0.74923593  0.28680986  0.38920399
   0.49905075  0.85300343  0.44450071
   0.75047247  0.10189217  0.94441807
   0.75029444  0.95426852  0.72222256
   0.24955179  0.62022844  0.72187034
   0.24927061  0.95412154  0.38946399
   0.00048412  0.31485641  0.55582723
   0.49985817  0.12931005  0.11073992
   0.74950566  0.62025320  0.38901338
   0.74989740  0.76849183  0.94423989
   0.75022894  0.75022787  0.49986806
   0.24989517  0.30546280  0.83335507
   0.00073197  0.05531375  0.33332414
   0.50055529  0.59241390  0.22192072
   0.74981024  0.41642362  0.49997382
   0.50030633  0.40724060  0.77789458
   0.00030115  0.38875597  0.33332978
   0.25006595  0.36114717  0.16666462
   0.00045932  0.64811100  0.55569946
   0.74995897  0.49092435  0.27782790
   0.00340421  0.85211044  0.44433795
   0.99920445  0.20147064  0.88890214
   0.49981687  0.46351160  0.11084458
   0.25293316  0.08152060  0.49917682
   0.49758329  0.31346050  0.55567656
   0.25146827  0.28718787  0.72285639
   0.74988949  0.08315485  0.49996503
   0.99998007  0.00008007  0.99982532
   0.75036008  0.63922133  0.83372545
   0.75136949  0.28568544  0.72294655
   0.25013305  0.75122342  0.49987756
   0.25045806  0.76784644  0.94425391
   0.24927900  0.41521061  0.49945148
   0.00092896  0.33329209 -0.00002594
   0.99992977  0.79607067  0.11139155
   0.74872147  0.89922267  0.05574670
   0.50059382  0.05559727  0.33372472
   0.50088101  0.52019951  0.44396288
   0.74958925  0.30511949  0.83316606
   0.75005035  0.96949144  0.83346019
   0.00031881  0.59258040  0.22201885
   0.99868386  0.11022808  0.66706894
   0.74986852  0.56503242  0.05552698
   0.49967079  0.92561467  0.22224873
   0.74988295  0.36140548  0.16653114
   0.49572253  0.98256097  0.55527380
   0.25110623  0.89824592  0.05529159
   0.00126089  0.18486747  0.44427962
   0.25001601  0.02776995  0.16667484
   0.24836089  0.54928444  0.61063571
   0.25076309  0.21245480  0.61046120
   0.74754952  0.43557898  0.94452076
   0.25005873  0.56482815  0.05535490
   0.24941840  0.10178361  0.94481214
   0.25027455  0.69442612  0.16667689
   0.24944113  0.15831365  0.27779284
   0.99996294  0.73990786  0.77782331
   0.24935849  0.28631414  0.38956482
   0.99953975  0.07432735  0.77769073
   0.24980698  0.43552020  0.94484922
   0.74994366  0.69425696  0.16652675
   0.49965470  0.11209984  0.66653799
Direct configuration=    79
   0.49945717  0.25930319  0.22218441
   0.00070118  0.25910403  0.22229695
   0.24956005  0.23118446  0.05522187
   0.49996588  0.79602807  0.11062505
   0.00004795  0.46314434  0.11075956
   0.00148144  0.51889289  0.44418704
   0.25047156  0.87924021  0.61086857
   0.00060889  0.66660452  0.00005642
   0.75069806  0.62021065  0.72233708
   0.49987171  0.72231701  0.33324883
   0.24977592  0.95337616  0.72198204
   0.99984612  0.40807509  0.77767724
   0.00057451  0.44484722  0.66657068
   0.24951062  0.63913441  0.83335990
   0.74976410  0.21291290  0.61131276
   0.00123244  0.77750331  0.66675892
   0.24981463  0.82419287  0.27787219
   0.49921610  0.77812761  0.66632592
   0.50039648  0.74101011  0.77799603
   0.49961187  0.99884502  0.00020925
   0.50018019  0.07402668  0.77771020
   0.49998553  0.38865607  0.33350028
   0.00032032  0.92600454  0.22227583
   0.24911680  0.62062335  0.38924640
   0.49958214  0.66699700  0.00009621
   0.75027631  0.54711976  0.61084672
   0.75044206  0.87936447  0.61099059
   0.00020895  0.12951703  0.11064209
   0.24978244  0.97191868  0.83327210
   0.50091830  0.53741676  0.88965471
   0.99977438  0.87158037  0.88940521
   0.24996115  0.49034855  0.27777865
   0.49932172  0.64843571  0.55584123
   0.00061817  0.98157756  0.55566980
   0.50002708  0.44396409  0.66664702
   0.75033506  0.23121259  0.05540640
   0.50010698  0.18537233  0.44429934
   0.75008532  0.82402722  0.27785503
   0.75012042  0.15736873  0.27791346
   0.74989649  0.02762415  0.16652009
   0.99994881  0.53727745  0.88870233
   0.74858472  0.95469577  0.38904184
   0.50007465  0.86979331  0.88960418
   0.49984622  0.33398601 -0.00001194
   0.50027798  0.20382293  0.88896662
   0.00042892  0.72254939  0.33348658
   0.74923593  0.28680986  0.38920399
   0.49905075  0.85300343  0.44450071
   0.75047247  0.10189217  0.94441807
   0.75029444  0.95426852  0.72222256
   0.24955179  0.62022844  0.72187034
   0.24927061  0.95412154  0.38946399
   0.00048412  0.31485641  0.55582723
   0.49985817  0.12931005  0.11073992
   0.74950566  0.62025320  0.38901338
   0.74989740  0.76849183  0.94423989
   0.75022894  0.75022787  0.49986806
   0.24989517  0.30546280  0.83335507
   0.00073197  0.05531375  0.33332414
   0.50055529  0.59241390  0.22192072
   0.74981024  0.41642362  0.49997382
   0.50030633  0.40724060  0.77789458
   0.00030115  0.38875597  0.33332978
   0.25006595  0.36114717  0.16666462
   0.00045932  0.64811100  0.55569946
   0.74995897  0.49092435  0.27782790
   0.00340421  0.85211044  0.44433795
   0.99920445  0.20147064  0.88890214
   0.49981687  0.46351160  0.11084458
   0.25293316  0.08152060  0.49917682
   0.49758329  0.31346050  0.55567656
   0.25146827  0.28718787  0.72285639
   0.74988949  0.08315485  0.49996503
   0.99998007  0.00008007  0.99982532
   0.75036008  0.63922133  0.83372545
   0.75136949  0.28568544  0.72294655
   0.25013305  0.75122342  0.49987756
   0.25045806  0.76784644  0.94425391
   0.24927900  0.41521061  0.49945148
   0.00092896  0.33329209 -0.00002594
   0.99992977  0.79607067  0.11139155
   0.74872147  0.89922267  0.05574670
   0.50059382  0.05559727  0.33372472
   0.50088101  0.52019951  0.44396288
   0.74958925  0.30511949  0.83316606
   0.75005035  0.96949144  0.83346019
   0.00031881  0.59258040  0.22201885
   0.99868386  0.11022808  0.66706894
   0.74986852  0.56503242  0.05552698
   0.49967079  0.92561467  0.22224873
   0.74988295  0.36140548  0.16653114
   0.49572253  0.98256097  0.55527380
   0.25110623  0.89824592  0.05529159
   0.00126089  0.18486747  0.44427962
   0.25001601  0.02776995  0.16667484
   0.24836089  0.54928444  0.61063571
   0.25076309  0.21245480  0.61046120
   0.74754952  0.43557898  0.94452076
   0.25005873  0.56482815  0.05535490
   0.24941840  0.10178361  0.94481214
   0.25027455  0.69442612  0.16667689
   0.24944113  0.15831365  0.27779284
   0.99996294  0.73990786  0.77782331
   0.24935849  0.28631414  0.38956482
   0.99953975  0.07432735  0.77769073
   0.24980698  0.43552020  0.94484922
   0.74994366  0.69425696  0.16652675
   0.49965470  0.11209984  0.66653799
Direct configuration=    80
   0.49945717  0.25930319  0.22218441
   0.00070118  0.25910403  0.22229695
   0.24956005  0.23118446  0.05522187
   0.49996588  0.79602807  0.11062505
   0.00004795  0.46314434  0.11075956
   0.00148144  0.51889289  0.44418704
   0.25047156  0.87924021  0.61086857
   0.00060889  0.66660452  0.00005642
   0.75069806  0.62021065  0.72233708
   0.49987171  0.72231701  0.33324883
   0.24977592  0.95337616  0.72198204
   0.99984612  0.40807509  0.77767724
   0.00057451  0.44484722  0.66657068
   0.24951062  0.63913441  0.83335990
   0.74976410  0.21291290  0.61131276
   0.00123244  0.77750331  0.66675892
   0.24981463  0.82419287  0.27787219
   0.49921610  0.77812761  0.66632592
   0.50039648  0.74101011  0.77799603
   0.49961187  0.99884502  0.00020925
   0.50018019  0.07402668  0.77771020
   0.49998553  0.38865607  0.33350028
   0.00032032  0.92600454  0.22227583
   0.24911680  0.62062335  0.38924640
   0.49958214  0.66699700  0.00009621
   0.75027631  0.54711976  0.61084672
   0.75044206  0.87936447  0.61099059
   0.00020895  0.12951703  0.11064209
   0.24978244  0.97191868  0.83327210
   0.50091830  0.53741676  0.88965471
   0.99977438  0.87158037  0.88940521
   0.24996115  0.49034855  0.27777865
   0.49932172  0.64843571  0.55584123
   0.00061817  0.98157756  0.55566980
   0.50002708  0.44396409  0.66664702
   0.75033506  0.23121259  0.05540640
   0.50010698  0.18537233  0.44429934
   0.75008532  0.82402722  0.27785503
   0.75012042  0.15736873  0.27791346
   0.74989649  0.02762415  0.16652009
   0.99994881  0.53727745  0.88870233
   0.74858472  0.95469577  0.38904184
   0.50007465  0.86979331  0.88960418
   0.49984622  0.33398601 -0.00001194
   0.50027798  0.20382293  0.88896662
   0.00042892  0.72254939  0.33348658
   0.74923593  0.28680986  0.38920399
   0.49905075  0.85300343  0.44450071
   0.75047247  0.10189217  0.94441807
   0.75029444  0.95426852  0.72222256
   0.24955179  0.62022844  0.72187034
   0.24927061  0.95412154  0.38946399
   0.00048412  0.31485641  0.55582723
   0.49985817  0.12931005  0.11073992
   0.74950566  0.62025320  0.38901338
   0.74989740  0.76849183  0.94423989
   0.75022894  0.75022787  0.49986806
   0.24989517  0.30546280  0.83335507
   0.00073197  0.05531375  0.33332414
   0.50055529  0.59241390  0.22192072
   0.74981024  0.41642362  0.49997382
   0.50030633  0.40724060  0.77789458
   0.00030115  0.38875597  0.33332978
   0.25006595  0.36114717  0.16666462
   0.00045932  0.64811100  0.55569946
   0.74995897  0.49092435  0.27782790
   0.00340421  0.85211044  0.44433795
   0.99920445  0.20147064  0.88890214
   0.49981687  0.46351160  0.11084458
   0.25293316  0.08152060  0.49917682
   0.49758329  0.31346050  0.55567656
   0.25146827  0.28718787  0.72285639
   0.74988949  0.08315485  0.49996503
   0.99998007  0.00008007  0.99982532
   0.75036008  0.63922133  0.83372545
   0.75136949  0.28568544  0.72294655
   0.25013305  0.75122342  0.49987756
   0.25045806  0.76784644  0.94425391
   0.24927900  0.41521061  0.49945148
   0.00092896  0.33329209 -0.00002594
   0.99992977  0.79607067  0.11139155
   0.74872147  0.89922267  0.05574670
   0.50059382  0.05559727  0.33372472
   0.50088101  0.52019951  0.44396288
   0.74958925  0.30511949  0.83316606
   0.75005035  0.96949144  0.83346019
   0.00031881  0.59258040  0.22201885
   0.99868386  0.11022808  0.66706894
   0.74986852  0.56503242  0.05552698
   0.49967079  0.92561467  0.22224873
   0.74988295  0.36140548  0.16653114
   0.49572253  0.98256097  0.55527380
   0.25110623  0.89824592  0.05529159
   0.00126089  0.18486747  0.44427962
   0.25001601  0.02776995  0.16667484
   0.24836089  0.54928444  0.61063571
   0.25076309  0.21245480  0.61046120
   0.74754952  0.43557898  0.94452076
   0.25005873  0.56482815  0.05535490
   0.24941840  0.10178361  0.94481214
   0.25027455  0.69442612  0.16667689
   0.24944113  0.15831365  0.27779284
   0.99996294  0.73990786  0.77782331
   0.24935849  0.28631414  0.38956482
   0.99953975  0.07432735  0.77769073
   0.24980698  0.43552020  0.94484922
   0.74994366  0.69425696  0.16652675
   0.49965470  0.11209984  0.66653799
Direct configuration=    81
   0.49945717  0.25930319  0.22218441
   0.00070118  0.25910403  0.22229695
   0.24956005  0.23118446  0.05522187
   0.49996588  0.79602807  0.11062505
   0.00004795  0.46314434  0.11075956
   0.00148144  0.51889289  0.44418704
   0.25047156  0.87924021  0.61086857
   0.00060889  0.66660452  0.00005642
   0.75069806  0.62021065  0.72233708
   0.49987171  0.72231701  0.33324883
   0.24977592  0.95337616  0.72198204
   0.99984612  0.40807509  0.77767724
   0.00057451  0.44484722  0.66657068
   0.24951062  0.63913441  0.83335990
   0.74976410  0.21291290  0.61131276
   0.00123244  0.77750331  0.66675892
   0.24981463  0.82419287  0.27787219
   0.49921610  0.77812761  0.66632592
   0.50039648  0.74101011  0.77799603
   0.49961187  0.99884502  0.00020925
   0.50018019  0.07402668  0.77771020
   0.49998553  0.38865607  0.33350028
   0.00032032  0.92600454  0.22227583
   0.24911680  0.62062335  0.38924640
   0.49958214  0.66699700  0.00009621
   0.75027631  0.54711976  0.61084672
   0.75044206  0.87936447  0.61099059
   0.00020895  0.12951703  0.11064209
   0.24978244  0.97191868  0.83327210
   0.50091830  0.53741676  0.88965471
   0.99977438  0.87158037  0.88940521
   0.24996115  0.49034855  0.27777865
   0.49932172  0.64843571  0.55584123
   0.00061817  0.98157756  0.55566980
   0.50002708  0.44396409  0.66664702
   0.75033506  0.23121259  0.05540640
   0.50010698  0.18537233  0.44429934
   0.75008532  0.82402722  0.27785503
   0.75012042  0.15736873  0.27791346
   0.74989649  0.02762415  0.16652009
   0.99994881  0.53727745  0.88870233
   0.74858472  0.95469577  0.38904184
   0.50007465  0.86979331  0.88960418
   0.49984622  0.33398601 -0.00001194
   0.50027798  0.20382293  0.88896662
   0.00042892  0.72254939  0.33348658
   0.74923593  0.28680986  0.38920399
   0.49905075  0.85300343  0.44450071
   0.75047247  0.10189217  0.94441807
   0.75029444  0.95426852  0.72222256
   0.24955179  0.62022844  0.72187034
   0.24927061  0.95412154  0.38946399
   0.00048412  0.31485641  0.55582723
   0.49985817  0.12931005  0.11073992
   0.74950566  0.62025320  0.38901338
   0.74989740  0.76849183  0.94423989
   0.75022894  0.75022787  0.49986806
   0.24989517  0.30546280  0.83335507
   0.00073197  0.05531375  0.33332414
   0.50055529  0.59241390  0.22192072
   0.74981024  0.41642362  0.49997382
   0.50030633  0.40724060  0.77789458
   0.00030115  0.38875597  0.33332978
   0.25006595  0.36114717  0.16666462
   0.00045932  0.64811100  0.55569946
   0.74995897  0.49092435  0.27782790
   0.00340421  0.85211044  0.44433795
   0.99920445  0.20147064  0.88890214
   0.49981687  0.46351160  0.11084458
   0.25293316  0.08152060  0.49917682
   0.49758329  0.31346050  0.55567656
   0.25146827  0.28718787  0.72285639
   0.74988949  0.08315485  0.49996503
   0.99998007  0.00008007  0.99982532
   0.75036008  0.63922133  0.83372545
   0.75136949  0.28568544  0.72294655
   0.25013305  0.75122342  0.49987756
   0.25045806  0.76784644  0.94425391
   0.24927900  0.41521061  0.49945148
   0.00092896  0.33329209 -0.00002594
   0.99992977  0.79607067  0.11139155
   0.74872147  0.89922267  0.05574670
   0.50059382  0.05559727  0.33372472
   0.50088101  0.52019951  0.44396288
   0.74958925  0.30511949  0.83316606
   0.75005035  0.96949144  0.83346019
   0.00031881  0.59258040  0.22201885
   0.99868386  0.11022808  0.66706894
   0.74986852  0.56503242  0.05552698
   0.49967079  0.92561467  0.22224873
   0.74988295  0.36140548  0.16653114
   0.49572253  0.98256097  0.55527380
   0.25110623  0.89824592  0.05529159
   0.00126089  0.18486747  0.44427962
   0.25001601  0.02776995  0.16667484
   0.24836089  0.54928444  0.61063571
   0.25076309  0.21245480  0.61046120
   0.74754952  0.43557898  0.94452076
   0.25005873  0.56482815  0.05535490
   0.24941840  0.10178361  0.94481214
   0.25027455  0.69442612  0.16667689
   0.24944113  0.15831365  0.27779284
   0.99996294  0.73990786  0.77782331
   0.24935849  0.28631414  0.38956482
   0.99953975  0.07432735  0.77769073
   0.24980698  0.43552020  0.94484922
   0.74994366  0.69425696  0.16652675
   0.49965470  0.11209984  0.66653799
Direct configuration=    82
   0.49945717  0.25930319  0.22218441
   0.00070118  0.25910403  0.22229695
   0.24956005  0.23118446  0.05522187
   0.49996588  0.79602807  0.11062505
   0.00004795  0.46314434  0.11075956
   0.00148144  0.51889289  0.44418704
   0.25047156  0.87924021  0.61086857
   0.00060889  0.66660452  0.00005642
   0.75069806  0.62021065  0.72233708
   0.49987171  0.72231701  0.33324883
   0.24977592  0.95337616  0.72198204
   0.99984612  0.40807509  0.77767724
   0.00057451  0.44484722  0.66657068
   0.24951062  0.63913441  0.83335990
   0.74976410  0.21291290  0.61131276
   0.00123244  0.77750331  0.66675892
   0.24981463  0.82419287  0.27787219
   0.49921610  0.77812761  0.66632592
   0.50039648  0.74101011  0.77799603
   0.49961187  0.99884502  0.00020925
   0.50018019  0.07402668  0.77771020
   0.49998553  0.38865607  0.33350028
   0.00032032  0.92600454  0.22227583
   0.24911680  0.62062335  0.38924640
   0.49958214  0.66699700  0.00009621
   0.75027631  0.54711976  0.61084672
   0.75044206  0.87936447  0.61099059
   0.00020895  0.12951703  0.11064209
   0.24978244  0.97191868  0.83327210
   0.50091830  0.53741676  0.88965471
   0.99977438  0.87158037  0.88940521
   0.24996115  0.49034855  0.27777865
   0.49932172  0.64843571  0.55584123
   0.00061817  0.98157756  0.55566980
   0.50002708  0.44396409  0.66664702
   0.75033506  0.23121259  0.05540640
   0.50010698  0.18537233  0.44429934
   0.75008532  0.82402722  0.27785503
   0.75012042  0.15736873  0.27791346
   0.74989649  0.02762415  0.16652009
   0.99994881  0.53727745  0.88870233
   0.74858472  0.95469577  0.38904184
   0.50007465  0.86979331  0.88960418
   0.49984622  0.33398601 -0.00001194
   0.50027798  0.20382293  0.88896662
   0.00042892  0.72254939  0.33348658
   0.74923593  0.28680986  0.38920399
   0.49905075  0.85300343  0.44450071
   0.75047247  0.10189217  0.94441807
   0.75029444  0.95426852  0.72222256
   0.24955179  0.62022844  0.72187034
   0.24927061  0.95412154  0.38946399
   0.00048412  0.31485641  0.55582723
   0.49985817  0.12931005  0.11073992
   0.74950566  0.62025320  0.38901338
   0.74989740  0.76849183  0.94423989
   0.75022894  0.75022787  0.49986806
   0.24989517  0.30546280  0.83335507
   0.00073197  0.05531375  0.33332414
   0.50055529  0.59241390  0.22192072
   0.74981024  0.41642362  0.49997382
   0.50030633  0.40724060  0.77789458
   0.00030115  0.38875597  0.33332978
   0.25006595  0.36114717  0.16666462
   0.00045932  0.64811100  0.55569946
   0.74995897  0.49092435  0.27782790
   0.00340421  0.85211044  0.44433795
   0.99920445  0.20147064  0.88890214
   0.49981687  0.46351160  0.11084458
   0.25293316  0.08152060  0.49917682
   0.49758329  0.31346050  0.55567656
   0.25146827  0.28718787  0.72285639
   0.74988949  0.08315485  0.49996503
   0.99998007  0.00008007  0.99982532
   0.75036008  0.63922133  0.83372545
   0.75136949  0.28568544  0.72294655
   0.25013305  0.75122342  0.49987756
   0.25045806  0.76784644  0.94425391
   0.24927900  0.41521061  0.49945148
   0.00092896  0.33329209 -0.00002594
   0.99992977  0.79607067  0.11139155
   0.74872147  0.89922267  0.05574670
   0.50059382  0.05559727  0.33372472
   0.50088101  0.52019951  0.44396288
   0.74958925  0.30511949  0.83316606
   0.75005035  0.96949144  0.83346019
   0.00031881  0.59258040  0.22201885
   0.99868386  0.11022808  0.66706894
   0.74986852  0.56503242  0.05552698
   0.49967079  0.92561467  0.22224873
   0.74988295  0.36140548  0.16653114
   0.49572253  0.98256097  0.55527380
   0.25110623  0.89824592  0.05529159
   0.00126089  0.18486747  0.44427962
   0.25001601  0.02776995  0.16667484
   0.24836089  0.54928444  0.61063571
   0.25076309  0.21245480  0.61046120
   0.74754952  0.43557898  0.94452076
   0.25005873  0.56482815  0.05535490
   0.24941840  0.10178361  0.94481214
   0.25027455  0.69442612  0.16667689
   0.24944113  0.15831365  0.27779284
   0.99996294  0.73990786  0.77782331
   0.24935849  0.28631414  0.38956482
   0.99953975  0.07432735  0.77769073
   0.24980698  0.43552020  0.94484922
   0.74994366  0.69425696  0.16652675
   0.49965470  0.11209984  0.66653799
Direct configuration=    83
   0.49945717  0.25930319  0.22218441
   0.00070118  0.25910403  0.22229695
   0.24956005  0.23118446  0.05522187
   0.49996588  0.79602807  0.11062505
   0.00004795  0.46314434  0.11075956
   0.00148144  0.51889289  0.44418704
   0.25047156  0.87924021  0.61086857
   0.00060889  0.66660452  0.00005642
   0.75069806  0.62021065  0.72233708
   0.49987171  0.72231701  0.33324883
   0.24977592  0.95337616  0.72198204
   0.99984612  0.40807509  0.77767724
   0.00057451  0.44484722  0.66657068
   0.24951062  0.63913441  0.83335990
   0.74976410  0.21291290  0.61131276
   0.00123244  0.77750331  0.66675892
   0.24981463  0.82419287  0.27787219
   0.49921610  0.77812761  0.66632592
   0.50039648  0.74101011  0.77799603
   0.49961187  0.99884502  0.00020925
   0.50018019  0.07402668  0.77771020
   0.49998553  0.38865607  0.33350028
   0.00032032  0.92600454  0.22227583
   0.24911680  0.62062335  0.38924640
   0.49958214  0.66699700  0.00009621
   0.75027631  0.54711976  0.61084672
   0.75044206  0.87936447  0.61099059
   0.00020895  0.12951703  0.11064209
   0.24978244  0.97191868  0.83327210
   0.50091830  0.53741676  0.88965471
   0.99977438  0.87158037  0.88940521
   0.24996115  0.49034855  0.27777865
   0.49932172  0.64843571  0.55584123
   0.00061817  0.98157756  0.55566980
   0.50002708  0.44396409  0.66664702
   0.75033506  0.23121259  0.05540640
   0.50010698  0.18537233  0.44429934
   0.75008532  0.82402722  0.27785503
   0.75012042  0.15736873  0.27791346
   0.74989649  0.02762415  0.16652009
   0.99994881  0.53727745  0.88870233
   0.74858472  0.95469577  0.38904184
   0.50007465  0.86979331  0.88960418
   0.49984622  0.33398601 -0.00001194
   0.50027798  0.20382293  0.88896662
   0.00042892  0.72254939  0.33348658
   0.74923593  0.28680986  0.38920399
   0.49905075  0.85300343  0.44450071
   0.75047247  0.10189217  0.94441807
   0.75029444  0.95426852  0.72222256
   0.24955179  0.62022844  0.72187034
   0.24927061  0.95412154  0.38946399
   0.00048412  0.31485641  0.55582723
   0.49985817  0.12931005  0.11073992
   0.74950566  0.62025320  0.38901338
   0.74989740  0.76849183  0.94423989
   0.75022894  0.75022787  0.49986806
   0.24989517  0.30546280  0.83335507
   0.00073197  0.05531375  0.33332414
   0.50055529  0.59241390  0.22192072
   0.74981024  0.41642362  0.49997382
   0.50030633  0.40724060  0.77789458
   0.00030115  0.38875597  0.33332978
   0.25006595  0.36114717  0.16666462
   0.00045932  0.64811100  0.55569946
   0.74995897  0.49092435  0.27782790
   0.00340421  0.85211044  0.44433795
   0.99920445  0.20147064  0.88890214
   0.49981687  0.46351160  0.11084458
   0.25293316  0.08152060  0.49917682
   0.49758329  0.31346050  0.55567656
   0.25146827  0.28718787  0.72285639
   0.74988949  0.08315485  0.49996503
   0.99998007  0.00008007  0.99982532
   0.75036008  0.63922133  0.83372545
   0.75136949  0.28568544  0.72294655
   0.25013305  0.75122342  0.49987756
   0.25045806  0.76784644  0.94425391
   0.24927900  0.41521061  0.49945148
   0.00092896  0.33329209 -0.00002594
   0.99992977  0.79607067  0.11139155
   0.74872147  0.89922267  0.05574670
   0.50059382  0.05559727  0.33372472
   0.50088101  0.52019951  0.44396288
   0.74958925  0.30511949  0.83316606
   0.75005035  0.96949144  0.83346019
   0.00031881  0.59258040  0.22201885
   0.99868386  0.11022808  0.66706894
   0.74986852  0.56503242  0.05552698
   0.49967079  0.92561467  0.22224873
   0.74988295  0.36140548  0.16653114
   0.49572253  0.98256097  0.55527380
   0.25110623  0.89824592  0.05529159
   0.00126089  0.18486747  0.44427962
   0.25001601  0.02776995  0.16667484
   0.24836089  0.54928444  0.61063571
   0.25076309  0.21245480  0.61046120
   0.74754952  0.43557898  0.94452076
   0.25005873  0.56482815  0.05535490
   0.24941840  0.10178361  0.94481214
   0.25027455  0.69442612  0.16667689
   0.24944113  0.15831365  0.27779284
   0.99996294  0.73990786  0.77782331
   0.24935849  0.28631414  0.38956482
   0.99953975  0.07432735  0.77769073
   0.24980698  0.43552020  0.94484922
   0.74994366  0.69425696  0.16652675
   0.49965470  0.11209984  0.66653799
Direct configuration=    84
   0.49945717  0.25930319  0.22218441
   0.00070118  0.25910403  0.22229695
   0.24956005  0.23118446  0.05522187
   0.49996588  0.79602807  0.11062505
   0.00004795  0.46314434  0.11075956
   0.00148144  0.51889289  0.44418704
   0.25047156  0.87924021  0.61086857
   0.00060889  0.66660452  0.00005642
   0.75069806  0.62021065  0.72233708
   0.49987171  0.72231701  0.33324883
   0.24977592  0.95337616  0.72198204
   0.99984612  0.40807509  0.77767724
   0.00057451  0.44484722  0.66657068
   0.24951062  0.63913441  0.83335990
   0.74976410  0.21291290  0.61131276
   0.00123244  0.77750331  0.66675892
   0.24981463  0.82419287  0.27787219
   0.49921610  0.77812761  0.66632592
   0.50039648  0.74101011  0.77799603
   0.49961187  0.99884502  0.00020925
   0.50018019  0.07402668  0.77771020
   0.49998553  0.38865607  0.33350028
   0.00032032  0.92600454  0.22227583
   0.24911680  0.62062335  0.38924640
   0.49958214  0.66699700  0.00009621
   0.75027631  0.54711976  0.61084672
   0.75044206  0.87936447  0.61099059
   0.00020895  0.12951703  0.11064209
   0.24978244  0.97191868  0.83327210
   0.50091830  0.53741676  0.88965471
   0.99977438  0.87158037  0.88940521
   0.24996115  0.49034855  0.27777865
   0.49932172  0.64843571  0.55584123
   0.00061817  0.98157756  0.55566980
   0.50002708  0.44396409  0.66664702
   0.75033506  0.23121259  0.05540640
   0.50010698  0.18537233  0.44429934
   0.75008532  0.82402722  0.27785503
   0.75012042  0.15736873  0.27791346
   0.74989649  0.02762415  0.16652009
   0.99994881  0.53727745  0.88870233
   0.74858472  0.95469577  0.38904184
   0.50007465  0.86979331  0.88960418
   0.49984622  0.33398601 -0.00001194
   0.50027798  0.20382293  0.88896662
   0.00042892  0.72254939  0.33348658
   0.74923593  0.28680986  0.38920399
   0.49905075  0.85300343  0.44450071
   0.75047247  0.10189217  0.94441807
   0.75029444  0.95426852  0.72222256
   0.24955179  0.62022844  0.72187034
   0.24927061  0.95412154  0.38946399
   0.00048412  0.31485641  0.55582723
   0.49985817  0.12931005  0.11073992
   0.74950566  0.62025320  0.38901338
   0.74989740  0.76849183  0.94423989
   0.75022894  0.75022787  0.49986806
   0.24989517  0.30546280  0.83335507
   0.00073197  0.05531375  0.33332414
   0.50055529  0.59241390  0.22192072
   0.74981024  0.41642362  0.49997382
   0.50030633  0.40724060  0.77789458
   0.00030115  0.38875597  0.33332978
   0.25006595  0.36114717  0.16666462
   0.00045932  0.64811100  0.55569946
   0.74995897  0.49092435  0.27782790
   0.00340421  0.85211044  0.44433795
   0.99920445  0.20147064  0.88890214
   0.49981687  0.46351160  0.11084458
   0.25293316  0.08152060  0.49917682
   0.49758329  0.31346050  0.55567656
   0.25146827  0.28718787  0.72285639
   0.74988949  0.08315485  0.49996503
   0.99998007  0.00008007  0.99982532
   0.75036008  0.63922133  0.83372545
   0.75136949  0.28568544  0.72294655
   0.25013305  0.75122342  0.49987756
   0.25045806  0.76784644  0.94425391
   0.24927900  0.41521061  0.49945148
   0.00092896  0.33329209 -0.00002594
   0.99992977  0.79607067  0.11139155
   0.74872147  0.89922267  0.05574670
   0.50059382  0.05559727  0.33372472
   0.50088101  0.52019951  0.44396288
   0.74958925  0.30511949  0.83316606
   0.75005035  0.96949144  0.83346019
   0.00031881  0.59258040  0.22201885
   0.99868386  0.11022808  0.66706894
   0.74986852  0.56503242  0.05552698
   0.49967079  0.92561467  0.22224873
   0.74988295  0.36140548  0.16653114
   0.49572253  0.98256097  0.55527380
   0.25110623  0.89824592  0.05529159
   0.00126089  0.18486747  0.44427962
   0.25001601  0.02776995  0.16667484
   0.24836089  0.54928444  0.61063571
   0.25076309  0.21245480  0.61046120
   0.74754952  0.43557898  0.94452076
   0.25005873  0.56482815  0.05535490
   0.24941840  0.10178361  0.94481214
   0.25027455  0.69442612  0.16667689
   0.24944113  0.15831365  0.27779284
   0.99996294  0.73990786  0.77782331
   0.24935849  0.28631414  0.38956482
   0.99953975  0.07432735  0.77769073
   0.24980698  0.43552020  0.94484922
   0.74994366  0.69425696  0.16652675
   0.49965470  0.11209984  0.66653799
Direct configuration=    85
   0.49945717  0.25930319  0.22218441
   0.00070118  0.25910403  0.22229695
   0.24956005  0.23118446  0.05522187
   0.49996588  0.79602807  0.11062505
   0.00004795  0.46314434  0.11075956
   0.00148144  0.51889289  0.44418704
   0.25047156  0.87924021  0.61086857
   0.00060889  0.66660452  0.00005642
   0.75069806  0.62021065  0.72233708
   0.49987171  0.72231701  0.33324883
   0.24977592  0.95337616  0.72198204
   0.99984612  0.40807509  0.77767724
   0.00057451  0.44484722  0.66657068
   0.24951062  0.63913441  0.83335990
   0.74976410  0.21291290  0.61131276
   0.00123244  0.77750331  0.66675892
   0.24981463  0.82419287  0.27787219
   0.49921610  0.77812761  0.66632592
   0.50039648  0.74101011  0.77799603
   0.49961187  0.99884502  0.00020925
   0.50018019  0.07402668  0.77771020
   0.49998553  0.38865607  0.33350028
   0.00032032  0.92600454  0.22227583
   0.24911680  0.62062335  0.38924640
   0.49958214  0.66699700  0.00009621
   0.75027631  0.54711976  0.61084672
   0.75044206  0.87936447  0.61099059
   0.00020895  0.12951703  0.11064209
   0.24978244  0.97191868  0.83327210
   0.50091830  0.53741676  0.88965471
   0.99977438  0.87158037  0.88940521
   0.24996115  0.49034855  0.27777865
   0.49932172  0.64843571  0.55584123
   0.00061817  0.98157756  0.55566980
   0.50002708  0.44396409  0.66664702
   0.75033506  0.23121259  0.05540640
   0.50010698  0.18537233  0.44429934
   0.75008532  0.82402722  0.27785503
   0.75012042  0.15736873  0.27791346
   0.74989649  0.02762415  0.16652009
   0.99994881  0.53727745  0.88870233
   0.74858472  0.95469577  0.38904184
   0.50007465  0.86979331  0.88960418
   0.49984622  0.33398601 -0.00001194
   0.50027798  0.20382293  0.88896662
   0.00042892  0.72254939  0.33348658
   0.74923593  0.28680986  0.38920399
   0.49905075  0.85300343  0.44450071
   0.75047247  0.10189217  0.94441807
   0.75029444  0.95426852  0.72222256
   0.24955179  0.62022844  0.72187034
   0.24927061  0.95412154  0.38946399
   0.00048412  0.31485641  0.55582723
   0.49985817  0.12931005  0.11073992
   0.74950566  0.62025320  0.38901338
   0.74989740  0.76849183  0.94423989
   0.75022894  0.75022787  0.49986806
   0.24989517  0.30546280  0.83335507
   0.00073197  0.05531375  0.33332414
   0.50055529  0.59241390  0.22192072
   0.74981024  0.41642362  0.49997382
   0.50030633  0.40724060  0.77789458
   0.00030115  0.38875597  0.33332978
   0.25006595  0.36114717  0.16666462
   0.00045932  0.64811100  0.55569946
   0.74995897  0.49092435  0.27782790
   0.00340421  0.85211044  0.44433795
   0.99920445  0.20147064  0.88890214
   0.49981687  0.46351160  0.11084458
   0.25293316  0.08152060  0.49917682
   0.49758329  0.31346050  0.55567656
   0.25146827  0.28718787  0.72285639
   0.74988949  0.08315485  0.49996503
   0.99998007  0.00008007  0.99982532
   0.75036008  0.63922133  0.83372545
   0.75136949  0.28568544  0.72294655
   0.25013305  0.75122342  0.49987756
   0.25045806  0.76784644  0.94425391
   0.24927900  0.41521061  0.49945148
   0.00092896  0.33329209 -0.00002594
   0.99992977  0.79607067  0.11139155
   0.74872147  0.89922267  0.05574670
   0.50059382  0.05559727  0.33372472
   0.50088101  0.52019951  0.44396288
   0.74958925  0.30511949  0.83316606
   0.75005035  0.96949144  0.83346019
   0.00031881  0.59258040  0.22201885
   0.99868386  0.11022808  0.66706894
   0.74986852  0.56503242  0.05552698
   0.49967079  0.92561467  0.22224873
   0.74988295  0.36140548  0.16653114
   0.49572253  0.98256097  0.55527380
   0.25110623  0.89824592  0.05529159
   0.00126089  0.18486747  0.44427962
   0.25001601  0.02776995  0.16667484
   0.24836089  0.54928444  0.61063571
   0.25076309  0.21245480  0.61046120
   0.74754952  0.43557898  0.94452076
   0.25005873  0.56482815  0.05535490
   0.24941840  0.10178361  0.94481214
   0.25027455  0.69442612  0.16667689
   0.24944113  0.15831365  0.27779284
   0.99996294  0.73990786  0.77782331
   0.24935849  0.28631414  0.38956482
   0.99953975  0.07432735  0.77769073
   0.24980698  0.43552020  0.94484922
   0.74994366  0.69425696  0.16652675
   0.49965470  0.11209984  0.66653799
Direct configuration=    86
   0.49945717  0.25930319  0.22218441
   0.00070118  0.25910403  0.22229695
   0.24956005  0.23118446  0.05522187
   0.49996588  0.79602807  0.11062505
   0.00004795  0.46314434  0.11075956
   0.00148144  0.51889289  0.44418704
   0.25047156  0.87924021  0.61086857
   0.00060889  0.66660452  0.00005642
   0.75069806  0.62021065  0.72233708
   0.49987171  0.72231701  0.33324883
   0.24977592  0.95337616  0.72198204
   0.99984612  0.40807509  0.77767724
   0.00057451  0.44484722  0.66657068
   0.24951062  0.63913441  0.83335990
   0.74976410  0.21291290  0.61131276
   0.00123244  0.77750331  0.66675892
   0.24981463  0.82419287  0.27787219
   0.49921610  0.77812761  0.66632592
   0.50039648  0.74101011  0.77799603
   0.49961187  0.99884502  0.00020925
   0.50018019  0.07402668  0.77771020
   0.49998553  0.38865607  0.33350028
   0.00032032  0.92600454  0.22227583
   0.24911680  0.62062335  0.38924640
   0.49958214  0.66699700  0.00009621
   0.75027631  0.54711976  0.61084672
   0.75044206  0.87936447  0.61099059
   0.00020895  0.12951703  0.11064209
   0.24978244  0.97191868  0.83327210
   0.50091830  0.53741676  0.88965471
   0.99977438  0.87158037  0.88940521
   0.24996115  0.49034855  0.27777865
   0.49932172  0.64843571  0.55584123
   0.00061817  0.98157756  0.55566980
   0.50002708  0.44396409  0.66664702
   0.75033506  0.23121259  0.05540640
   0.50010698  0.18537233  0.44429934
   0.75008532  0.82402722  0.27785503
   0.75012042  0.15736873  0.27791346
   0.74989649  0.02762415  0.16652009
   0.99994881  0.53727745  0.88870233
   0.74858472  0.95469577  0.38904184
   0.50007465  0.86979331  0.88960418
   0.49984622  0.33398601 -0.00001194
   0.50027798  0.20382293  0.88896662
   0.00042892  0.72254939  0.33348658
   0.74923593  0.28680986  0.38920399
   0.49905075  0.85300343  0.44450071
   0.75047247  0.10189217  0.94441807
   0.75029444  0.95426852  0.72222256
   0.24955179  0.62022844  0.72187034
   0.24927061  0.95412154  0.38946399
   0.00048412  0.31485641  0.55582723
   0.49985817  0.12931005  0.11073992
   0.74950566  0.62025320  0.38901338
   0.74989740  0.76849183  0.94423989
   0.75022894  0.75022787  0.49986806
   0.24989517  0.30546280  0.83335507
   0.00073197  0.05531375  0.33332414
   0.50055529  0.59241390  0.22192072
   0.74981024  0.41642362  0.49997382
   0.50030633  0.40724060  0.77789458
   0.00030115  0.38875597  0.33332978
   0.25006595  0.36114717  0.16666462
   0.00045932  0.64811100  0.55569946
   0.74995897  0.49092435  0.27782790
   0.00340421  0.85211044  0.44433795
   0.99920445  0.20147064  0.88890214
   0.49981687  0.46351160  0.11084458
   0.25293316  0.08152060  0.49917682
   0.49758329  0.31346050  0.55567656
   0.25146827  0.28718787  0.72285639
   0.74988949  0.08315485  0.49996503
   0.99998007  0.00008007  0.99982532
   0.75036008  0.63922133  0.83372545
   0.75136949  0.28568544  0.72294655
   0.25013305  0.75122342  0.49987756
   0.25045806  0.76784644  0.94425391
   0.24927900  0.41521061  0.49945148
   0.00092896  0.33329209 -0.00002594
   0.99992977  0.79607067  0.11139155
   0.74872147  0.89922267  0.05574670
   0.50059382  0.05559727  0.33372472
   0.50088101  0.52019951  0.44396288
   0.74958925  0.30511949  0.83316606
   0.75005035  0.96949144  0.83346019
   0.00031881  0.59258040  0.22201885
   0.99868386  0.11022808  0.66706894
   0.74986852  0.56503242  0.05552698
   0.49967079  0.92561467  0.22224873
   0.74988295  0.36140548  0.16653114
   0.49572253  0.98256097  0.55527380
   0.25110623  0.89824592  0.05529159
   0.00126089  0.18486747  0.44427962
   0.25001601  0.02776995  0.16667484
   0.24836089  0.54928444  0.61063571
   0.25076309  0.21245480  0.61046120
   0.74754952  0.43557898  0.94452076
   0.25005873  0.56482815  0.05535490
   0.24941840  0.10178361  0.94481214
   0.25027455  0.69442612  0.16667689
   0.24944113  0.15831365  0.27779284
   0.99996294  0.73990786  0.77782331
   0.24935849  0.28631414  0.38956482
   0.99953975  0.07432735  0.77769073
   0.24980698  0.43552020  0.94484922
   0.74994366  0.69425696  0.16652675
   0.49965470  0.11209984  0.66653799
Direct configuration=    87
   0.49945717  0.25930319  0.22218441
   0.00070118  0.25910403  0.22229695
   0.24956005  0.23118446  0.05522187
   0.49996588  0.79602807  0.11062505
   0.00004795  0.46314434  0.11075956
   0.00148144  0.51889289  0.44418704
   0.25047156  0.87924021  0.61086857
   0.00060889  0.66660452  0.00005642
   0.75069806  0.62021065  0.72233708
   0.49987171  0.72231701  0.33324883
   0.24977592  0.95337616  0.72198204
   0.99984612  0.40807509  0.77767724
   0.00057451  0.44484722  0.66657068
   0.24951062  0.63913441  0.83335990
   0.74976410  0.21291290  0.61131276
   0.00123244  0.77750331  0.66675892
   0.24981463  0.82419287  0.27787219
   0.49921610  0.77812761  0.66632592
   0.50039648  0.74101011  0.77799603
   0.49961187  0.99884502  0.00020925
   0.50018019  0.07402668  0.77771020
   0.49998553  0.38865607  0.33350028
   0.00032032  0.92600454  0.22227583
   0.24911680  0.62062335  0.38924640
   0.49958214  0.66699700  0.00009621
   0.75027631  0.54711976  0.61084672
   0.75044206  0.87936447  0.61099059
   0.00020895  0.12951703  0.11064209
   0.24978244  0.97191868  0.83327210
   0.50091830  0.53741676  0.88965471
   0.99977438  0.87158037  0.88940521
   0.24996115  0.49034855  0.27777865
   0.49932172  0.64843571  0.55584123
   0.00061817  0.98157756  0.55566980
   0.50002708  0.44396409  0.66664702
   0.75033506  0.23121259  0.05540640
   0.50010698  0.18537233  0.44429934
   0.75008532  0.82402722  0.27785503
   0.75012042  0.15736873  0.27791346
   0.74989649  0.02762415  0.16652009
   0.99994881  0.53727745  0.88870233
   0.74858472  0.95469577  0.38904184
   0.50007465  0.86979331  0.88960418
   0.49984622  0.33398601 -0.00001194
   0.50027798  0.20382293  0.88896662
   0.00042892  0.72254939  0.33348658
   0.74923593  0.28680986  0.38920399
   0.49905075  0.85300343  0.44450071
   0.75047247  0.10189217  0.94441807
   0.75029444  0.95426852  0.72222256
   0.24955179  0.62022844  0.72187034
   0.24927061  0.95412154  0.38946399
   0.00048412  0.31485641  0.55582723
   0.49985817  0.12931005  0.11073992
   0.74950566  0.62025320  0.38901338
   0.74989740  0.76849183  0.94423989
   0.75022894  0.75022787  0.49986806
   0.24989517  0.30546280  0.83335507
   0.00073197  0.05531375  0.33332414
   0.50055529  0.59241390  0.22192072
   0.74981024  0.41642362  0.49997382
   0.50030633  0.40724060  0.77789458
   0.00030115  0.38875597  0.33332978
   0.25006595  0.36114717  0.16666462
   0.00045932  0.64811100  0.55569946
   0.74995897  0.49092435  0.27782790
   0.00340421  0.85211044  0.44433795
   0.99920445  0.20147064  0.88890214
   0.49981687  0.46351160  0.11084458
   0.25293316  0.08152060  0.49917682
   0.49758329  0.31346050  0.55567656
   0.25146827  0.28718787  0.72285639
   0.74988949  0.08315485  0.49996503
   0.99998007  0.00008007  0.99982532
   0.75036008  0.63922133  0.83372545
   0.75136949  0.28568544  0.72294655
   0.25013305  0.75122342  0.49987756
   0.25045806  0.76784644  0.94425391
   0.24927900  0.41521061  0.49945148
   0.00092896  0.33329209 -0.00002594
   0.99992977  0.79607067  0.11139155
   0.74872147  0.89922267  0.05574670
   0.50059382  0.05559727  0.33372472
   0.50088101  0.52019951  0.44396288
   0.74958925  0.30511949  0.83316606
   0.75005035  0.96949144  0.83346019
   0.00031881  0.59258040  0.22201885
   0.99868386  0.11022808  0.66706894
   0.74986852  0.56503242  0.05552698
   0.49967079  0.92561467  0.22224873
   0.74988295  0.36140548  0.16653114
   0.49572253  0.98256097  0.55527380
   0.25110623  0.89824592  0.05529159
   0.00126089  0.18486747  0.44427962
   0.25001601  0.02776995  0.16667484
   0.24836089  0.54928444  0.61063571
   0.25076309  0.21245480  0.61046120
   0.74754952  0.43557898  0.94452076
   0.25005873  0.56482815  0.05535490
   0.24941840  0.10178361  0.94481214
   0.25027455  0.69442612  0.16667689
   0.24944113  0.15831365  0.27779284
   0.99996294  0.73990786  0.77782331
   0.24935849  0.28631414  0.38956482
   0.99953975  0.07432735  0.77769073
   0.24980698  0.43552020  0.94484922
   0.74994366  0.69425696  0.16652675
   0.49965470  0.11209984  0.66653799
Direct configuration=    88
   0.49945717  0.25930319  0.22218441
   0.00070118  0.25910403  0.22229695
   0.24956005  0.23118446  0.05522187
   0.49996588  0.79602807  0.11062505
   0.00004795  0.46314434  0.11075956
   0.00148144  0.51889289  0.44418704
   0.25047156  0.87924021  0.61086857
   0.00060889  0.66660452  0.00005642
   0.75069806  0.62021065  0.72233708
   0.49987171  0.72231701  0.33324883
   0.24977592  0.95337616  0.72198204
   0.99984612  0.40807509  0.77767724
   0.00057451  0.44484722  0.66657068
   0.24951062  0.63913441  0.83335990
   0.74976410  0.21291290  0.61131276
   0.00123244  0.77750331  0.66675892
   0.24981463  0.82419287  0.27787219
   0.49921610  0.77812761  0.66632592
   0.50039648  0.74101011  0.77799603
   0.49961187  0.99884502  0.00020925
   0.50018019  0.07402668  0.77771020
   0.49998553  0.38865607  0.33350028
   0.00032032  0.92600454  0.22227583
   0.24911680  0.62062335  0.38924640
   0.49958214  0.66699700  0.00009621
   0.75027631  0.54711976  0.61084672
   0.75044206  0.87936447  0.61099059
   0.00020895  0.12951703  0.11064209
   0.24978244  0.97191868  0.83327210
   0.50091830  0.53741676  0.88965471
   0.99977438  0.87158037  0.88940521
   0.24996115  0.49034855  0.27777865
   0.49932172  0.64843571  0.55584123
   0.00061817  0.98157756  0.55566980
   0.50002708  0.44396409  0.66664702
   0.75033506  0.23121259  0.05540640
   0.50010698  0.18537233  0.44429934
   0.75008532  0.82402722  0.27785503
   0.75012042  0.15736873  0.27791346
   0.74989649  0.02762415  0.16652009
   0.99994881  0.53727745  0.88870233
   0.74858472  0.95469577  0.38904184
   0.50007465  0.86979331  0.88960418
   0.49984622  0.33398601 -0.00001194
   0.50027798  0.20382293  0.88896662
   0.00042892  0.72254939  0.33348658
   0.74923593  0.28680986  0.38920399
   0.49905075  0.85300343  0.44450071
   0.75047247  0.10189217  0.94441807
   0.75029444  0.95426852  0.72222256
   0.24955179  0.62022844  0.72187034
   0.24927061  0.95412154  0.38946399
   0.00048412  0.31485641  0.55582723
   0.49985817  0.12931005  0.11073992
   0.74950566  0.62025320  0.38901338
   0.74989740  0.76849183  0.94423989
   0.75022894  0.75022787  0.49986806
   0.24989517  0.30546280  0.83335507
   0.00073197  0.05531375  0.33332414
   0.50055529  0.59241390  0.22192072
   0.74981024  0.41642362  0.49997382
   0.50030633  0.40724060  0.77789458
   0.00030115  0.38875597  0.33332978
   0.25006595  0.36114717  0.16666462
   0.00045932  0.64811100  0.55569946
   0.74995897  0.49092435  0.27782790
   0.00340421  0.85211044  0.44433795
   0.99920445  0.20147064  0.88890214
   0.49981687  0.46351160  0.11084458
   0.25293316  0.08152060  0.49917682
   0.49758329  0.31346050  0.55567656
   0.25146827  0.28718787  0.72285639
   0.74988949  0.08315485  0.49996503
   0.99998007  0.00008007  0.99982532
   0.75036008  0.63922133  0.83372545
   0.75136949  0.28568544  0.72294655
   0.25013305  0.75122342  0.49987756
   0.25045806  0.76784644  0.94425391
   0.24927900  0.41521061  0.49945148
   0.00092896  0.33329209 -0.00002594
   0.99992977  0.79607067  0.11139155
   0.74872147  0.89922267  0.05574670
   0.50059382  0.05559727  0.33372472
   0.50088101  0.52019951  0.44396288
   0.74958925  0.30511949  0.83316606
   0.75005035  0.96949144  0.83346019
   0.00031881  0.59258040  0.22201885
   0.99868386  0.11022808  0.66706894
   0.74986852  0.56503242  0.05552698
   0.49967079  0.92561467  0.22224873
   0.74988295  0.36140548  0.16653114
   0.49572253  0.98256097  0.55527380
   0.25110623  0.89824592  0.05529159
   0.00126089  0.18486747  0.44427962
   0.25001601  0.02776995  0.16667484
   0.24836089  0.54928444  0.61063571
   0.25076309  0.21245480  0.61046120
   0.74754952  0.43557898  0.94452076
   0.25005873  0.56482815  0.05535490
   0.24941840  0.10178361  0.94481214
   0.25027455  0.69442612  0.16667689
   0.24944113  0.15831365  0.27779284
   0.99996294  0.73990786  0.77782331
   0.24935849  0.28631414  0.38956482
   0.99953975  0.07432735  0.77769073
   0.24980698  0.43552020  0.94484922
   0.74994366  0.69425696  0.16652675
   0.49965470  0.11209984  0.66653799
Direct configuration=    89
   0.49945717  0.25930319  0.22218441
   0.00070118  0.25910403  0.22229695
   0.24956005  0.23118446  0.05522187
   0.49996588  0.79602807  0.11062505
   0.00004795  0.46314434  0.11075956
   0.00148144  0.51889289  0.44418704
   0.25047156  0.87924021  0.61086857
   0.00060889  0.66660452  0.00005642
   0.75069806  0.62021065  0.72233708
   0.49987171  0.72231701  0.33324883
   0.24977592  0.95337616  0.72198204
   0.99984612  0.40807509  0.77767724
   0.00057451  0.44484722  0.66657068
   0.24951062  0.63913441  0.83335990
   0.74976410  0.21291290  0.61131276
   0.00123244  0.77750331  0.66675892
   0.24981463  0.82419287  0.27787219
   0.49921610  0.77812761  0.66632592
   0.50039648  0.74101011  0.77799603
   0.49961187  0.99884502  0.00020925
   0.50018019  0.07402668  0.77771020
   0.49998553  0.38865607  0.33350028
   0.00032032  0.92600454  0.22227583
   0.24911680  0.62062335  0.38924640
   0.49958214  0.66699700  0.00009621
   0.75027631  0.54711976  0.61084672
   0.75044206  0.87936447  0.61099059
   0.00020895  0.12951703  0.11064209
   0.24978244  0.97191868  0.83327210
   0.50091830  0.53741676  0.88965471
   0.99977438  0.87158037  0.88940521
   0.24996115  0.49034855  0.27777865
   0.49932172  0.64843571  0.55584123
   0.00061817  0.98157756  0.55566980
   0.50002708  0.44396409  0.66664702
   0.75033506  0.23121259  0.05540640
   0.50010698  0.18537233  0.44429934
   0.75008532  0.82402722  0.27785503
   0.75012042  0.15736873  0.27791346
   0.74989649  0.02762415  0.16652009
   0.99994881  0.53727745  0.88870233
   0.74858472  0.95469577  0.38904184
   0.50007465  0.86979331  0.88960418
   0.49984622  0.33398601 -0.00001194
   0.50027798  0.20382293  0.88896662
   0.00042892  0.72254939  0.33348658
   0.74923593  0.28680986  0.38920399
   0.49905075  0.85300343  0.44450071
   0.75047247  0.10189217  0.94441807
   0.75029444  0.95426852  0.72222256
   0.24955179  0.62022844  0.72187034
   0.24927061  0.95412154  0.38946399
   0.00048412  0.31485641  0.55582723
   0.49985817  0.12931005  0.11073992
   0.74950566  0.62025320  0.38901338
   0.74989740  0.76849183  0.94423989
   0.75022894  0.75022787  0.49986806
   0.24989517  0.30546280  0.83335507
   0.00073197  0.05531375  0.33332414
   0.50055529  0.59241390  0.22192072
   0.74981024  0.41642362  0.49997382
   0.50030633  0.40724060  0.77789458
   0.00030115  0.38875597  0.33332978
   0.25006595  0.36114717  0.16666462
   0.00045932  0.64811100  0.55569946
   0.74995897  0.49092435  0.27782790
   0.00340421  0.85211044  0.44433795
   0.99920445  0.20147064  0.88890214
   0.49981687  0.46351160  0.11084458
   0.25293316  0.08152060  0.49917682
   0.49758329  0.31346050  0.55567656
   0.25146827  0.28718787  0.72285639
   0.74988949  0.08315485  0.49996503
   0.99998007  0.00008007  0.99982532
   0.75036008  0.63922133  0.83372545
   0.75136949  0.28568544  0.72294655
   0.25013305  0.75122342  0.49987756
   0.25045806  0.76784644  0.94425391
   0.24927900  0.41521061  0.49945148
   0.00092896  0.33329209 -0.00002594
   0.99992977  0.79607067  0.11139155
   0.74872147  0.89922267  0.05574670
   0.50059382  0.05559727  0.33372472
   0.50088101  0.52019951  0.44396288
   0.74958925  0.30511949  0.83316606
   0.75005035  0.96949144  0.83346019
   0.00031881  0.59258040  0.22201885
   0.99868386  0.11022808  0.66706894
   0.74986852  0.56503242  0.05552698
   0.49967079  0.92561467  0.22224873
   0.74988295  0.36140548  0.16653114
   0.49572253  0.98256097  0.55527380
   0.25110623  0.89824592  0.05529159
   0.00126089  0.18486747  0.44427962
   0.25001601  0.02776995  0.16667484
   0.24836089  0.54928444  0.61063571
   0.25076309  0.21245480  0.61046120
   0.74754952  0.43557898  0.94452076
   0.25005873  0.56482815  0.05535490
   0.24941840  0.10178361  0.94481214
   0.25027455  0.69442612  0.16667689
   0.24944113  0.15831365  0.27779284
   0.99996294  0.73990786  0.77782331
   0.24935849  0.28631414  0.38956482
   0.99953975  0.07432735  0.77769073
   0.24980698  0.43552020  0.94484922
   0.74994366  0.69425696  0.16652675
   0.49965470  0.11209984  0.66653799
Direct configuration=    90
   0.49945717  0.25930319  0.22218441
   0.00070118  0.25910403  0.22229695
   0.24956005  0.23118446  0.05522187
   0.49996588  0.79602807  0.11062505
   0.00004795  0.46314434  0.11075956
   0.00148144  0.51889289  0.44418704
   0.25047156  0.87924021  0.61086857
   0.00060889  0.66660452  0.00005642
   0.75069806  0.62021065  0.72233708
   0.49987171  0.72231701  0.33324883
   0.24977592  0.95337616  0.72198204
   0.99984612  0.40807509  0.77767724
   0.00057451  0.44484722  0.66657068
   0.24951062  0.63913441  0.83335990
   0.74976410  0.21291290  0.61131276
   0.00123244  0.77750331  0.66675892
   0.24981463  0.82419287  0.27787219
   0.49921610  0.77812761  0.66632592
   0.50039648  0.74101011  0.77799603
   0.49961187  0.99884502  0.00020925
   0.50018019  0.07402668  0.77771020
   0.49998553  0.38865607  0.33350028
   0.00032032  0.92600454  0.22227583
   0.24911680  0.62062335  0.38924640
   0.49958214  0.66699700  0.00009621
   0.75027631  0.54711976  0.61084672
   0.75044206  0.87936447  0.61099059
   0.00020895  0.12951703  0.11064209
   0.24978244  0.97191868  0.83327210
   0.50091830  0.53741676  0.88965471
   0.99977438  0.87158037  0.88940521
   0.24996115  0.49034855  0.27777865
   0.49932172  0.64843571  0.55584123
   0.00061817  0.98157756  0.55566980
   0.50002708  0.44396409  0.66664702
   0.75033506  0.23121259  0.05540640
   0.50010698  0.18537233  0.44429934
   0.75008532  0.82402722  0.27785503
   0.75012042  0.15736873  0.27791346
   0.74989649  0.02762415  0.16652009
   0.99994881  0.53727745  0.88870233
   0.74858472  0.95469577  0.38904184
   0.50007465  0.86979331  0.88960418
   0.49984622  0.33398601 -0.00001194
   0.50027798  0.20382293  0.88896662
   0.00042892  0.72254939  0.33348658
   0.74923593  0.28680986  0.38920399
   0.49905075  0.85300343  0.44450071
   0.75047247  0.10189217  0.94441807
   0.75029444  0.95426852  0.72222256
   0.24955179  0.62022844  0.72187034
   0.24927061  0.95412154  0.38946399
   0.00048412  0.31485641  0.55582723
   0.49985817  0.12931005  0.11073992
   0.74950566  0.62025320  0.38901338
   0.74989740  0.76849183  0.94423989
   0.75022894  0.75022787  0.49986806
   0.24989517  0.30546280  0.83335507
   0.00073197  0.05531375  0.33332414
   0.50055529  0.59241390  0.22192072
   0.74981024  0.41642362  0.49997382
   0.50030633  0.40724060  0.77789458
   0.00030115  0.38875597  0.33332978
   0.25006595  0.36114717  0.16666462
   0.00045932  0.64811100  0.55569946
   0.74995897  0.49092435  0.27782790
   0.00340421  0.85211044  0.44433795
   0.99920445  0.20147064  0.88890214
   0.49981687  0.46351160  0.11084458
   0.25293316  0.08152060  0.49917682
   0.49758329  0.31346050  0.55567656
   0.25146827  0.28718787  0.72285639
   0.74988949  0.08315485  0.49996503
   0.99998007  0.00008007  0.99982532
   0.75036008  0.63922133  0.83372545
   0.75136949  0.28568544  0.72294655
   0.25013305  0.75122342  0.49987756
   0.25045806  0.76784644  0.94425391
   0.24927900  0.41521061  0.49945148
   0.00092896  0.33329209 -0.00002594
   0.99992977  0.79607067  0.11139155
   0.74872147  0.89922267  0.05574670
   0.50059382  0.05559727  0.33372472
   0.50088101  0.52019951  0.44396288
   0.74958925  0.30511949  0.83316606
   0.75005035  0.96949144  0.83346019
   0.00031881  0.59258040  0.22201885
   0.99868386  0.11022808  0.66706894
   0.74986852  0.56503242  0.05552698
   0.49967079  0.92561467  0.22224873
   0.74988295  0.36140548  0.16653114
   0.49572253  0.98256097  0.55527380
   0.25110623  0.89824592  0.05529159
   0.00126089  0.18486747  0.44427962
   0.25001601  0.02776995  0.16667484
   0.24836089  0.54928444  0.61063571
   0.25076309  0.21245480  0.61046120
   0.74754952  0.43557898  0.94452076
   0.25005873  0.56482815  0.05535490
   0.24941840  0.10178361  0.94481214
   0.25027455  0.69442612  0.16667689
   0.24944113  0.15831365  0.27779284
   0.99996294  0.73990786  0.77782331
   0.24935849  0.28631414  0.38956482
   0.99953975  0.07432735  0.77769073
   0.24980698  0.43552020  0.94484922
   0.74994366  0.69425696  0.16652675
   0.49965470  0.11209984  0.66653799
Direct configuration=    91
   0.49945717  0.25930319  0.22218441
   0.00070118  0.25910403  0.22229695
   0.24956005  0.23118446  0.05522187
   0.49996588  0.79602807  0.11062505
   0.00004795  0.46314434  0.11075956
   0.00148144  0.51889289  0.44418704
   0.25047156  0.87924021  0.61086857
   0.00060889  0.66660452  0.00005642
   0.75069806  0.62021065  0.72233708
   0.49987171  0.72231701  0.33324883
   0.24977592  0.95337616  0.72198204
   0.99984612  0.40807509  0.77767724
   0.00057451  0.44484722  0.66657068
   0.24951062  0.63913441  0.83335990
   0.74976410  0.21291290  0.61131276
   0.00123244  0.77750331  0.66675892
   0.24981463  0.82419287  0.27787219
   0.49921610  0.77812761  0.66632592
   0.50039648  0.74101011  0.77799603
   0.49961187  0.99884502  0.00020925
   0.50018019  0.07402668  0.77771020
   0.49998553  0.38865607  0.33350028
   0.00032032  0.92600454  0.22227583
   0.24911680  0.62062335  0.38924640
   0.49958214  0.66699700  0.00009621
   0.75027631  0.54711976  0.61084672
   0.75044206  0.87936447  0.61099059
   0.00020895  0.12951703  0.11064209
   0.24978244  0.97191868  0.83327210
   0.50091830  0.53741676  0.88965471
   0.99977438  0.87158037  0.88940521
   0.24996115  0.49034855  0.27777865
   0.49932172  0.64843571  0.55584123
   0.00061817  0.98157756  0.55566980
   0.50002708  0.44396409  0.66664702
   0.75033506  0.23121259  0.05540640
   0.50010698  0.18537233  0.44429934
   0.75008532  0.82402722  0.27785503
   0.75012042  0.15736873  0.27791346
   0.74989649  0.02762415  0.16652009
   0.99994881  0.53727745  0.88870233
   0.74858472  0.95469577  0.38904184
   0.50007465  0.86979331  0.88960418
   0.49984622  0.33398601 -0.00001194
   0.50027798  0.20382293  0.88896662
   0.00042892  0.72254939  0.33348658
   0.74923593  0.28680986  0.38920399
   0.49905075  0.85300343  0.44450071
   0.75047247  0.10189217  0.94441807
   0.75029444  0.95426852  0.72222256
   0.24955179  0.62022844  0.72187034
   0.24927061  0.95412154  0.38946399
   0.00048412  0.31485641  0.55582723
   0.49985817  0.12931005  0.11073992
   0.74950566  0.62025320  0.38901338
   0.74989740  0.76849183  0.94423989
   0.75022894  0.75022787  0.49986806
   0.24989517  0.30546280  0.83335507
   0.00073197  0.05531375  0.33332414
   0.50055529  0.59241390  0.22192072
   0.74981024  0.41642362  0.49997382
   0.50030633  0.40724060  0.77789458
   0.00030115  0.38875597  0.33332978
   0.25006595  0.36114717  0.16666462
   0.00045932  0.64811100  0.55569946
   0.74995897  0.49092435  0.27782790
   0.00340421  0.85211044  0.44433795
   0.99920445  0.20147064  0.88890214
   0.49981687  0.46351160  0.11084458
   0.25293316  0.08152060  0.49917682
   0.49758329  0.31346050  0.55567656
   0.25146827  0.28718787  0.72285639
   0.74988949  0.08315485  0.49996503
   0.99998007  0.00008007  0.99982532
   0.75036008  0.63922133  0.83372545
   0.75136949  0.28568544  0.72294655
   0.25013305  0.75122342  0.49987756
   0.25045806  0.76784644  0.94425391
   0.24927900  0.41521061  0.49945148
   0.00092896  0.33329209 -0.00002594
   0.99992977  0.79607067  0.11139155
   0.74872147  0.89922267  0.05574670
   0.50059382  0.05559727  0.33372472
   0.50088101  0.52019951  0.44396288
   0.74958925  0.30511949  0.83316606
   0.75005035  0.96949144  0.83346019
   0.00031881  0.59258040  0.22201885
   0.99868386  0.11022808  0.66706894
   0.74986852  0.56503242  0.05552698
   0.49967079  0.92561467  0.22224873
   0.74988295  0.36140548  0.16653114
   0.49572253  0.98256097  0.55527380
   0.25110623  0.89824592  0.05529159
   0.00126089  0.18486747  0.44427962
   0.25001601  0.02776995  0.16667484
   0.24836089  0.54928444  0.61063571
   0.25076309  0.21245480  0.61046120
   0.74754952  0.43557898  0.94452076
   0.25005873  0.56482815  0.05535490
   0.24941840  0.10178361  0.94481214
   0.25027455  0.69442612  0.16667689
   0.24944113  0.15831365  0.27779284
   0.99996294  0.73990786  0.77782331
   0.24935849  0.28631414  0.38956482
   0.99953975  0.07432735  0.77769073
   0.24980698  0.43552020  0.94484922
   0.74994366  0.69425696  0.16652675
   0.49965470  0.11209984  0.66653799
Direct configuration=    92
   0.49945717  0.25930319  0.22218441
   0.00070118  0.25910403  0.22229695
   0.24956005  0.23118446  0.05522187
   0.49996588  0.79602807  0.11062505
   0.00004795  0.46314434  0.11075956
   0.00148144  0.51889289  0.44418704
   0.25047156  0.87924021  0.61086857
   0.00060889  0.66660452  0.00005642
   0.75069806  0.62021065  0.72233708
   0.49987171  0.72231701  0.33324883
   0.24977592  0.95337616  0.72198204
   0.99984612  0.40807509  0.77767724
   0.00057451  0.44484722  0.66657068
   0.24951062  0.63913441  0.83335990
   0.74976410  0.21291290  0.61131276
   0.00123244  0.77750331  0.66675892
   0.24981463  0.82419287  0.27787219
   0.49921610  0.77812761  0.66632592
   0.50039648  0.74101011  0.77799603
   0.49961187  0.99884502  0.00020925
   0.50018019  0.07402668  0.77771020
   0.49998553  0.38865607  0.33350028
   0.00032032  0.92600454  0.22227583
   0.24911680  0.62062335  0.38924640
   0.49958214  0.66699700  0.00009621
   0.75027631  0.54711976  0.61084672
   0.75044206  0.87936447  0.61099059
   0.00020895  0.12951703  0.11064209
   0.24978244  0.97191868  0.83327210
   0.50091830  0.53741676  0.88965471
   0.99977438  0.87158037  0.88940521
   0.24996115  0.49034855  0.27777865
   0.49932172  0.64843571  0.55584123
   0.00061817  0.98157756  0.55566980
   0.50002708  0.44396409  0.66664702
   0.75033506  0.23121259  0.05540640
   0.50010698  0.18537233  0.44429934
   0.75008532  0.82402722  0.27785503
   0.75012042  0.15736873  0.27791346
   0.74989649  0.02762415  0.16652009
   0.99994881  0.53727745  0.88870233
   0.74858472  0.95469577  0.38904184
   0.50007465  0.86979331  0.88960418
   0.49984622  0.33398601 -0.00001194
   0.50027798  0.20382293  0.88896662
   0.00042892  0.72254939  0.33348658
   0.74923593  0.28680986  0.38920399
   0.49905075  0.85300343  0.44450071
   0.75047247  0.10189217  0.94441807
   0.75029444  0.95426852  0.72222256
   0.24955179  0.62022844  0.72187034
   0.24927061  0.95412154  0.38946399
   0.00048412  0.31485641  0.55582723
   0.49985817  0.12931005  0.11073992
   0.74950566  0.62025320  0.38901338
   0.74989740  0.76849183  0.94423989
   0.75022894  0.75022787  0.49986806
   0.24989517  0.30546280  0.83335507
   0.00073197  0.05531375  0.33332414
   0.50055529  0.59241390  0.22192072
   0.74981024  0.41642362  0.49997382
   0.50030633  0.40724060  0.77789458
   0.00030115  0.38875597  0.33332978
   0.25006595  0.36114717  0.16666462
   0.00045932  0.64811100  0.55569946
   0.74995897  0.49092435  0.27782790
   0.00340421  0.85211044  0.44433795
   0.99920445  0.20147064  0.88890214
   0.49981687  0.46351160  0.11084458
   0.25293316  0.08152060  0.49917682
   0.49758329  0.31346050  0.55567656
   0.25146827  0.28718787  0.72285639
   0.74988949  0.08315485  0.49996503
   0.99998007  0.00008007  0.99982532
   0.75036008  0.63922133  0.83372545
   0.75136949  0.28568544  0.72294655
   0.25013305  0.75122342  0.49987756
   0.25045806  0.76784644  0.94425391
   0.24927900  0.41521061  0.49945148
   0.00092896  0.33329209 -0.00002594
   0.99992977  0.79607067  0.11139155
   0.74872147  0.89922267  0.05574670
   0.50059382  0.05559727  0.33372472
   0.50088101  0.52019951  0.44396288
   0.74958925  0.30511949  0.83316606
   0.75005035  0.96949144  0.83346019
   0.00031881  0.59258040  0.22201885
   0.99868386  0.11022808  0.66706894
   0.74986852  0.56503242  0.05552698
   0.49967079  0.92561467  0.22224873
   0.74988295  0.36140548  0.16653114
   0.49572253  0.98256097  0.55527380
   0.25110623  0.89824592  0.05529159
   0.00126089  0.18486747  0.44427962
   0.25001601  0.02776995  0.16667484
   0.24836089  0.54928444  0.61063571
   0.25076309  0.21245480  0.61046120
   0.74754952  0.43557898  0.94452076
   0.25005873  0.56482815  0.05535490
   0.24941840  0.10178361  0.94481214
   0.25027455  0.69442612  0.16667689
   0.24944113  0.15831365  0.27779284
   0.99996294  0.73990786  0.77782331
   0.24935849  0.28631414  0.38956482
   0.99953975  0.07432735  0.77769073
   0.24980698  0.43552020  0.94484922
   0.74994366  0.69425696  0.16652675
   0.49965470  0.11209984  0.66653799
Direct configuration=    93
   0.49945717  0.25930319  0.22218441
   0.00070118  0.25910403  0.22229695
   0.24956005  0.23118446  0.05522187
   0.49996588  0.79602807  0.11062505
   0.00004795  0.46314434  0.11075956
   0.00148144  0.51889289  0.44418704
   0.25047156  0.87924021  0.61086857
   0.00060889  0.66660452  0.00005642
   0.75069806  0.62021065  0.72233708
   0.49987171  0.72231701  0.33324883
   0.24977592  0.95337616  0.72198204
   0.99984612  0.40807509  0.77767724
   0.00057451  0.44484722  0.66657068
   0.24951062  0.63913441  0.83335990
   0.74976410  0.21291290  0.61131276
   0.00123244  0.77750331  0.66675892
   0.24981463  0.82419287  0.27787219
   0.49921610  0.77812761  0.66632592
   0.50039648  0.74101011  0.77799603
   0.49961187  0.99884502  0.00020925
   0.50018019  0.07402668  0.77771020
   0.49998553  0.38865607  0.33350028
   0.00032032  0.92600454  0.22227583
   0.24911680  0.62062335  0.38924640
   0.49958214  0.66699700  0.00009621
   0.75027631  0.54711976  0.61084672
   0.75044206  0.87936447  0.61099059
   0.00020895  0.12951703  0.11064209
   0.24978244  0.97191868  0.83327210
   0.50091830  0.53741676  0.88965471
   0.99977438  0.87158037  0.88940521
   0.24996115  0.49034855  0.27777865
   0.49932172  0.64843571  0.55584123
   0.00061817  0.98157756  0.55566980
   0.50002708  0.44396409  0.66664702
   0.75033506  0.23121259  0.05540640
   0.50010698  0.18537233  0.44429934
   0.75008532  0.82402722  0.27785503
   0.75012042  0.15736873  0.27791346
   0.74989649  0.02762415  0.16652009
   0.99994881  0.53727745  0.88870233
   0.74858472  0.95469577  0.38904184
   0.50007465  0.86979331  0.88960418
   0.49984622  0.33398601 -0.00001194
   0.50027798  0.20382293  0.88896662
   0.00042892  0.72254939  0.33348658
   0.74923593  0.28680986  0.38920399
   0.49905075  0.85300343  0.44450071
   0.75047247  0.10189217  0.94441807
   0.75029444  0.95426852  0.72222256
   0.24955179  0.62022844  0.72187034
   0.24927061  0.95412154  0.38946399
   0.00048412  0.31485641  0.55582723
   0.49985817  0.12931005  0.11073992
   0.74950566  0.62025320  0.38901338
   0.74989740  0.76849183  0.94423989
   0.75022894  0.75022787  0.49986806
   0.24989517  0.30546280  0.83335507
   0.00073197  0.05531375  0.33332414
   0.50055529  0.59241390  0.22192072
   0.74981024  0.41642362  0.49997382
   0.50030633  0.40724060  0.77789458
   0.00030115  0.38875597  0.33332978
   0.25006595  0.36114717  0.16666462
   0.00045932  0.64811100  0.55569946
   0.74995897  0.49092435  0.27782790
   0.00340421  0.85211044  0.44433795
   0.99920445  0.20147064  0.88890214
   0.49981687  0.46351160  0.11084458
   0.25293316  0.08152060  0.49917682
   0.49758329  0.31346050  0.55567656
   0.25146827  0.28718787  0.72285639
   0.74988949  0.08315485  0.49996503
   0.99998007  0.00008007  0.99982532
   0.75036008  0.63922133  0.83372545
   0.75136949  0.28568544  0.72294655
   0.25013305  0.75122342  0.49987756
   0.25045806  0.76784644  0.94425391
   0.24927900  0.41521061  0.49945148
   0.00092896  0.33329209 -0.00002594
   0.99992977  0.79607067  0.11139155
   0.74872147  0.89922267  0.05574670
   0.50059382  0.05559727  0.33372472
   0.50088101  0.52019951  0.44396288
   0.74958925  0.30511949  0.83316606
   0.75005035  0.96949144  0.83346019
   0.00031881  0.59258040  0.22201885
   0.99868386  0.11022808  0.66706894
   0.74986852  0.56503242  0.05552698
   0.49967079  0.92561467  0.22224873
   0.74988295  0.36140548  0.16653114
   0.49572253  0.98256097  0.55527380
   0.25110623  0.89824592  0.05529159
   0.00126089  0.18486747  0.44427962
   0.25001601  0.02776995  0.16667484
   0.24836089  0.54928444  0.61063571
   0.25076309  0.21245480  0.61046120
   0.74754952  0.43557898  0.94452076
   0.25005873  0.56482815  0.05535490
   0.24941840  0.10178361  0.94481214
   0.25027455  0.69442612  0.16667689
   0.24944113  0.15831365  0.27779284
   0.99996294  0.73990786  0.77782331
   0.24935849  0.28631414  0.38956482
   0.99953975  0.07432735  0.77769073
   0.24980698  0.43552020  0.94484922
   0.74994366  0.69425696  0.16652675
   0.49965470  0.11209984  0.66653799
Direct configuration=    94
   0.49945717  0.25930319  0.22218441
   0.00070118  0.25910403  0.22229695
   0.24956005  0.23118446  0.05522187
   0.49996588  0.79602807  0.11062505
   0.00004795  0.46314434  0.11075956
   0.00148144  0.51889289  0.44418704
   0.25047156  0.87924021  0.61086857
   0.00060889  0.66660452  0.00005642
   0.75069806  0.62021065  0.72233708
   0.49987171  0.72231701  0.33324883
   0.24977592  0.95337616  0.72198204
   0.99984612  0.40807509  0.77767724
   0.00057451  0.44484722  0.66657068
   0.24951062  0.63913441  0.83335990
   0.74976410  0.21291290  0.61131276
   0.00123244  0.77750331  0.66675892
   0.24981463  0.82419287  0.27787219
   0.49921610  0.77812761  0.66632592
   0.50039648  0.74101011  0.77799603
   0.49961187  0.99884502  0.00020925
   0.50018019  0.07402668  0.77771020
   0.49998553  0.38865607  0.33350028
   0.00032032  0.92600454  0.22227583
   0.24911680  0.62062335  0.38924640
   0.49958214  0.66699700  0.00009621
   0.75027631  0.54711976  0.61084672
   0.75044206  0.87936447  0.61099059
   0.00020895  0.12951703  0.11064209
   0.24978244  0.97191868  0.83327210
   0.50091830  0.53741676  0.88965471
   0.99977438  0.87158037  0.88940521
   0.24996115  0.49034855  0.27777865
   0.49932172  0.64843571  0.55584123
   0.00061817  0.98157756  0.55566980
   0.50002708  0.44396409  0.66664702
   0.75033506  0.23121259  0.05540640
   0.50010698  0.18537233  0.44429934
   0.75008532  0.82402722  0.27785503
   0.75012042  0.15736873  0.27791346
   0.74989649  0.02762415  0.16652009
   0.99994881  0.53727745  0.88870233
   0.74858472  0.95469577  0.38904184
   0.50007465  0.86979331  0.88960418
   0.49984622  0.33398601 -0.00001194
   0.50027798  0.20382293  0.88896662
   0.00042892  0.72254939  0.33348658
   0.74923593  0.28680986  0.38920399
   0.49905075  0.85300343  0.44450071
   0.75047247  0.10189217  0.94441807
   0.75029444  0.95426852  0.72222256
   0.24955179  0.62022844  0.72187034
   0.24927061  0.95412154  0.38946399
   0.00048412  0.31485641  0.55582723
   0.49985817  0.12931005  0.11073992
   0.74950566  0.62025320  0.38901338
   0.74989740  0.76849183  0.94423989
   0.75022894  0.75022787  0.49986806
   0.24989517  0.30546280  0.83335507
   0.00073197  0.05531375  0.33332414
   0.50055529  0.59241390  0.22192072
   0.74981024  0.41642362  0.49997382
   0.50030633  0.40724060  0.77789458
   0.00030115  0.38875597  0.33332978
   0.25006595  0.36114717  0.16666462
   0.00045932  0.64811100  0.55569946
   0.74995897  0.49092435  0.27782790
   0.00340421  0.85211044  0.44433795
   0.99920445  0.20147064  0.88890214
   0.49981687  0.46351160  0.11084458
   0.25293316  0.08152060  0.49917682
   0.49758329  0.31346050  0.55567656
   0.25146827  0.28718787  0.72285639
   0.74988949  0.08315485  0.49996503
   0.99998007  0.00008007  0.99982532
   0.75036008  0.63922133  0.83372545
   0.75136949  0.28568544  0.72294655
   0.25013305  0.75122342  0.49987756
   0.25045806  0.76784644  0.94425391
   0.24927900  0.41521061  0.49945148
   0.00092896  0.33329209 -0.00002594
   0.99992977  0.79607067  0.11139155
   0.74872147  0.89922267  0.05574670
   0.50059382  0.05559727  0.33372472
   0.50088101  0.52019951  0.44396288
   0.74958925  0.30511949  0.83316606
   0.75005035  0.96949144  0.83346019
   0.00031881  0.59258040  0.22201885
   0.99868386  0.11022808  0.66706894
   0.74986852  0.56503242  0.05552698
   0.49967079  0.92561467  0.22224873
   0.74988295  0.36140548  0.16653114
   0.49572253  0.98256097  0.55527380
   0.25110623  0.89824592  0.05529159
   0.00126089  0.18486747  0.44427962
   0.25001601  0.02776995  0.16667484
   0.24836089  0.54928444  0.61063571
   0.25076309  0.21245480  0.61046120
   0.74754952  0.43557898  0.94452076
   0.25005873  0.56482815  0.05535490
   0.24941840  0.10178361  0.94481214
   0.25027455  0.69442612  0.16667689
   0.24944113  0.15831365  0.27779284
   0.99996294  0.73990786  0.77782331
   0.24935849  0.28631414  0.38956482
   0.99953975  0.07432735  0.77769073
   0.24980698  0.43552020  0.94484922
   0.74994366  0.69425696  0.16652675
   0.49965470  0.11209984  0.66653799
Direct configuration=    95
   0.49945717  0.25930319  0.22218441
   0.00070118  0.25910403  0.22229695
   0.24956005  0.23118446  0.05522187
   0.49996588  0.79602807  0.11062505
   0.00004795  0.46314434  0.11075956
   0.00148144  0.51889289  0.44418704
   0.25047156  0.87924021  0.61086857
   0.00060889  0.66660452  0.00005642
   0.75069806  0.62021065  0.72233708
   0.49987171  0.72231701  0.33324883
   0.24977592  0.95337616  0.72198204
   0.99984612  0.40807509  0.77767724
   0.00057451  0.44484722  0.66657068
   0.24951062  0.63913441  0.83335990
   0.74976410  0.21291290  0.61131276
   0.00123244  0.77750331  0.66675892
   0.24981463  0.82419287  0.27787219
   0.49921610  0.77812761  0.66632592
   0.50039648  0.74101011  0.77799603
   0.49961187  0.99884502  0.00020925
   0.50018019  0.07402668  0.77771020
   0.49998553  0.38865607  0.33350028
   0.00032032  0.92600454  0.22227583
   0.24911680  0.62062335  0.38924640
   0.49958214  0.66699700  0.00009621
   0.75027631  0.54711976  0.61084672
   0.75044206  0.87936447  0.61099059
   0.00020895  0.12951703  0.11064209
   0.24978244  0.97191868  0.83327210
   0.50091830  0.53741676  0.88965471
   0.99977438  0.87158037  0.88940521
   0.24996115  0.49034855  0.27777865
   0.49932172  0.64843571  0.55584123
   0.00061817  0.98157756  0.55566980
   0.50002708  0.44396409  0.66664702
   0.75033506  0.23121259  0.05540640
   0.50010698  0.18537233  0.44429934
   0.75008532  0.82402722  0.27785503
   0.75012042  0.15736873  0.27791346
   0.74989649  0.02762415  0.16652009
   0.99994881  0.53727745  0.88870233
   0.74858472  0.95469577  0.38904184
   0.50007465  0.86979331  0.88960418
   0.49984622  0.33398601 -0.00001194
   0.50027798  0.20382293  0.88896662
   0.00042892  0.72254939  0.33348658
   0.74923593  0.28680986  0.38920399
   0.49905075  0.85300343  0.44450071
   0.75047247  0.10189217  0.94441807
   0.75029444  0.95426852  0.72222256
   0.24955179  0.62022844  0.72187034
   0.24927061  0.95412154  0.38946399
   0.00048412  0.31485641  0.55582723
   0.49985817  0.12931005  0.11073992
   0.74950566  0.62025320  0.38901338
   0.74989740  0.76849183  0.94423989
   0.75022894  0.75022787  0.49986806
   0.24989517  0.30546280  0.83335507
   0.00073197  0.05531375  0.33332414
   0.50055529  0.59241390  0.22192072
   0.74981024  0.41642362  0.49997382
   0.50030633  0.40724060  0.77789458
   0.00030115  0.38875597  0.33332978
   0.25006595  0.36114717  0.16666462
   0.00045932  0.64811100  0.55569946
   0.74995897  0.49092435  0.27782790
   0.00340421  0.85211044  0.44433795
   0.99920445  0.20147064  0.88890214
   0.49981687  0.46351160  0.11084458
   0.25293316  0.08152060  0.49917682
   0.49758329  0.31346050  0.55567656
   0.25146827  0.28718787  0.72285639
   0.74988949  0.08315485  0.49996503
   0.99998007  0.00008007  0.99982532
   0.75036008  0.63922133  0.83372545
   0.75136949  0.28568544  0.72294655
   0.25013305  0.75122342  0.49987756
   0.25045806  0.76784644  0.94425391
   0.24927900  0.41521061  0.49945148
   0.00092896  0.33329209 -0.00002594
   0.99992977  0.79607067  0.11139155
   0.74872147  0.89922267  0.05574670
   0.50059382  0.05559727  0.33372472
   0.50088101  0.52019951  0.44396288
   0.74958925  0.30511949  0.83316606
   0.75005035  0.96949144  0.83346019
   0.00031881  0.59258040  0.22201885
   0.99868386  0.11022808  0.66706894
   0.74986852  0.56503242  0.05552698
   0.49967079  0.92561467  0.22224873
   0.74988295  0.36140548  0.16653114
   0.49572253  0.98256097  0.55527380
   0.25110623  0.89824592  0.05529159
   0.00126089  0.18486747  0.44427962
   0.25001601  0.02776995  0.16667484
   0.24836089  0.54928444  0.61063571
   0.25076309  0.21245480  0.61046120
   0.74754952  0.43557898  0.94452076
   0.25005873  0.56482815  0.05535490
   0.24941840  0.10178361  0.94481214
   0.25027455  0.69442612  0.16667689
   0.24944113  0.15831365  0.27779284
   0.99996294  0.73990786  0.77782331
   0.24935849  0.28631414  0.38956482
   0.99953975  0.07432735  0.77769073
   0.24980698  0.43552020  0.94484922
   0.74994366  0.69425696  0.16652675
   0.49965470  0.11209984  0.66653799
Direct configuration=    96
   0.49945717  0.25930319  0.22218441
   0.00070118  0.25910403  0.22229695
   0.24956005  0.23118446  0.05522187
   0.49996588  0.79602807  0.11062505
   0.00004795  0.46314434  0.11075956
   0.00148144  0.51889289  0.44418704
   0.25047156  0.87924021  0.61086857
   0.00060889  0.66660452  0.00005642
   0.75069806  0.62021065  0.72233708
   0.49987171  0.72231701  0.33324883
   0.24977592  0.95337616  0.72198204
   0.99984612  0.40807509  0.77767724
   0.00057451  0.44484722  0.66657068
   0.24951062  0.63913441  0.83335990
   0.74976410  0.21291290  0.61131276
   0.00123244  0.77750331  0.66675892
   0.24981463  0.82419287  0.27787219
   0.49921610  0.77812761  0.66632592
   0.50039648  0.74101011  0.77799603
   0.49961187  0.99884502  0.00020925
   0.50018019  0.07402668  0.77771020
   0.49998553  0.38865607  0.33350028
   0.00032032  0.92600454  0.22227583
   0.24911680  0.62062335  0.38924640
   0.49958214  0.66699700  0.00009621
   0.75027631  0.54711976  0.61084672
   0.75044206  0.87936447  0.61099059
   0.00020895  0.12951703  0.11064209
   0.24978244  0.97191868  0.83327210
   0.50091830  0.53741676  0.88965471
   0.99977438  0.87158037  0.88940521
   0.24996115  0.49034855  0.27777865
   0.49932172  0.64843571  0.55584123
   0.00061817  0.98157756  0.55566980
   0.50002708  0.44396409  0.66664702
   0.75033506  0.23121259  0.05540640
   0.50010698  0.18537233  0.44429934
   0.75008532  0.82402722  0.27785503
   0.75012042  0.15736873  0.27791346
   0.74989649  0.02762415  0.16652009
   0.99994881  0.53727745  0.88870233
   0.74858472  0.95469577  0.38904184
   0.50007465  0.86979331  0.88960418
   0.49984622  0.33398601 -0.00001194
   0.50027798  0.20382293  0.88896662
   0.00042892  0.72254939  0.33348658
   0.74923593  0.28680986  0.38920399
   0.49905075  0.85300343  0.44450071
   0.75047247  0.10189217  0.94441807
   0.75029444  0.95426852  0.72222256
   0.24955179  0.62022844  0.72187034
   0.24927061  0.95412154  0.38946399
   0.00048412  0.31485641  0.55582723
   0.49985817  0.12931005  0.11073992
   0.74950566  0.62025320  0.38901338
   0.74989740  0.76849183  0.94423989
   0.75022894  0.75022787  0.49986806
   0.24989517  0.30546280  0.83335507
   0.00073197  0.05531375  0.33332414
   0.50055529  0.59241390  0.22192072
   0.74981024  0.41642362  0.49997382
   0.50030633  0.40724060  0.77789458
   0.00030115  0.38875597  0.33332978
   0.25006595  0.36114717  0.16666462
   0.00045932  0.64811100  0.55569946
   0.74995897  0.49092435  0.27782790
   0.00340421  0.85211044  0.44433795
   0.99920445  0.20147064  0.88890214
   0.49981687  0.46351160  0.11084458
   0.25293316  0.08152060  0.49917682
   0.49758329  0.31346050  0.55567656
   0.25146827  0.28718787  0.72285639
   0.74988949  0.08315485  0.49996503
   0.99998007  0.00008007  0.99982532
   0.75036008  0.63922133  0.83372545
   0.75136949  0.28568544  0.72294655
   0.25013305  0.75122342  0.49987756
   0.25045806  0.76784644  0.94425391
   0.24927900  0.41521061  0.49945148
   0.00092896  0.33329209 -0.00002594
   0.99992977  0.79607067  0.11139155
   0.74872147  0.89922267  0.05574670
   0.50059382  0.05559727  0.33372472
   0.50088101  0.52019951  0.44396288
   0.74958925  0.30511949  0.83316606
   0.75005035  0.96949144  0.83346019
   0.00031881  0.59258040  0.22201885
   0.99868386  0.11022808  0.66706894
   0.74986852  0.56503242  0.05552698
   0.49967079  0.92561467  0.22224873
   0.74988295  0.36140548  0.16653114
   0.49572253  0.98256097  0.55527380
   0.25110623  0.89824592  0.05529159
   0.00126089  0.18486747  0.44427962
   0.25001601  0.02776995  0.16667484
   0.24836089  0.54928444  0.61063571
   0.25076309  0.21245480  0.61046120
   0.74754952  0.43557898  0.94452076
   0.25005873  0.56482815  0.05535490
   0.24941840  0.10178361  0.94481214
   0.25027455  0.69442612  0.16667689
   0.24944113  0.15831365  0.27779284
   0.99996294  0.73990786  0.77782331
   0.24935849  0.28631414  0.38956482
   0.99953975  0.07432735  0.77769073
   0.24980698  0.43552020  0.94484922
   0.74994366  0.69425696  0.16652675
   0.49965470  0.11209984  0.66653799
Direct configuration=    97
   0.49945717  0.25930319  0.22218441
   0.00070118  0.25910403  0.22229695
   0.24956005  0.23118446  0.05522187
   0.49996588  0.79602807  0.11062505
   0.00004795  0.46314434  0.11075956
   0.00148144  0.51889289  0.44418704
   0.25047156  0.87924021  0.61086857
   0.00060889  0.66660452  0.00005642
   0.75069806  0.62021065  0.72233708
   0.49987171  0.72231701  0.33324883
   0.24977592  0.95337616  0.72198204
   0.99984612  0.40807509  0.77767724
   0.00057451  0.44484722  0.66657068
   0.24951062  0.63913441  0.83335990
   0.74976410  0.21291290  0.61131276
   0.00123244  0.77750331  0.66675892
   0.24981463  0.82419287  0.27787219
   0.49921610  0.77812761  0.66632592
   0.50039648  0.74101011  0.77799603
   0.49961187  0.99884502  0.00020925
   0.50018019  0.07402668  0.77771020
   0.49998553  0.38865607  0.33350028
   0.00032032  0.92600454  0.22227583
   0.24911680  0.62062335  0.38924640
   0.49958214  0.66699700  0.00009621
   0.75027631  0.54711976  0.61084672
   0.75044206  0.87936447  0.61099059
   0.00020895  0.12951703  0.11064209
   0.24978244  0.97191868  0.83327210
   0.50091830  0.53741676  0.88965471
   0.99977438  0.87158037  0.88940521
   0.24996115  0.49034855  0.27777865
   0.49932172  0.64843571  0.55584123
   0.00061817  0.98157756  0.55566980
   0.50002708  0.44396409  0.66664702
   0.75033506  0.23121259  0.05540640
   0.50010698  0.18537233  0.44429934
   0.75008532  0.82402722  0.27785503
   0.75012042  0.15736873  0.27791346
   0.74989649  0.02762415  0.16652009
   0.99994881  0.53727745  0.88870233
   0.74858472  0.95469577  0.38904184
   0.50007465  0.86979331  0.88960418
   0.49984622  0.33398601 -0.00001194
   0.50027798  0.20382293  0.88896662
   0.00042892  0.72254939  0.33348658
   0.74923593  0.28680986  0.38920399
   0.49905075  0.85300343  0.44450071
   0.75047247  0.10189217  0.94441807
   0.75029444  0.95426852  0.72222256
   0.24955179  0.62022844  0.72187034
   0.24927061  0.95412154  0.38946399
   0.00048412  0.31485641  0.55582723
   0.49985817  0.12931005  0.11073992
   0.74950566  0.62025320  0.38901338
   0.74989740  0.76849183  0.94423989
   0.75022894  0.75022787  0.49986806
   0.24989517  0.30546280  0.83335507
   0.00073197  0.05531375  0.33332414
   0.50055529  0.59241390  0.22192072
   0.74981024  0.41642362  0.49997382
   0.50030633  0.40724060  0.77789458
   0.00030115  0.38875597  0.33332978
   0.25006595  0.36114717  0.16666462
   0.00045932  0.64811100  0.55569946
   0.74995897  0.49092435  0.27782790
   0.00340421  0.85211044  0.44433795
   0.99920445  0.20147064  0.88890214
   0.49981687  0.46351160  0.11084458
   0.25293316  0.08152060  0.49917682
   0.49758329  0.31346050  0.55567656
   0.25146827  0.28718787  0.72285639
   0.74988949  0.08315485  0.49996503
   0.99998007  0.00008007  0.99982532
   0.75036008  0.63922133  0.83372545
   0.75136949  0.28568544  0.72294655
   0.25013305  0.75122342  0.49987756
   0.25045806  0.76784644  0.94425391
   0.24927900  0.41521061  0.49945148
   0.00092896  0.33329209 -0.00002594
   0.99992977  0.79607067  0.11139155
   0.74872147  0.89922267  0.05574670
   0.50059382  0.05559727  0.33372472
   0.50088101  0.52019951  0.44396288
   0.74958925  0.30511949  0.83316606
   0.75005035  0.96949144  0.83346019
   0.00031881  0.59258040  0.22201885
   0.99868386  0.11022808  0.66706894
   0.74986852  0.56503242  0.05552698
   0.49967079  0.92561467  0.22224873
   0.74988295  0.36140548  0.16653114
   0.49572253  0.98256097  0.55527380
   0.25110623  0.89824592  0.05529159
   0.00126089  0.18486747  0.44427962
   0.25001601  0.02776995  0.16667484
   0.24836089  0.54928444  0.61063571
   0.25076309  0.21245480  0.61046120
   0.74754952  0.43557898  0.94452076
   0.25005873  0.56482815  0.05535490
   0.24941840  0.10178361  0.94481214
   0.25027455  0.69442612  0.16667689
   0.24944113  0.15831365  0.27779284
   0.99996294  0.73990786  0.77782331
   0.24935849  0.28631414  0.38956482
   0.99953975  0.07432735  0.77769073
   0.24980698  0.43552020  0.94484922
   0.74994366  0.69425696  0.16652675
   0.49965470  0.11209984  0.66653799
Direct configuration=    98
   0.49945717  0.25930319  0.22218441
   0.00070118  0.25910403  0.22229695
   0.24956005  0.23118446  0.05522187
   0.49996588  0.79602807  0.11062505
   0.00004795  0.46314434  0.11075956
   0.00148144  0.51889289  0.44418704
   0.25047156  0.87924021  0.61086857
   0.00060889  0.66660452  0.00005642
   0.75069806  0.62021065  0.72233708
   0.49987171  0.72231701  0.33324883
   0.24977592  0.95337616  0.72198204
   0.99984612  0.40807509  0.77767724
   0.00057451  0.44484722  0.66657068
   0.24951062  0.63913441  0.83335990
   0.74976410  0.21291290  0.61131276
   0.00123244  0.77750331  0.66675892
   0.24981463  0.82419287  0.27787219
   0.49921610  0.77812761  0.66632592
   0.50039648  0.74101011  0.77799603
   0.49961187  0.99884502  0.00020925
   0.50018019  0.07402668  0.77771020
   0.49998553  0.38865607  0.33350028
   0.00032032  0.92600454  0.22227583
   0.24911680  0.62062335  0.38924640
   0.49958214  0.66699700  0.00009621
   0.75027631  0.54711976  0.61084672
   0.75044206  0.87936447  0.61099059
   0.00020895  0.12951703  0.11064209
   0.24978244  0.97191868  0.83327210
   0.50091830  0.53741676  0.88965471
   0.99977438  0.87158037  0.88940521
   0.24996115  0.49034855  0.27777865
   0.49932172  0.64843571  0.55584123
   0.00061817  0.98157756  0.55566980
   0.50002708  0.44396409  0.66664702
   0.75033506  0.23121259  0.05540640
   0.50010698  0.18537233  0.44429934
   0.75008532  0.82402722  0.27785503
   0.75012042  0.15736873  0.27791346
   0.74989649  0.02762415  0.16652009
   0.99994881  0.53727745  0.88870233
   0.74858472  0.95469577  0.38904184
   0.50007465  0.86979331  0.88960418
   0.49984622  0.33398601 -0.00001194
   0.50027798  0.20382293  0.88896662
   0.00042892  0.72254939  0.33348658
   0.74923593  0.28680986  0.38920399
   0.49905075  0.85300343  0.44450071
   0.75047247  0.10189217  0.94441807
   0.75029444  0.95426852  0.72222256
   0.24955179  0.62022844  0.72187034
   0.24927061  0.95412154  0.38946399
   0.00048412  0.31485641  0.55582723
   0.49985817  0.12931005  0.11073992
   0.74950566  0.62025320  0.38901338
   0.74989740  0.76849183  0.94423989
   0.75022894  0.75022787  0.49986806
   0.24989517  0.30546280  0.83335507
   0.00073197  0.05531375  0.33332414
   0.50055529  0.59241390  0.22192072
   0.74981024  0.41642362  0.49997382
   0.50030633  0.40724060  0.77789458
   0.00030115  0.38875597  0.33332978
   0.25006595  0.36114717  0.16666462
   0.00045932  0.64811100  0.55569946
   0.74995897  0.49092435  0.27782790
   0.00340421  0.85211044  0.44433795
   0.99920445  0.20147064  0.88890214
   0.49981687  0.46351160  0.11084458
   0.25293316  0.08152060  0.49917682
   0.49758329  0.31346050  0.55567656
   0.25146827  0.28718787  0.72285639
   0.74988949  0.08315485  0.49996503
   0.99998007  0.00008007  0.99982532
   0.75036008  0.63922133  0.83372545
   0.75136949  0.28568544  0.72294655
   0.25013305  0.75122342  0.49987756
   0.25045806  0.76784644  0.94425391
   0.24927900  0.41521061  0.49945148
   0.00092896  0.33329209 -0.00002594
   0.99992977  0.79607067  0.11139155
   0.74872147  0.89922267  0.05574670
   0.50059382  0.05559727  0.33372472
   0.50088101  0.52019951  0.44396288
   0.74958925  0.30511949  0.83316606
   0.75005035  0.96949144  0.83346019
   0.00031881  0.59258040  0.22201885
   0.99868386  0.11022808  0.66706894
   0.74986852  0.56503242  0.05552698
   0.49967079  0.92561467  0.22224873
   0.74988295  0.36140548  0.16653114
   0.49572253  0.98256097  0.55527380
   0.25110623  0.89824592  0.05529159
   0.00126089  0.18486747  0.44427962
   0.25001601  0.02776995  0.16667484
   0.24836089  0.54928444  0.61063571
   0.25076309  0.21245480  0.61046120
   0.74754952  0.43557898  0.94452076
   0.25005873  0.56482815  0.05535490
   0.24941840  0.10178361  0.94481214
   0.25027455  0.69442612  0.16667689
   0.24944113  0.15831365  0.27779284
   0.99996294  0.73990786  0.77782331
   0.24935849  0.28631414  0.38956482
   0.99953975  0.07432735  0.77769073
   0.24980698  0.43552020  0.94484922
   0.74994366  0.69425696  0.16652675
   0.49965470  0.11209984  0.66653799
Direct configuration=    99
   0.49945717  0.25930319  0.22218441
   0.00070118  0.25910403  0.22229695
   0.24956005  0.23118446  0.05522187
   0.49996588  0.79602807  0.11062505
   0.00004795  0.46314434  0.11075956
   0.00148144  0.51889289  0.44418704
   0.25047156  0.87924021  0.61086857
   0.00060889  0.66660452  0.00005642
   0.75069806  0.62021065  0.72233708
   0.49987171  0.72231701  0.33324883
   0.24977592  0.95337616  0.72198204
   0.99984612  0.40807509  0.77767724
   0.00057451  0.44484722  0.66657068
   0.24951062  0.63913441  0.83335990
   0.74976410  0.21291290  0.61131276
   0.00123244  0.77750331  0.66675892
   0.24981463  0.82419287  0.27787219
   0.49921610  0.77812761  0.66632592
   0.50039648  0.74101011  0.77799603
   0.49961187  0.99884502  0.00020925
   0.50018019  0.07402668  0.77771020
   0.49998553  0.38865607  0.33350028
   0.00032032  0.92600454  0.22227583
   0.24911680  0.62062335  0.38924640
   0.49958214  0.66699700  0.00009621
   0.75027631  0.54711976  0.61084672
   0.75044206  0.87936447  0.61099059
   0.00020895  0.12951703  0.11064209
   0.24978244  0.97191868  0.83327210
   0.50091830  0.53741676  0.88965471
   0.99977438  0.87158037  0.88940521
   0.24996115  0.49034855  0.27777865
   0.49932172  0.64843571  0.55584123
   0.00061817  0.98157756  0.55566980
   0.50002708  0.44396409  0.66664702
   0.75033506  0.23121259  0.05540640
   0.50010698  0.18537233  0.44429934
   0.75008532  0.82402722  0.27785503
   0.75012042  0.15736873  0.27791346
   0.74989649  0.02762415  0.16652009
   0.99994881  0.53727745  0.88870233
   0.74858472  0.95469577  0.38904184
   0.50007465  0.86979331  0.88960418
   0.49984622  0.33398601 -0.00001194
   0.50027798  0.20382293  0.88896662
   0.00042892  0.72254939  0.33348658
   0.74923593  0.28680986  0.38920399
   0.49905075  0.85300343  0.44450071
   0.75047247  0.10189217  0.94441807
   0.75029444  0.95426852  0.72222256
   0.24955179  0.62022844  0.72187034
   0.24927061  0.95412154  0.38946399
   0.00048412  0.31485641  0.55582723
   0.49985817  0.12931005  0.11073992
   0.74950566  0.62025320  0.38901338
   0.74989740  0.76849183  0.94423989
   0.75022894  0.75022787  0.49986806
   0.24989517  0.30546280  0.83335507
   0.00073197  0.05531375  0.33332414
   0.50055529  0.59241390  0.22192072
   0.74981024  0.41642362  0.49997382
   0.50030633  0.40724060  0.77789458
   0.00030115  0.38875597  0.33332978
   0.25006595  0.36114717  0.16666462
   0.00045932  0.64811100  0.55569946
   0.74995897  0.49092435  0.27782790
   0.00340421  0.85211044  0.44433795
   0.99920445  0.20147064  0.88890214
   0.49981687  0.46351160  0.11084458
   0.25293316  0.08152060  0.49917682
   0.49758329  0.31346050  0.55567656
   0.25146827  0.28718787  0.72285639
   0.74988949  0.08315485  0.49996503
   0.99998007  0.00008007  0.99982532
   0.75036008  0.63922133  0.83372545
   0.75136949  0.28568544  0.72294655
   0.25013305  0.75122342  0.49987756
   0.25045806  0.76784644  0.94425391
   0.24927900  0.41521061  0.49945148
   0.00092896  0.33329209 -0.00002594
   0.99992977  0.79607067  0.11139155
   0.74872147  0.89922267  0.05574670
   0.50059382  0.05559727  0.33372472
   0.50088101  0.52019951  0.44396288
   0.74958925  0.30511949  0.83316606
   0.75005035  0.96949144  0.83346019
   0.00031881  0.59258040  0.22201885
   0.99868386  0.11022808  0.66706894
   0.74986852  0.56503242  0.05552698
   0.49967079  0.92561467  0.22224873
   0.74988295  0.36140548  0.16653114
   0.49572253  0.98256097  0.55527380
   0.25110623  0.89824592  0.05529159
   0.00126089  0.18486747  0.44427962
   0.25001601  0.02776995  0.16667484
   0.24836089  0.54928444  0.61063571
   0.25076309  0.21245480  0.61046120
   0.74754952  0.43557898  0.94452076
   0.25005873  0.56482815  0.05535490
   0.24941840  0.10178361  0.94481214
   0.25027455  0.69442612  0.16667689
   0.24944113  0.15831365  0.27779284
   0.99996294  0.73990786  0.77782331
   0.24935849  0.28631414  0.38956482
   0.99953975  0.07432735  0.77769073
   0.24980698  0.43552020  0.94484922
   0.74994366  0.69425696  0.16652675
   0.49965470  0.11209984  0.66653799
Direct configuration=   100
   0.49945717  0.25930319  0.22218441
   0.00070118  0.25910403  0.22229695
   0.24956005  0.23118446  0.05522187
   0.49996588  0.79602807  0.11062505
   0.00004795  0.46314434  0.11075956
   0.00148144  0.51889289  0.44418704
   0.25047156  0.87924021  0.61086857
   0.00060889  0.66660452  0.00005642
   0.75069806  0.62021065  0.72233708
   0.49987171  0.72231701  0.33324883
   0.24977592  0.95337616  0.72198204
   0.99984612  0.40807509  0.77767724
   0.00057451  0.44484722  0.66657068
   0.24951062  0.63913441  0.83335990
   0.74976410  0.21291290  0.61131276
   0.00123244  0.77750331  0.66675892
   0.24981463  0.82419287  0.27787219
   0.49921610  0.77812761  0.66632592
   0.50039648  0.74101011  0.77799603
   0.49961187  0.99884502  0.00020925
   0.50018019  0.07402668  0.77771020
   0.49998553  0.38865607  0.33350028
   0.00032032  0.92600454  0.22227583
   0.24911680  0.62062335  0.38924640
   0.49958214  0.66699700  0.00009621
   0.75027631  0.54711976  0.61084672
   0.75044206  0.87936447  0.61099059
   0.00020895  0.12951703  0.11064209
   0.24978244  0.97191868  0.83327210
   0.50091830  0.53741676  0.88965471
   0.99977438  0.87158037  0.88940521
   0.24996115  0.49034855  0.27777865
   0.49932172  0.64843571  0.55584123
   0.00061817  0.98157756  0.55566980
   0.50002708  0.44396409  0.66664702
   0.75033506  0.23121259  0.05540640
   0.50010698  0.18537233  0.44429934
   0.75008532  0.82402722  0.27785503
   0.75012042  0.15736873  0.27791346
   0.74989649  0.02762415  0.16652009
   0.99994881  0.53727745  0.88870233
   0.74858472  0.95469577  0.38904184
   0.50007465  0.86979331  0.88960418
   0.49984622  0.33398601 -0.00001194
   0.50027798  0.20382293  0.88896662
   0.00042892  0.72254939  0.33348658
   0.74923593  0.28680986  0.38920399
   0.49905075  0.85300343  0.44450071
   0.75047247  0.10189217  0.94441807
   0.75029444  0.95426852  0.72222256
   0.24955179  0.62022844  0.72187034
   0.24927061  0.95412154  0.38946399
   0.00048412  0.31485641  0.55582723
   0.49985817  0.12931005  0.11073992
   0.74950566  0.62025320  0.38901338
   0.74989740  0.76849183  0.94423989
   0.75022894  0.75022787  0.49986806
   0.24989517  0.30546280  0.83335507
   0.00073197  0.05531375  0.33332414
   0.50055529  0.59241390  0.22192072
   0.74981024  0.41642362  0.49997382
   0.50030633  0.40724060  0.77789458
   0.00030115  0.38875597  0.33332978
   0.25006595  0.36114717  0.16666462
   0.00045932  0.64811100  0.55569946
   0.74995897  0.49092435  0.27782790
   0.00340421  0.85211044  0.44433795
   0.99920445  0.20147064  0.88890214
   0.49981687  0.46351160  0.11084458
   0.25293316  0.08152060  0.49917682
   0.49758329  0.31346050  0.55567656
   0.25146827  0.28718787  0.72285639
   0.74988949  0.08315485  0.49996503
   0.99998007  0.00008007  0.99982532
   0.75036008  0.63922133  0.83372545
   0.75136949  0.28568544  0.72294655
   0.25013305  0.75122342  0.49987756
   0.25045806  0.76784644  0.94425391
   0.24927900  0.41521061  0.49945148
   0.00092896  0.33329209 -0.00002594
   0.99992977  0.79607067  0.11139155
   0.74872147  0.89922267  0.05574670
   0.50059382  0.05559727  0.33372472
   0.50088101  0.52019951  0.44396288
   0.74958925  0.30511949  0.83316606
   0.75005035  0.96949144  0.83346019
   0.00031881  0.59258040  0.22201885
   0.99868386  0.11022808  0.66706894
   0.74986852  0.56503242  0.05552698
   0.49967079  0.92561467  0.22224873
   0.74988295  0.36140548  0.16653114
   0.49572253  0.98256097  0.55527380
   0.25110623  0.89824592  0.05529159
   0.00126089  0.18486747  0.44427962
   0.25001601  0.02776995  0.16667484
   0.24836089  0.54928444  0.61063571
   0.25076309  0.21245480  0.61046120
   0.74754952  0.43557898  0.94452076
   0.25005873  0.56482815  0.05535490
   0.24941840  0.10178361  0.94481214
   0.25027455  0.69442612  0.16667689
   0.24944113  0.15831365  0.27779284
   0.99996294  0.73990786  0.77782331
   0.24935849  0.28631414  0.38956482
   0.99953975  0.07432735  0.77769073
   0.24980698  0.43552020  0.94484922
   0.74994366  0.69425696  0.16652675
   0.49965470  0.11209984  0.66653799
