Ta32 Ti34 Nb32 W10                      
   1.00000000000000     
     9.1216997255111210    0.0000000000000000    0.0000000000000000
     0.0000000000000000    8.3788097184575001    0.0000000000000000
     0.0000000000000000   -3.2584285291815278   23.6988662189480195
   Ta   Ti   Nb   W 
    32    34    32    10
Selective dynamics
Direct
  0.4994571676000206  0.3086775434688320  0.2216878253773158   F   F   T
  0.0007011838891344  0.3085033926615992  0.2216013412940651   F   F   T
  0.2495600548973158  0.2434559946094055  0.0555198815178925   F   F   T
  0.4999658814041439  0.8206114309797883  0.1106008123144831   F   F   T
  0.0000479543384628  0.4877575913423016  0.1109868623523241   F   F   T
  0.0014814358292270  0.6176012018217421  0.4437648216463702   F   F   T
  0.2504715557544870  0.0149888871202677  0.6109368604865000   F   F   T
  0.0006088878015333  0.6666170614607054  0.0003029372981066   F   F   T
  0.7506980600066626  0.7807301269068603  0.7223480681542023   F   F   T
  0.4998717066019083  0.7963723591682950  0.3332965390269461   F   F   T
  0.2497759176542687  0.1138167345164405  0.7223315476086259   F   F   T
  0.9998461222754713  0.5808923938463835  0.7774956392629248   F   F   T
  0.0005745086022202  0.5929741556344439  0.6668896984510627   F   F   T
  0.2495106240223279  0.7132144475314348  0.8329674538646246   F   F   T
  0.7497640967820587  0.3487602859547181  0.6110558473265615   F   F   T
  0.0012324422402941  0.9256720706708634  0.6671368112714301   F   F   T
  0.2498146343417176  0.8859422950695759  0.2771458122715146   F   F   T
  0.4992161048643524  0.9262001514405540  0.6663642608384391   F   F   T
  0.5003964755988406  0.9138982450129163  0.7781409115014297   F   F   T
  0.4996118710759134  0.9988915210772191  0.0004341386294361   F   F   T
  0.5001801896752340  0.2468513063042010  0.7778955373039173   F   F   T
  0.4999855333282923  0.4627673019212608  0.3334318680618411   F   F   T
  0.0003203214657930  0.9753992041133870  0.2213183457221377   F   F   T
  0.2491167970940609  0.7071226161519704  0.3891348032640502   F   F   T
  0.4995821383535883  0.6670183833692889  0.0006695544667299   F   F   T
  0.7502763096117064  0.6828635860292778  0.6108417651178805   F   F   T
  0.7504420632422253  0.0151402615586775  0.6109279231422459   F   F   T
  0.0002089534286114  0.1541041783254684  0.1107097576721310   F   F   T
  0.2497824446881296  0.0459792006608168  0.8329360154748321   F   F   T
  0.5009183035403240  0.5128955691515173  0.8892950167279239   F   F   T
  0.9997743751242751  0.8470037266812156  0.8892055525754017   F   F   T
  0.2499611531302293  0.5520771825857338  0.2779274346256628   F   F   T
  0.4993217237138055  0.7719560803919236  0.5556917693845295   F   F   T
  0.0006181661184712  0.1050598306841124  0.5554523015915359   F   F   T
  0.5000270802090654  0.5921079918249887  0.6666843063619783   F   F   T
  0.7503350559090833  0.2435251324986965  0.0556021574395834   F   F   T
  0.5001069796275743  0.2841055924261298  0.4442470392354186   F   F   T
  0.7500853215986609  0.8857728278021426  0.2781757751292310   F   F   T
  0.7501204241673207  0.2191273292685239  0.2781917268464827   F   F   T
  0.7498964864102220  0.0646286483212535  0.1664337872213557   F   F   T
  0.9999488100767664  0.5125446101296802  0.8883889635299590   F   F   T
  0.7485847158406287  0.0411495826909416  0.3887364729710606   F   F   T
  0.5000746504558933  0.8452608851705534  0.8895018557217887   F   F   T
  0.4998462243517281  0.3339833603793494  0.0001349996539622   F   F   T
  0.5002779828903812  0.1791488239639918  0.8888308985317459   F   F   T
  0.0004289236194879  0.7966575791972588  0.3334968482996767   F   F   T
  0.7492359320902082  0.3732996982911558  0.3888433914521570   F   F   T
  0.4990507496593892  0.9517814385564449  0.4445588540752352   F   F   T
  0.7504724678271089  0.0895406159422194  0.9444387264678811   F   F   T
  0.7502944376332223  0.1147625500026095  0.7223262498219327   F   F   T
  0.2495517935165452  0.7806441962688666  0.7220736936516556   F   F   T
  0.2492706110137775  0.0406691585444889  0.3892947604031661   F   F   T
  0.0004841176504584  0.4383736679961743  0.5558314451567908   F   F   T
  0.4998581739266967  0.1539189399095733  0.1107987155837557   F   F   T
  0.7495056616346218  0.7067006826298439  0.3886314322183119   F   F   T
  0.7498974037428923  0.7561006823556511  0.9444730536928629   F   F   T
  0.7502289433568023  0.8613097466881641  0.4996626329356783   F   F   T
  0.2498951653222576  0.3795417604616063  0.8330985804939107   F   F   T
  0.0007319690377372  0.1293858411625664  0.3331453314086167   F   F   T
  0.5005552856449071  0.6417296488928201  0.2215530500443757   F   F   T
  0.7498102399859761  0.5275289946334141  0.4997927716355189   F   F   T
  0.5003063270432619  0.5801061999634953  0.7779375206609588   F   F   T
  0.0003011545578602  0.4628293130472940  0.3333152939889447   F   F   T
  0.2500659537346763  0.3981837829082977  0.1665111948275186   F   F   T
  0.0004593157160002  0.7715998690404788  0.5557106643210433   F   F   T
  0.7499589664007402  0.5526639286250798  0.2782756240906684   F   F   T
  0.0034042081272148  0.9508522884124133  0.4443577262569304   F   F   T
  0.9992044502014608  0.1767822032958648  0.8886997408329952   F   F   T
  0.4998168687279900  0.4881437529578463  0.1110945334803298   F   F   T
  0.2529331584649555  0.1924488699090219  0.4990459752387211   F   F   T
  0.4975832870308210  0.4369442729911697  0.5556401948659234   F   F   T
  0.2514682671844923  0.4478227525684844  0.7230951007239228   F   F   T
  0.7498894854668166  0.1942582736505045  0.4999024785707234   F   F   T
  0.9999800691477887  0.0000412491116464  0.0001886769027575   F   F   T
  0.7503600807643522  0.7133826023399408  0.8335568734049402   F   F   T
  0.7513694862986284  0.4463403500431156  0.7231585308791522   F   F   T
  0.2501330520519929  0.8623074110641582  0.4998488832034265   F   F   T
  0.2504580636488072  0.7554584104824897  0.9444774113775410   F   F   T
  0.2492790023416731  0.5261999140725564  0.4994624710879121   F   F   T
  0.0009289644364827  0.3332863305896510  0.0002814247999816   F   F   T
  0.9999297653457830  0.8208243699973821  0.1137221750778337   F   F   T
  0.7487214725870288  0.9116108309520357  0.0565636586744805   F   F   T
  0.5005938200933713  0.1297583770095514  0.3331354099768740   F   F   T
  0.5008810097877685  0.6188580086832260  0.4440058043093856   F   F   T
  0.7495892499497998  0.3791564526165843  0.8330990124778099   F   F   T
  0.7500503501359645  0.0435937617017785  0.8335921213294581   F   F   T
  0.0003188102599410  0.6419179646480231  0.2212600174003496   F   F   T
  0.9986838604704076  0.2584657354562481  0.6673011762427835   F   F   T
  0.7498685242076348  0.5773717622363250  0.0565506723840751   F   F   T
  0.4996707942471517  0.9750033120437678  0.2219588222672317   F   F   T
  0.7498829497651229  0.3984124299987712  0.1664026087555250   F   F   T
  0.4957225303476420  0.1059552474444345  0.5552593782555391   F   F   T
  0.2511062279074494  0.9105329523463581  0.0563219943396844   F   F   T
  0.0012608868751300  0.2835963521532179  0.4442563815743536   F   F   T
  0.2500160050277884  0.0648088364124888  0.1667844500910972   F   F   T
  0.2483608885329858  0.6849813702903731  0.6104673400828990   F   F   T
  0.2507630857270939  0.3481129504306466  0.6105092012513840   F   F   T
  0.7475495221513739  0.4232502526282218  0.9445302528075423   F   F   T
  0.2500587314067104  0.5771292517333251  0.0554963169629293   F   F   T
  0.2494184020951380  0.0895196334349748  0.9450458529083851   F   F   T
  0.2502745500970818  0.7314654521388704  0.1664154199659066   F   F   T
  0.2494411266852055  0.2200454355732901  0.2772993801503508   F   F   T
  0.9999629411264692  0.9127576200005336  0.7774157380253636   F   F   T
  0.2493584891262870  0.3728841725631682  0.3893008472682444   F   F   T
  0.9995397471666081  0.2471476436398490  0.7778416240997197   F   F   T
  0.2498069767961155  0.4232644583639100  0.9452758019113666   F   F   T
  0.7499436562060993  0.7312629318574437  0.1660217080781329   F   F   T
  0.4996546992342843  0.2602195061024020  0.6662108287182238   F   F   T
 
  0.00000000E+00  0.00000000E+00  0.00000000E+00
  0.00000000E+00  0.00000000E+00  0.00000000E+00
  0.00000000E+00  0.00000000E+00  0.00000000E+00
  0.00000000E+00  0.00000000E+00  0.00000000E+00
  0.00000000E+00  0.00000000E+00  0.00000000E+00
  0.00000000E+00  0.00000000E+00  0.00000000E+00
  0.00000000E+00  0.00000000E+00  0.00000000E+00
  0.00000000E+00  0.00000000E+00  0.00000000E+00
  0.00000000E+00  0.00000000E+00  0.00000000E+00
  0.00000000E+00  0.00000000E+00  0.00000000E+00
  0.00000000E+00  0.00000000E+00  0.00000000E+00
  0.00000000E+00  0.00000000E+00  0.00000000E+00
  0.00000000E+00  0.00000000E+00  0.00000000E+00
  0.00000000E+00  0.00000000E+00  0.00000000E+00
  0.00000000E+00  0.00000000E+00  0.00000000E+00
  0.00000000E+00  0.00000000E+00  0.00000000E+00
  0.00000000E+00  0.00000000E+00  0.00000000E+00
  0.00000000E+00  0.00000000E+00  0.00000000E+00
  0.00000000E+00  0.00000000E+00  0.00000000E+00
  0.00000000E+00  0.00000000E+00  0.00000000E+00
  0.00000000E+00  0.00000000E+00  0.00000000E+00
  0.00000000E+00  0.00000000E+00  0.00000000E+00
  0.00000000E+00  0.00000000E+00  0.00000000E+00
  0.00000000E+00  0.00000000E+00  0.00000000E+00
  0.00000000E+00  0.00000000E+00  0.00000000E+00
  0.00000000E+00  0.00000000E+00  0.00000000E+00
  0.00000000E+00  0.00000000E+00  0.00000000E+00
  0.00000000E+00  0.00000000E+00  0.00000000E+00
  0.00000000E+00  0.00000000E+00  0.00000000E+00
  0.00000000E+00  0.00000000E+00  0.00000000E+00
  0.00000000E+00  0.00000000E+00  0.00000000E+00
  0.00000000E+00  0.00000000E+00  0.00000000E+00
  0.00000000E+00  0.00000000E+00  0.00000000E+00
  0.00000000E+00  0.00000000E+00  0.00000000E+00
  0.00000000E+00  0.00000000E+00  0.00000000E+00
  0.00000000E+00  0.00000000E+00  0.00000000E+00
  0.00000000E+00  0.00000000E+00  0.00000000E+00
  0.00000000E+00  0.00000000E+00  0.00000000E+00
  0.00000000E+00  0.00000000E+00  0.00000000E+00
  0.00000000E+00  0.00000000E+00  0.00000000E+00
  0.00000000E+00  0.00000000E+00  0.00000000E+00
  0.00000000E+00  0.00000000E+00  0.00000000E+00
  0.00000000E+00  0.00000000E+00  0.00000000E+00
  0.00000000E+00  0.00000000E+00  0.00000000E+00
  0.00000000E+00  0.00000000E+00  0.00000000E+00
  0.00000000E+00  0.00000000E+00  0.00000000E+00
  0.00000000E+00  0.00000000E+00  0.00000000E+00
  0.00000000E+00  0.00000000E+00  0.00000000E+00
  0.00000000E+00  0.00000000E+00  0.00000000E+00
  0.00000000E+00  0.00000000E+00  0.00000000E+00
  0.00000000E+00  0.00000000E+00  0.00000000E+00
  0.00000000E+00  0.00000000E+00  0.00000000E+00
  0.00000000E+00  0.00000000E+00  0.00000000E+00
  0.00000000E+00  0.00000000E+00  0.00000000E+00
  0.00000000E+00  0.00000000E+00  0.00000000E+00
  0.00000000E+00  0.00000000E+00  0.00000000E+00
  0.00000000E+00  0.00000000E+00  0.00000000E+00
  0.00000000E+00  0.00000000E+00  0.00000000E+00
  0.00000000E+00  0.00000000E+00  0.00000000E+00
  0.00000000E+00  0.00000000E+00  0.00000000E+00
  0.00000000E+00  0.00000000E+00  0.00000000E+00
  0.00000000E+00  0.00000000E+00  0.00000000E+00
  0.00000000E+00  0.00000000E+00  0.00000000E+00
  0.00000000E+00  0.00000000E+00  0.00000000E+00
  0.00000000E+00  0.00000000E+00  0.00000000E+00
  0.00000000E+00  0.00000000E+00  0.00000000E+00
  0.00000000E+00  0.00000000E+00  0.00000000E+00
  0.00000000E+00  0.00000000E+00  0.00000000E+00
  0.00000000E+00  0.00000000E+00  0.00000000E+00
  0.00000000E+00  0.00000000E+00  0.00000000E+00
  0.00000000E+00  0.00000000E+00  0.00000000E+00
  0.00000000E+00  0.00000000E+00  0.00000000E+00
  0.00000000E+00  0.00000000E+00  0.00000000E+00
  0.00000000E+00  0.00000000E+00  0.00000000E+00
  0.00000000E+00  0.00000000E+00  0.00000000E+00
  0.00000000E+00  0.00000000E+00  0.00000000E+00
  0.00000000E+00  0.00000000E+00  0.00000000E+00
  0.00000000E+00  0.00000000E+00  0.00000000E+00
  0.00000000E+00  0.00000000E+00  0.00000000E+00
  0.00000000E+00  0.00000000E+00  0.00000000E+00
  0.00000000E+00  0.00000000E+00  0.00000000E+00
  0.00000000E+00  0.00000000E+00  0.00000000E+00
  0.00000000E+00  0.00000000E+00  0.00000000E+00
  0.00000000E+00  0.00000000E+00  0.00000000E+00
  0.00000000E+00  0.00000000E+00  0.00000000E+00
  0.00000000E+00  0.00000000E+00  0.00000000E+00
  0.00000000E+00  0.00000000E+00  0.00000000E+00
  0.00000000E+00  0.00000000E+00  0.00000000E+00
  0.00000000E+00  0.00000000E+00  0.00000000E+00
  0.00000000E+00  0.00000000E+00  0.00000000E+00
  0.00000000E+00  0.00000000E+00  0.00000000E+00
  0.00000000E+00  0.00000000E+00  0.00000000E+00
  0.00000000E+00  0.00000000E+00  0.00000000E+00
  0.00000000E+00  0.00000000E+00  0.00000000E+00
  0.00000000E+00  0.00000000E+00  0.00000000E+00
  0.00000000E+00  0.00000000E+00  0.00000000E+00
  0.00000000E+00  0.00000000E+00  0.00000000E+00
  0.00000000E+00  0.00000000E+00  0.00000000E+00
  0.00000000E+00  0.00000000E+00  0.00000000E+00
  0.00000000E+00  0.00000000E+00  0.00000000E+00
  0.00000000E+00  0.00000000E+00  0.00000000E+00
  0.00000000E+00  0.00000000E+00  0.00000000E+00
  0.00000000E+00  0.00000000E+00  0.00000000E+00
  0.00000000E+00  0.00000000E+00  0.00000000E+00
  0.00000000E+00  0.00000000E+00  0.00000000E+00
  0.00000000E+00  0.00000000E+00  0.00000000E+00
  0.00000000E+00  0.00000000E+00  0.00000000E+00
  0.00000000E+00  0.00000000E+00  0.00000000E+00
