       N       E                     dE             d eps       ncg     rms          rms(c)
DAV:   1    -0.393968955316E+05   -0.39397E+05   -0.91363E+05 33648   0.209E+03
DAV:   2    -0.583636649605E+05   -0.18967E+05   -0.18090E+05 37152   0.111E+03
DAV:   3    -0.611832328049E+05   -0.28196E+04   -0.26600E+04 38400   0.443E+02
DAV:   4    -0.621220795286E+05   -0.93885E+03   -0.87161E+03 38400   0.233E+02
DAV:   5    -0.626415940667E+05   -0.51951E+03   -0.49353E+03 38400   0.160E+02    0.130E+04
DAV:   6    -0.219496669604E+05    0.40692E+05   -0.22029E+05 33936   0.784E+02    0.125E+04
DAV:   7    -0.133182288736E+05    0.86314E+04   -0.22587E+05 37584   0.960E+02    0.553E+03
DAV:   8    -0.180264241144E+05   -0.47082E+04   -0.32566E+05 38400   0.107E+03    0.481E+03
DAV:   9    -0.392059952774E+04    0.14106E+05   -0.15856E+05 36768   0.689E+02    0.423E+03
DAV:  10    -0.457823602000E+04   -0.65764E+03   -0.50017E+04 34464   0.362E+02    0.404E+03
DAV:  11    -0.345467600348E+04    0.11236E+04   -0.12180E+04 35424   0.203E+02    0.418E+03
DAV:  12    -0.524672095821E+04   -0.17920E+04   -0.70504E+03 32688   0.119E+02    0.428E+03
DAV:  13    -0.533611763080E+04   -0.89397E+02   -0.23138E+03 33552   0.722E+01    0.431E+03
DAV:  14    -0.615043009415E+04   -0.81431E+03   -0.19762E+03 35904   0.822E+01    0.417E+03
DAV:  15    -0.655589686615E+04   -0.40547E+03   -0.35296E+03 34560   0.849E+01    0.406E+03
DAV:  16    -0.679005115281E+04   -0.23415E+03   -0.12101E+03 33600   0.387E+01    0.442E+03
DAV:  17    -0.680450110016E+04   -0.14450E+02   -0.10107E+02 36384   0.125E+01    0.445E+03
DAV:  18    -0.678183869115E+04    0.22662E+02   -0.12379E+01 36912   0.468E+00    0.446E+03
DAV:  19    -0.669163517612E+04    0.90204E+02   -0.26931E+01 35184   0.766E+00    0.447E+03
DAV:  20    -0.663099651175E+04    0.60639E+02   -0.23364E+01 37200   0.704E+00    0.450E+03
DAV:  21    -0.660488959683E+04    0.26107E+02   -0.75190E+01 30000   0.164E+01    0.443E+03
DAV:  22    -0.662788685241E+04   -0.22997E+02   -0.49508E+01 36000   0.101E+01    0.439E+03
DAV:  23    -0.662019260057E+04    0.76943E+01   -0.38758E+00 34272   0.302E+00    0.440E+03
DAV:  24    -0.662959054942E+04   -0.93979E+01   -0.63555E+00 29904   0.398E+00    0.442E+03
DAV:  25    -0.658669876229E+04    0.42892E+02   -0.18787E+02 28848   0.247E+01    0.467E+03
DAV:  26    -0.656625699933E+04    0.20442E+02   -0.35716E+01 33072   0.843E+00    0.466E+03
DAV:  27    -0.655406065886E+04    0.12196E+02   -0.31567E+01 31488   0.105E+01    0.458E+03
DAV:  28    -0.635633233674E+04    0.19773E+03   -0.25333E+02 25440   0.202E+01    0.446E+03
DAV:  29    -0.636080711727E+04   -0.44748E+01   -0.14045E+03 27168   0.867E+01    0.459E+03
DAV:  30    -0.625240291490E+04    0.10840E+03   -0.24169E+02 31056   0.207E+01
   1 F= -.62524029E+04 E0= -.62523664E+04  d E =-.625240E+04
       N       E                     dE             d eps       ncg     rms          rms(c)
DAV:   1    -0.606645747222E+04    0.29435E+03   -0.60036E+02 29232   0.464E+01    0.453E+03
DAV:   2    -0.245964198859E+05   -0.18530E+05   -0.37214E+05 35520   0.472E+02    0.236E+03
DAV:   3    -0.194636435574E+05    0.51328E+04   -0.53619E+05 38064   0.101E+03    0.341E+03
DAV:   4    -0.315625846643E+04    0.16307E+05   -0.11154E+05 36048   0.604E+02    0.180E+03
DAV:   5    -0.376557590226E+04   -0.60932E+03   -0.49563E+04 34656   0.457E+02    0.168E+03
DAV:   6    -0.160223212634E+05   -0.12257E+05   -0.23415E+05 35520   0.450E+02    0.193E+03
DAV:   7    -0.158128757575E+05    0.20945E+03   -0.25884E+04 32736   0.364E+02    0.233E+03
DAV:   8    -0.159595956661E+05   -0.14672E+03   -0.48135E+03 34656   0.123E+02    0.286E+03
DAV:   9    -0.150669449226E+05    0.89265E+03   -0.60336E+02 37008   0.457E+01    0.292E+03
DAV:  10    -0.165930854040E+05   -0.15261E+04   -0.28444E+04 34176   0.311E+02    0.252E+03
DAV:  11    -0.882801857527E+04    0.77651E+04   -0.51446E+04 36576   0.294E+02    0.403E+03
DAV:  12    -0.101987092363E+05   -0.13707E+04   -0.25209E+04 34368   0.270E+02    0.282E+03
DAV:  13    -0.757453152413E+04    0.26242E+04   -0.25688E+04 35472   0.232E+02    0.166E+03
DAV:  14    -0.705675478399E+04    0.51778E+03   -0.27977E+04 33648   0.296E+02    0.109E+03
DAV:  15    -0.361574366196E+04    0.34410E+04   -0.11760E+04 32112   0.161E+02    0.972E+02
DAV:  16    -0.332183892101E+04    0.29390E+03   -0.63276E+03 31776   0.172E+02    0.950E+02
DAV:  17    -0.278500208130E+04    0.53684E+03   -0.13274E+03 33168   0.461E+01    0.922E+02
DAV:  18    -0.295508970179E+04   -0.17009E+03   -0.62098E+02 29136   0.522E+01    0.914E+02
DAV:  19    -0.225958477005E+04    0.69550E+03   -0.25388E+03 33888   0.813E+01    0.850E+02
DAV:  20    -0.200683126420E+04    0.25275E+03   -0.78893E+02 32160   0.334E+01    0.830E+02
DAV:  21    -0.196095603605E+04    0.45875E+02   -0.19271E+03 33168   0.677E+01    0.748E+02
DAV:  22    -0.162133861499E+04    0.33962E+03   -0.11462E+03 33744   0.514E+01    0.683E+02
DAV:  23    -0.167685132897E+04   -0.55513E+02   -0.57255E+02 32544   0.380E+01    0.654E+02
DAV:  24    -0.167443212026E+04    0.24192E+01   -0.43662E+02 32352   0.282E+01    0.585E+02
DAV:  25    -0.162592790873E+04    0.48504E+02   -0.42309E+02 29088   0.392E+01    0.512E+02
DAV:  26    -0.164681303386E+04   -0.20885E+02   -0.48065E+02 27552   0.468E+01    0.416E+02
DAV:  27    -0.161781985188E+04    0.28993E+02   -0.48779E+02 28800   0.437E+01    0.346E+02
DAV:  28    -0.158433028018E+04    0.33490E+02   -0.28806E+02 32208   0.292E+01    0.338E+02
DAV:  29    -0.155169770335E+04    0.32633E+02   -0.63361E+01 32976   0.137E+01    0.321E+02
DAV:  30    -0.146615562639E+04    0.85542E+02   -0.15284E+02 30336   0.196E+01
   2 F= -.14661556E+04 E0= -.14660985E+04  d E =0.478625E+04
       N       E                     dE             d eps       ncg     rms          rms(c)
DAV:   1    -0.139712695965E+04    0.15457E+03   -0.11879E+02 28848   0.166E+01    0.261E+02
DAV:   2    -0.810712321732E+04   -0.67100E+04   -0.77105E+04 34560   0.292E+02    0.527E+02
DAV:   3    -0.102718509522E+04    0.70799E+04   -0.15247E+04 30912   0.263E+02    0.194E+02
DAV:   4    -0.219446792320E+04   -0.11673E+04   -0.31228E+04 34752   0.123E+02    0.235E+02
DAV:   5    -0.144664409584E+04    0.74782E+03   -0.17261E+04 31392   0.244E+02    0.144E+02
DAV:   6    -0.288327178174E+04   -0.14366E+04   -0.19554E+04 36192   0.188E+02    0.167E+02
DAV:   7    -0.112972108314E+04    0.17536E+04   -0.81762E+03 31824   0.115E+02    0.101E+02
DAV:   8    -0.120153530914E+04   -0.71814E+02   -0.32959E+03 31152   0.758E+01    0.794E+01
DAV:   9    -0.117378813862E+04    0.27747E+02   -0.69525E+02 32352   0.340E+01    0.742E+01
DAV:  10    -0.115947982533E+04    0.14308E+02   -0.13693E+02 28704   0.170E+01    0.702E+01
DAV:  11    -0.114278682216E+04    0.16693E+02   -0.55968E+01 29040   0.112E+01    0.635E+01
DAV:  12    -0.112398619728E+04    0.18801E+02   -0.49874E+01 27312   0.114E+01    0.557E+01
DAV:  13    -0.111060674020E+04    0.13379E+02   -0.48178E+01 27840   0.114E+01    0.487E+01
DAV:  14    -0.111286095311E+04   -0.22542E+01   -0.36064E+01 27120   0.104E+01    0.470E+01
DAV:  15    -0.111007038267E+04    0.27906E+01   -0.17899E+01 28224   0.698E+00    0.439E+01
DAV:  16    -0.110985240994E+04    0.21797E+00   -0.15900E+01 27840   0.622E+00    0.399E+01
DAV:  17    -0.110607354013E+04    0.37789E+01   -0.69782E+00 28080   0.415E+00    0.354E+01
DAV:  18    -0.110406418381E+04    0.20094E+01   -0.96620E+00 28896   0.503E+00    0.313E+01
DAV:  19    -0.110003944248E+04    0.40247E+01   -0.28363E+00 28944   0.277E+00    0.265E+01
DAV:  20    -0.109924537935E+04    0.79406E+00   -0.17961E+00 26928   0.207E+00    0.252E+01
DAV:  21    -0.109784125729E+04    0.14041E+01   -0.78502E-01 27936   0.138E+00    0.233E+01
DAV:  22    -0.109673432896E+04    0.11069E+01   -0.46303E-01 28320   0.105E+00    0.215E+01
DAV:  23    -0.109549308027E+04    0.12412E+01   -0.70659E-01 29424   0.133E+00    0.186E+01
DAV:  24    -0.109322440085E+04    0.22687E+01   -0.24410E+00 26928   0.255E+00    0.124E+01
DAV:  25    -0.109208892874E+04    0.11355E+01   -0.23485E+00 27696   0.232E+00    0.687E+00
DAV:  26    -0.109185748437E+04    0.23144E+00   -0.13211E+00 28368   0.177E+00    0.281E+00
DAV:  27    -0.109184559465E+04    0.11890E-01   -0.59601E-01 28464   0.116E+00    0.190E+00
DAV:  28    -0.109181797659E+04    0.27618E-01   -0.35440E-01 28128   0.919E-01    0.138E+00
DAV:  29    -0.109180257410E+04    0.15402E-01   -0.18772E-01 27504   0.714E-01    0.829E-01
DAV:  30    -0.109180363848E+04   -0.10644E-02   -0.12580E-01 28128   0.552E-01
   3 F= -.10918036E+04 E0= -.10916996E+04  d E =0.516060E+04
       N       E                     dE             d eps       ncg     rms          rms(c)
DAV:   1    -0.109179564871E+04    0.69254E-02   -0.72034E-02 28320   0.425E-01    0.444E-01
DAV:   2    -0.109183664891E+04   -0.41000E-01   -0.17873E-01 26880   0.697E-01    0.139E+00
DAV:   3    -0.109182704133E+04    0.96076E-02   -0.20695E-01 30192   0.803E-01    0.116E+00
DAV:   4    -0.109179349762E+04    0.33544E-01   -0.96910E-02 26880   0.535E-01    0.308E-01
DAV:   5    -0.109179990103E+04   -0.64034E-02   -0.29470E-02 28512   0.284E-01    0.560E-01
DAV:   6    -0.109179391766E+04    0.59834E-02   -0.27153E-02 27456   0.284E-01    0.262E-01
DAV:   7    -0.109179413913E+04   -0.22146E-03   -0.91986E-03 27792   0.151E-01    0.233E-01
DAV:   8    -0.109179339526E+04    0.74387E-03   -0.52707E-03 28320   0.139E-01    0.153E-01
DAV:   9    -0.109179311217E+04    0.28309E-03   -0.27658E-03 27456   0.876E-02    0.100E-01
DAV:  10    -0.109179300360E+04    0.10856E-03   -0.12088E-03 27264   0.557E-02    0.592E-02
DAV:  11    -0.109179298807E+04    0.15537E-04   -0.54352E-04 27408   0.365E-02    0.482E-02
DAV:  12    -0.109179296187E+04    0.26192E-04   -0.24556E-04 27168   0.257E-02    0.280E-02
DAV:  13    -0.109179295808E+04    0.37925E-05   -0.10295E-04 26352   0.186E-02    0.233E-02
DAV:  14    -0.109179295188E+04    0.62044E-05   -0.60974E-05 25824   0.136E-02    0.121E-02
DAV:  15    -0.109179295094E+04    0.93947E-06   -0.25874E-05 25536   0.870E-03    0.105E-02
DAV:  16    -0.109179294949E+04    0.14500E-05   -0.12306E-05 23136   0.572E-03    0.544E-03
DAV:  17    -0.109179294913E+04    0.36322E-06   -0.39227E-06 19104   0.328E-03
   4 F= -.10917929E+04 E0= -.10916888E+04  d E =0.516061E+04
       N       E                     dE             d eps       ncg     rms          rms(c)
DAV:   1    -0.109179494668E+04   -0.19972E-02   -0.38407E-02 22848   0.333E-01    0.435E-02
DAV:   2    -0.109179560731E+04   -0.66063E-03   -0.31835E-03 26160   0.114E-01    0.140E-01
DAV:   3    -0.109179529512E+04    0.31219E-03   -0.19501E-03 27792   0.838E-02    0.845E-02
DAV:   4    -0.109179515396E+04    0.14116E-03   -0.61939E-04 28656   0.458E-02    0.388E-02
DAV:   5    -0.109179525333E+04   -0.99374E-04   -0.39930E-04 29088   0.341E-02    0.712E-02
DAV:   6    -0.109179514073E+04    0.11260E-03   -0.30668E-04 27120   0.314E-02    0.245E-02
DAV:   7    -0.109179513920E+04    0.15284E-05   -0.65443E-05 27120   0.130E-02    0.219E-02
DAV:   8    -0.109179514141E+04   -0.22064E-05   -0.59932E-05 27936   0.137E-02    0.212E-02
DAV:   9    -0.109179513569E+04    0.57129E-05   -0.50047E-05 28368   0.112E-02    0.114E-02
DAV:  10    -0.109179513408E+04    0.16115E-05   -0.15461E-05 23712   0.722E-03    0.777E-03
DAV:  11    -0.109179513354E+04    0.54233E-06   -0.82349E-06 21552   0.485E-03
   5 F= -.10917951E+04 E0= -.10916910E+04  d E =0.516061E+04
       N       E                     dE             d eps       ncg     rms          rms(c)
DAV:   1    -0.109179614138E+04   -0.10073E-02   -0.96348E-03 22848   0.167E-01    0.222E-02
DAV:   2    -0.109179630372E+04   -0.16234E-03   -0.79369E-04 25632   0.571E-02    0.697E-02
DAV:   3    -0.109179623147E+04    0.72254E-04   -0.49922E-04 28032   0.424E-02    0.438E-02
DAV:   4    -0.109179619343E+04    0.38034E-04   -0.16315E-04 28320   0.236E-02    0.197E-02
DAV:   5    -0.109179621928E+04   -0.25846E-04   -0.10365E-04 26880   0.175E-02    0.363E-02
DAV:   6    -0.109179618987E+04    0.29411E-04   -0.80350E-05 24672   0.160E-02    0.125E-02
DAV:   7    -0.109179618942E+04    0.44828E-06   -0.17645E-05 23760   0.667E-03    0.111E-02
DAV:   8    -0.109179618943E+04   -0.10194E-07   -0.13737E-05 23808   0.656E-03    0.918E-03
DAV:   9    -0.109179618858E+04    0.84770E-06   -0.11548E-05 23376   0.546E-03    0.592E-03
DAV:  10    -0.109179618798E+04    0.60747E-06   -0.33227E-06 17520   0.364E-03
   6 F= -.10917962E+04 E0= -.10916920E+04  d E =0.516061E+04
       N       E                     dE             d eps       ncg     rms          rms(c)
DAV:   1    -0.109179669582E+04   -0.50723E-03   -0.24076E-03 22896   0.834E-02    0.111E-02
DAV:   2    -0.109179673400E+04   -0.38181E-04   -0.19051E-04 25488   0.281E-02    0.331E-02
DAV:   3    -0.109179671689E+04    0.17110E-04   -0.11495E-04 27744   0.206E-02    0.207E-02
DAV:   4    -0.109179670899E+04    0.79004E-05   -0.38749E-05 25728   0.113E-02    0.102E-02
DAV:   5    -0.109179671553E+04   -0.65429E-05   -0.26305E-05 21456   0.888E-03    0.184E-02
DAV:   6    -0.109179670785E+04    0.76752E-05   -0.20221E-05 19104   0.828E-03    0.612E-03
DAV:   7    -0.109179670782E+04    0.32916E-07   -0.43860E-06 19056   0.370E-03    0.572E-03
DAV:   8    -0.109179670773E+04    0.91590E-07   -0.28401E-06 17232   0.362E-03    0.432E-03
DAV:   9    -0.109179670760E+04    0.12925E-06   -0.20082E-06 15456   0.307E-03    0.305E-03
DAV:  10    -0.109179670749E+04    0.11345E-06   -0.76711E-07 12480   0.232E-03
   7 F= -.10917967E+04 E0= -.10916925E+04  d E =0.516061E+04
       N       E                     dE             d eps       ncg     rms          rms(c)
DAV:   1    -0.109179696102E+04   -0.25342E-03   -0.60206E-04 22944   0.417E-02    0.563E-03
DAV:   2    -0.109179697045E+04   -0.94358E-05   -0.48411E-05 25776   0.140E-02    0.165E-02
DAV:   3    -0.109179696650E+04    0.39520E-05   -0.28539E-05 22992   0.103E-02    0.109E-02
DAV:   4    -0.109179696425E+04    0.22495E-05   -0.10265E-05 20400   0.583E-03    0.493E-03
DAV:   5    -0.109179696610E+04   -0.18477E-05   -0.64792E-06 14784   0.479E-03    0.940E-03
DAV:   6    -0.109179696403E+04    0.20739E-05   -0.53336E-06 13200   0.470E-03    0.298E-03
DAV:   7    -0.109179696400E+04    0.22243E-07   -0.80181E-07 12960   0.202E-03    0.271E-03
DAV:   8    -0.109179696397E+04    0.31767E-07   -0.54463E-07 12480   0.182E-03    0.208E-03
DAV:   9    -0.109179696397E+04    0.48676E-08   -0.38839E-07 12480   0.151E-03    0.152E-03
DAV:  10    -0.109179696396E+04    0.99390E-08   -0.21996E-07 12480   0.116E-03
   8 F= -.10917970E+04 E0= -.10916928E+04  d E =0.516061E+04
       N       E                     dE             d eps       ncg     rms          rms(c)
DAV:   1    -0.109179709091E+04   -0.12694E-03   -0.15001E-04 22896   0.208E-02    0.274E-03
DAV:   2    -0.109179709330E+04   -0.23843E-05   -0.11822E-05 24672   0.695E-03    0.830E-03
DAV:   3    -0.109179709202E+04    0.12790E-05   -0.62017E-06 14064   0.507E-03    0.428E-03
DAV:   4    -0.109179709172E+04    0.29476E-06   -0.17954E-06 14256   0.279E-03    0.258E-03
DAV:   5    -0.109179709217E+04   -0.45203E-06   -0.18375E-06 12480   0.258E-03    0.461E-03
DAV:   6    -0.109179709167E+04    0.50530E-06   -0.12920E-06 12480   0.240E-03    0.126E-03
DAV:   7    -0.109179709168E+04   -0.14341E-07   -0.21200E-07 12480   0.101E-03    0.142E-03
DAV:   8    -0.109179709167E+04    0.13555E-07   -0.16331E-07 12480   0.988E-04    0.100E-03
DAV:   9    -0.109179709168E+04   -0.68758E-08   -0.10967E-07 12480   0.773E-04    0.825E-04
DAV:  10    -0.109179709168E+04    0.14988E-08   -0.74401E-08 12480   0.640E-04
   9 F= -.10917971E+04 E0= -.10916929E+04  d E =0.516061E+04
       N       E                     dE             d eps       ncg     rms          rms(c)
DAV:   1    -0.109179715521E+04   -0.63536E-04   -0.37594E-05 22992   0.104E-02    0.141E-03
DAV:   2    -0.109179715578E+04   -0.56591E-06   -0.27694E-06 16416   0.353E-03    0.404E-03
DAV:   3    -0.109179715552E+04    0.26257E-06   -0.16746E-06 12480   0.277E-03    0.247E-03
DAV:   4    -0.109179715541E+04    0.10824E-06   -0.49310E-07 12480   0.152E-03    0.119E-03
DAV:   5    -0.109179715553E+04   -0.12620E-06   -0.46766E-07 12480   0.129E-03    0.238E-03
DAV:   6    -0.109179715540E+04    0.13185E-06   -0.36745E-07 12480   0.125E-03    0.684E-04
DAV:   7    -0.109179715541E+04   -0.44893E-08   -0.72482E-08 12480   0.565E-04    0.755E-04
DAV:   8    -0.109179715540E+04    0.53915E-08   -0.50878E-08 12480   0.540E-04    0.476E-04
DAV:   9    -0.109179715541E+04   -0.41327E-08   -0.34742E-08 12480   0.392E-04    0.423E-04
DAV:  10    -0.109179715541E+04   -0.16007E-09   -0.24207E-08 12480   0.350E-04
  10 F= -.10917972E+04 E0= -.10916930E+04  d E =0.516061E+04
       N       E                     dE             d eps       ncg     rms          rms(c)
DAV:   1    -0.109179718718E+04   -0.31774E-04   -0.94170E-06 22896   0.521E-03    0.718E-04
DAV:   2    -0.109179718731E+04   -0.13575E-06   -0.65544E-07 13392   0.176E-03    0.201E-03
DAV:   3    -0.109179718725E+04    0.64480E-07   -0.44329E-07 12480   0.147E-03    0.116E-03
DAV:   4    -0.109179718723E+04    0.21711E-07   -0.13272E-07 12480   0.819E-04    0.618E-04
DAV:   5    -0.109179718726E+04   -0.33775E-07   -0.13583E-07 12480   0.717E-04    0.124E-03
DAV:   6    -0.109179718722E+04    0.37318E-07   -0.99187E-08 12480   0.658E-04    0.315E-04
DAV:   7    -0.109179718723E+04   -0.13461E-08   -0.21166E-08 12480   0.292E-04    0.383E-04
DAV:   8    -0.109179718723E+04    0.13169E-08   -0.15916E-08 12480   0.293E-04    0.234E-04
DAV:   9    -0.109179718723E+04   -0.70577E-09   -0.10719E-08 12480   0.206E-04    0.222E-04
DAV:  10    -0.109179718723E+04   -0.11132E-08   -0.82753E-09 12480   0.192E-04
  11 F= -.10917972E+04 E0= -.10916930E+04  d E =0.516061E+04
       N       E                     dE             d eps       ncg     rms          rms(c)
DAV:   1    -0.109179720311E+04   -0.15881E-04   -0.22674E-06 16512   0.261E-03    0.373E-04
DAV:   2    -0.109179720314E+04   -0.34954E-07   -0.21185E-07 12480   0.104E-03    0.974E-04
DAV:   3    -0.109179720313E+04    0.98371E-08   -0.13001E-07 12480   0.842E-04    0.647E-04
DAV:   4    -0.109179720313E+04    0.39654E-08   -0.48594E-08 12480   0.499E-04    0.364E-04
DAV:   5    -0.109179720313E+04   -0.62282E-08   -0.37677E-08 12480   0.401E-04    0.607E-04
DAV:   6    -0.109179720313E+04    0.70140E-08   -0.29760E-08 12480   0.363E-04    0.221E-04
DAV:   7    -0.109179720313E+04    0.56752E-09   -0.83916E-09 12480   0.179E-04    0.203E-04
DAV:   8    -0.109179720313E+04   -0.40745E-09   -0.54690E-09 12480   0.146E-04    0.144E-04
DAV:   9    -0.109179720313E+04   -0.86584E-09   -0.43395E-09 12480   0.117E-04    0.113E-04
DAV:  10    -0.109179720313E+04   -0.21828E-10   -0.38148E-09 12480   0.108E-04
  12 F= -.10917972E+04 E0= -.10916930E+04  d E =0.516061E+04
       N       E                     dE             d eps       ncg     rms          rms(c)
DAV:   1    -0.109179721107E+04   -0.79384E-05   -0.52032E-07 13296   0.130E-03    0.385E-04
DAV:   2    -0.109179721108E+04   -0.11249E-07   -0.86989E-08 12480   0.728E-04    0.481E-04
DAV:   3    -0.109179721109E+04   -0.16218E-07   -0.94335E-08 12480   0.645E-04    0.818E-04
DAV:   4    -0.109179721108E+04    0.17259E-07   -0.53832E-08 12480   0.509E-04    0.321E-04
DAV:   5    -0.109179721108E+04   -0.24811E-08   -0.19091E-08 12480   0.271E-04    0.404E-04
DAV:   6    -0.109179721107E+04    0.43292E-08   -0.14940E-08 12480   0.252E-04    0.149E-04
DAV:   7    -0.109179721108E+04   -0.12515E-08   -0.46151E-09 12480   0.123E-04    0.154E-04
DAV:   8    -0.109179721108E+04    0.61118E-09   -0.33659E-09 12480   0.105E-04    0.938E-05
DAV:   9    -0.109179721108E+04   -0.96770E-09   -0.26338E-09 12480   0.687E-05    0.818E-05
DAV:  10    -0.109179721108E+04    0.66211E-09   -0.23229E-09 12480   0.708E-05
  13 F= -.10917972E+04 E0= -.10916930E+04  d E =0.516061E+04
       N       E                     dE             d eps       ncg     rms          rms(c)
DAV:   1    -0.109179721505E+04   -0.39701E-05   -0.12340E-07 12480   0.650E-04    0.252E-04
DAV:   2    -0.109179721505E+04   -0.33178E-08   -0.29574E-08 12480   0.435E-04    0.322E-04
DAV:   3    -0.109179721506E+04   -0.10390E-07   -0.43194E-08 12480   0.424E-04    0.621E-04
DAV:   4    -0.109179721505E+04    0.92768E-08   -0.30427E-08 12480   0.370E-04    0.241E-04
DAV:   5    -0.109179721505E+04    0.10405E-08   -0.77064E-09 12480   0.169E-04    0.215E-04
DAV:   6    -0.109179721505E+04    0.00000E+00   -0.57981E-09 12480   0.139E-04    0.101E-04
DAV:   7    -0.109179721505E+04    0.12078E-08   -0.26767E-09 12480   0.754E-05    0.940E-05
DAV:   8    -0.109179721505E+04   -0.61118E-09   -0.21795E-09 12480   0.580E-05    0.654E-05
DAV:   9    -0.109179721505E+04    0.10186E-09   -0.19363E-09 12384   0.435E-05    0.606E-05
DAV:  10    -0.109179721505E+04    0.18917E-09   -0.18571E-09 12336   0.431E-05
  14 F= -.10917972E+04 E0= -.10916930E+04  d E =0.516061E+04
       N       E                     dE             d eps       ncg     rms          rms(c)
DAV:   1    -0.109179721704E+04   -0.19871E-05   -0.31986E-08 12336   0.324E-04    0.119E-04
DAV:   2    -0.109179721704E+04    0.87311E-10   -0.82421E-09 12336   0.209E-04    0.145E-04
DAV:   3    -0.109179721704E+04   -0.20736E-08   -0.10959E-08 12336   0.201E-04    0.291E-04
DAV:   4    -0.109179721704E+04    0.16589E-08   -0.76137E-09 12336   0.170E-04    0.992E-05
DAV:   5    -0.109179721704E+04   -0.26921E-09   -0.27644E-09 12336   0.737E-05    0.949E-05
DAV:   6    -0.109179721704E+04    0.76398E-09   -0.26270E-09 12336   0.699E-05    0.624E-05
DAV:   7    -0.109179721704E+04   -0.64756E-09   -0.18745E-09 12336   0.436E-05    0.516E-05
DAV:   8    -0.109179721704E+04    0.77853E-09   -0.16979E-09 12336   0.324E-05    0.369E-05
DAV:   9    -0.109179721704E+04   -0.10623E-08   -0.17150E-09 12336   0.231E-05    0.298E-05
DAV:  10    -0.109179721704E+04   -0.18190E-09   -0.16825E-09 12240   0.212E-05
  15 F= -.10917972E+04 E0= -.10916930E+04  d E =0.516061E+04
       N       E                     dE             d eps       ncg     rms          rms(c)
DAV:   1    -0.109179721803E+04   -0.99252E-06   -0.92449E-09 12192   0.163E-04    0.594E-05
DAV:   2    -0.109179721803E+04    0.48021E-09   -0.33364E-09 12192   0.105E-04    0.730E-05
DAV:   3    -0.109179721803E+04   -0.95315E-09   -0.38735E-09 12192   0.100E-04    0.146E-04
DAV:   4    -0.109179721803E+04   -0.94587E-10   -0.29589E-09 12192   0.848E-05    0.420E-05
DAV:   5    -0.109179721803E+04    0.36380E-10   -0.16905E-09 12192   0.322E-05    0.291E-05
DAV:   6    -0.109179721803E+04    0.94587E-10   -0.18032E-09 12192   0.344E-05    0.544E-05
DAV:   7    -0.109179721803E+04    0.70577E-09   -0.18116E-09 12192   0.297E-05    0.232E-05
DAV:   8    -0.109179721803E+04   -0.32742E-09   -0.15775E-09 12192   0.146E-05    0.179E-05
DAV:   9    -0.109179721803E+04    0.92405E-09   -0.15344E-09 12096   0.121E-05    0.159E-05
DAV:  10    -0.109179721803E+04   -0.28376E-09   -0.16245E-09 12048   0.968E-06
  16 F= -.10917972E+04 E0= -.10916931E+04  d E =0.516061E+04
       N       E                     dE             d eps       ncg     rms          rms(c)
DAV:   1    -0.109179721853E+04   -0.49851E-06   -0.35114E-09 12048   0.813E-05    0.295E-05
DAV:   2    -0.109179721853E+04    0.98225E-09   -0.21399E-09 12048   0.560E-05    0.456E-05
DAV:   3    -0.109179721853E+04   -0.10186E-09   -0.21888E-09 12048   0.519E-05    0.688E-05
DAV:   4    -0.109179721853E+04    0.23283E-09   -0.18800E-09 12048   0.421E-05    0.306E-05
DAV:   5    -0.109179721853E+04   -0.13824E-09   -0.16813E-09 12048   0.221E-05    0.308E-05
DAV:   6    -0.109179721853E+04   -0.93132E-09   -0.15862E-09 12048   0.193E-05    0.134E-05
DAV:   7    -0.109179721853E+04    0.12296E-08   -0.15888E-09 11952   0.101E-05    0.141E-05
DAV:   8    -0.109179721853E+04   -0.99681E-09   -0.15613E-09 11808   0.856E-06    0.929E-06
DAV:   9    -0.109179721853E+04   -0.45111E-09   -0.15938E-09 11760   0.602E-06    0.918E-06
DAV:  10    -0.109179721853E+04    0.20373E-09   -0.15908E-09 11760   0.623E-06
  17 F= -.10917972E+04 E0= -.10916931E+04  d E =0.516061E+04
       N       E                     dE             d eps       ncg     rms          rms(c)
DAV:   1    -0.109179721877E+04   -0.24734E-06   -0.20729E-09 11760   0.406E-05    0.154E-05
DAV:   2    -0.109179721877E+04   -0.13097E-09   -0.16631E-09 11760   0.264E-05    0.187E-05
DAV:   3    -0.109179721877E+04    0.00000E+00   -0.16571E-09 11760   0.254E-05    0.375E-05
DAV:   4    -0.109179721877E+04    0.23283E-09   -0.17290E-09 11760   0.220E-05    0.115E-05
DAV:   5    -0.109179721877E+04   -0.31287E-09   -0.16160E-09 11760   0.819E-06    0.606E-06
DAV:   6    -0.109179721877E+04    0.93860E-09   -0.16566E-09 11760   0.727E-06    0.112E-05
DAV:   7    -0.109179721877E+04   -0.86584E-09   -0.16480E-09 11760   0.669E-06    0.552E-06
DAV:   8    -0.109179721877E+04    0.98953E-09   -0.15898E-09 11760   0.382E-06    0.456E-06
DAV:   9    -0.109179721877E+04   -0.32014E-09   -0.15728E-09 11760   0.295E-06    0.367E-06
DAV:  10    -0.109179721877E+04    0.32742E-09   -0.15672E-09 11760   0.248E-06
  18 F= -.10917972E+04 E0= -.10916931E+04  d E =0.516061E+04
       N       E                     dE             d eps       ncg     rms          rms(c)
DAV:   1    -0.109179721890E+04   -0.12537E-06   -0.17158E-09 11760   0.202E-05    0.742E-06
DAV:   2    -0.109179721890E+04    0.37835E-09   -0.15297E-09 11760   0.138E-05    0.109E-05
DAV:   3    -0.109179721890E+04    0.23283E-09   -0.15733E-09 11760   0.130E-05    0.180E-05
DAV:   4    -0.109179721890E+04    0.14552E-09   -0.16514E-09 11760   0.106E-05    0.636E-06
DAV:   5    -0.109179721890E+04   -0.24011E-09   -0.16435E-09 11760   0.543E-06    0.817E-06
DAV:   6    -0.109179721890E+04   -0.26193E-09   -0.15232E-09 11760   0.498E-06    0.331E-06
DAV:   7    -0.109179721890E+04    0.79308E-09   -0.15235E-09 11760   0.254E-06    0.360E-06
DAV:   8    -0.109179721890E+04   -0.11350E-08   -0.15446E-09 11664   0.225E-06    0.233E-06
DAV:   9    -0.109179721890E+04    0.21828E-10   -0.15524E-09 11616   0.135E-06    0.215E-06
DAV:  10    -0.109179721890E+04   -0.24011E-09   -0.16085E-09 11616   0.144E-06
  19 F= -.10917972E+04 E0= -.10916931E+04  d E =0.516061E+04
       N       E                     dE             d eps       ncg     rms          rms(c)
DAV:   1    -0.109163524978E+04    0.16197E+00   -0.36775E+01 21216   0.103E+01    0.147E+00
DAV:   2    -0.109231477756E+04   -0.67953E+00   -0.31322E+00 24144   0.361E+00    0.449E+00
DAV:   3    -0.109197515960E+04    0.33962E+00   -0.19724E+00 29232   0.279E+00    0.270E+00
DAV:   4    -0.109183856411E+04    0.13660E+00   -0.67390E-01 29040   0.150E+00    0.139E+00
DAV:   5    -0.109194270579E+04   -0.10414E+00   -0.43631E-01 30144   0.116E+00    0.237E+00
DAV:   6    -0.109181681349E+04    0.12589E+00   -0.32778E-01 27216   0.101E+00    0.763E-01
DAV:   7    -0.109181760105E+04   -0.78756E-03   -0.61232E-02 28704   0.391E-01    0.751E-01
DAV:   8    -0.109181779767E+04   -0.19662E-03   -0.51169E-02 28272   0.403E-01    0.625E-01
DAV:   9    -0.109181458144E+04    0.32162E-02   -0.48253E-02 29712   0.360E-01    0.447E-01
DAV:  10    -0.109181223299E+04    0.23485E-02   -0.21147E-02 32976   0.259E-01    0.283E-01
DAV:  11    -0.109181144035E+04    0.79264E-03   -0.10169E-02 28560   0.164E-01    0.178E-01
DAV:  12    -0.109181108477E+04    0.35558E-03   -0.31294E-03 28080   0.925E-02    0.109E-01
DAV:  13    -0.109181099540E+04    0.89377E-04   -0.11828E-03 28272   0.556E-02    0.779E-02
DAV:  14    -0.109181097796E+04    0.17434E-04   -0.69827E-04 28368   0.464E-02    0.606E-02
DAV:  15    -0.109181095717E+04    0.20794E-04   -0.55732E-04 29568   0.398E-02    0.474E-02
DAV:  16    -0.109181092319E+04    0.33981E-04   -0.29563E-04 28224   0.285E-02    0.257E-02
DAV:  17    -0.109181091537E+04    0.78153E-05   -0.10571E-04 30480   0.157E-02    0.135E-02
DAV:  18    -0.109181091404E+04    0.13324E-05   -0.30308E-05 26160   0.848E-03    0.944E-03
DAV:  19    -0.109181091306E+04    0.97596E-06   -0.11604E-05 23328   0.564E-03    0.559E-03
DAV:  20    -0.109181091303E+04    0.32960E-07   -0.47737E-06 19824   0.401E-03
  20 F= -.10918109E+04 E0= -.10917070E+04  d E =0.516059E+04
