Ta32 Ti34 Nb32 W10
1.0
   9.1216997255111210    0.0000000000000000    0.0000000000000000
   0.0000000000000000    8.3788097184575001    0.0000000000000000
   0.0000000000000000   -3.2584285291815278   23.6988662189480195
Ta Ti Nb W
32 34 32 10
Selective dynamics
direct
   0.4994571676000188    0.3086775434688306    0.2221844125832531 F F T Ta
   0.0007011838891362    0.3085033926615962    0.2222969547399315 F F T Ta
   0.2495600548973154    0.2434559946094079    0.0552218671863136 F F T Ta
   0.4999658814041453    0.8206114309797871    0.1106250486140423 F F T Ta
   0.0000479543384657    0.4877575913423036    0.1107595639448087 F F T Ta
   0.0014814358292294    0.6176012018217418    0.4441870424789326 F F T Ta
   0.2504715557544857    1.0149888871202659    0.6108685672411065 F F T Ta
   0.0006088878015314    0.6666170614607028    0.0000564157924039 F F T Ta
   0.7506980600066611    0.7807301269068571    0.7223370811846667 F F T Ta
   0.4998717066019089    0.7963723591682982    0.3332488289665618 F F T Ta
   0.2497759176542704    1.1138167345164423    0.7219820401393814 F F T Ta
  -0.0001538777245262    0.5808923938463860    0.7776772436159906 F F T Ta
   0.0005745086022187    0.5929741556344473    0.6665706801487550 F F T Ta
   0.2495106240223294    0.7132144475314321    0.8333599043358833 F F T Ta
   0.7497640967820619    0.3487602859547155    0.6113127594073537 F F T Ta
   0.0012324422402965    0.9256720706708618    0.6667589202653421 F F T Ta
   0.2498146343417189    0.8859422950695789    0.2778721876399691 F F T Ta
   0.4992161048643542    0.9262001514405515    0.6663259174694899 F F T Ta
   0.5003964755988403    0.9138982450129136    0.7779960255058993 F F T Ta
   0.4996118710759145   -0.0011084789227813    0.0002092495871261 F F T Ta
   0.5001801896752340    0.2468513063042009    0.7777102048961968 F F T Ta
   0.4999855333282915    0.4627673019212628    0.3335002845253261 F F T Ta
   0.0003203214657926    0.9753992041133897    0.2222758329792449 F F T Ta
   0.2491167970940612    0.7071226161519738    0.3892463970274340 F F T Ta
   0.4995821383535909    0.6670183833692912    0.0000962085192487 F F T Ta
   0.7502763096117065    0.6828635860292773    0.6108467221356220 F F T Ta
   0.7504420632422223    1.0151402615586806    0.6109905865278420 F F T Ta
   0.0002089534286128    0.1541041783254649    0.1106420942708451 F F T Ta
   0.2497824446881278    0.0459792006608153    0.8332720978506815 F F T Ta
   0.5009183035403245    0.5128955691515169    0.8896547066660992 F F T Ta
  -0.0002256248757224    0.8470037266812184    0.8894052059858858 F F T Ta
   0.2499611531302305    0.5520771825857302    0.2777786518139822 F F T Ta
   0.4993217237138038    0.7719560803919233    0.5558412334762918 F F T Ti
   0.0006181661184688    1.1050598306841113    0.5556698044370203 F F T Ti
   0.5000270802090673    0.5921079918249871    0.6666470210034284 F F T Ti
   0.7503350559090847    0.2435251324986967    0.0554064020510288 F F T Ti
   0.5001069796275747    0.2841055924261300    0.4442993439930025 F F T Ti
   0.7500853215986627    0.8857728278021426    0.2778550345578690 F F T Ti
   0.7501204241673179    0.2191273292685219    0.2779134634888824 F F T Ti
   0.7498964864102219    0.0646286483212553    0.1665200910555622 F F T Ti
  -0.0000511899232333    0.5125446101296837    0.8887023250580404 F F T Ti
   0.7485847158406278    1.0411495826909407    0.3890418402806057 F F T Ti
   0.5000746504558943    0.8452608851705542    0.8896041809652653 F F T Ti
   0.4998462243517314    0.3339833603793465   -0.0000119449792834 F F T Ti
   0.5002779828903824    0.1791488239639946    0.8889666155683655 F F T Ti
   0.0004289236194867    0.7966575791972552    0.3334865845305007 F F T Ti
   0.7492359320902069    0.3732996982911538    0.3892039890393464 F F T Ti
   0.4990507496593882    0.9517814385564431    0.4445007074576243 F F T Ti
   0.7504724678271103    0.0895406159422216    0.9444180717995363 F F T Ti
   0.7502944376332240    1.1147625500026122    0.7222225599458375 F F T Ti
   0.2495517935165419    0.7806441962688664    0.7218703431924005 F F T Ti
   0.2492706110137771    1.0406691585444865    0.3894639861429106 F F T Ti
   0.0004841176504550    0.4383736679961726    0.5558272347654557 F F T Ti
   0.4998581739266997    0.1539189399095752    0.1107399222769636 F F T Ti
   0.7495056616346191    0.7067006826298426    0.3890133779922089 F F T Ti
   0.7498974037428945    0.7561006823556492    0.9442398911268398 F F T Ti
   0.7502289433568059    0.8613097466881621    0.4998680576375514 F F T Ti
   0.2498951653222598    0.3795417604616043    0.8333550674743501 F F T Ti
   0.0007319690377400    0.1293858411625657    0.3333241389969969 F F T Ti
   0.5005552856449084    0.6417296488928231    0.2219207200823024 F F T Ti
   0.7498102399859732    0.5275289946334175    0.4999738191343905 F F T Ti
   0.5003063270432624    0.5801061999634956    0.7778945817211680 F F T Ti
   0.0003011545578601    0.4628293130472906    0.3333297782578192 F F T Ti
   0.2500659537346776    0.3981837829083004    0.1666646156521340 F F T Ti
   0.0004593157159999    0.7715998690404788    0.5556994616071530 F F T Ti
   0.7499589664007379    0.5526639286250797    0.2778279007604584 F F T Ti
   0.0034042081272116    0.9508522884124161    0.4443379516513961 F F T Nb
  -0.0007955497985423    0.1767822032958654    0.8889021362158046 F F T Nb
   0.4998168687279926    0.4881437529578444    0.1108445805938887 F F T Nb
   0.2529331584649590    0.1924488699090220    0.4991768249129459 F F T Nb
   0.4975832870308235    0.4369442729911719    0.5556765570889036 F F T Nb
   0.2514682671844912    0.4478227525684811    0.7228563909179352 F F T Nb
   0.7498894854668198    0.1942582736505047    0.4999650255851756 F F T Nb
  -0.0000199308522110    0.0000412491116486   -0.0001746784517552 F F T Nb
   0.7503600807643558    0.7133826023399438    0.8337254542792184 F F T Nb
   0.7513694862986319    0.4463403500431187    0.7229465459648501 F F T Nb
   0.2501330520519929    0.8623074110641551    0.4998775633385416 F F T Nb
   0.2504580636488039    0.7554584104824889    0.9442539053911181 F F T Nb
   0.2492790023416740    0.5261999140725576    0.4994514799096101 F F T Nb
   0.0009289644364851    0.3332863305896543   -0.0000259359246489 F F T Nb
  -0.0000702346542182    0.8208243699973791    0.1113915522971861 F F T Nb
   0.7487214725870281    0.9116108309520381    0.0557467007561002 F F T Nb
   0.5005938200933709    0.1297583770095487    0.3337247156851078 F F T Nb
   0.5008810097877678    0.6188580086832250    0.4439628845172769 F F T Nb
   0.7495892499498003    0.3791564526165847    0.8331660554124600 F F T Nb
   0.7500503501359642    0.0435937617017808    0.8334601901535476 F F T Nb
   0.0003188102599387    0.6419179646480222    0.2220188481800910 F F T Nb
  -0.0013161395295951    0.2584657354562446    0.6670689401932420 F F T Nb
   0.7498685242076365    0.5773717622363261    0.0555269802144306 F F T Nb
   0.4996707942471540    0.9750033120437708    0.2222487277888263 F F T Nb
   0.7498829497651244    0.3984124299987693    0.1665311362689704 F F T Nb
   0.4957225303476437    1.1059552474444330    0.5552737998694196 F F T Nb
   0.2511062279074470    0.9105329523463562    0.0552915934497340 F F T Nb
   0.0012608868751333    0.2835963521532158    0.4442796182522069 F F T Nb
   0.2500160050277864    0.0648088364124858    0.1666748385297163 F F T Nb
   0.2483608885329880    0.6849813702903758    0.6106357076716401 F F T Nb
   0.2507630857270932    0.3481129504306438    0.6104611992979506 F F T Nb
   0.7475495221513716    0.4232502526282202    0.9445207599043237 F F T Nb
   0.2500587314067091    0.5771292517333251    0.0553548956246068 F F T W
   0.2494184020951366    0.0895196334349730    0.9448121444358643 F F T W
   0.2502745500970799    0.7314654521388672    0.1666768861842307 F F T W
   0.2494411266852071    0.2200454355732903    0.2777928376900672 F F T W
  -0.0000370588735282    0.9127576200005353    0.7778233066028649 F F T W
   0.2493584891262904    0.3728841725631657    0.3895648227731496 F F T W
  -0.0004602528333926    0.2471476436398477    0.7776907264989419 F F T W
   0.2498069767961148    0.4232644583639069    0.9448492218075097 F F T W
   0.7499436562060972    0.7312629318574451    0.1665267452015047 F F T W
   0.4996546992342818    0.2602195061023997    0.6665379891809190 F F T W
