unknown system                          
           1
     9.121700    0.000000    0.000000
     0.000000    8.378810    0.000000
     0.000000   -3.258429   23.698866
   Ta   Ti   Nb   W 
  32  34  32  10
Direct configuration=     1
   0.49945717  0.30867754  0.22218441
   0.00070118  0.30850339  0.22229695
   0.24956005  0.24345599  0.05522187
   0.49996588  0.82061143  0.11062505
   0.00004795  0.48775759  0.11075956
   0.00148144  0.61760120  0.44418704
   0.25047156  0.01498889  0.61086857
   0.00060889  0.66661706  0.00005642
   0.75069806  0.78073013  0.72233708
   0.49987171  0.79637236  0.33324883
   0.24977592  0.11381673  0.72198204
   0.99984612  0.58089239  0.77767724
   0.00057451  0.59297416  0.66657068
   0.24951062  0.71321445  0.83335990
   0.74976410  0.34876029  0.61131276
   0.00123244  0.92567207  0.66675892
   0.24981463  0.88594230  0.27787219
   0.49921610  0.92620015  0.66632592
   0.50039648  0.91389825  0.77799603
   0.49961187  0.99889152  0.00020925
   0.50018019  0.24685131  0.77771020
   0.49998553  0.46276730  0.33350028
   0.00032032  0.97539920  0.22227583
   0.24911680  0.70712262  0.38924640
   0.49958214  0.66701838  0.00009621
   0.75027631  0.68286359  0.61084672
   0.75044206  0.01514026  0.61099059
   0.00020895  0.15410418  0.11064209
   0.24978244  0.04597920  0.83327210
   0.50091830  0.51289557  0.88965471
   0.99977438  0.84700373  0.88940521
   0.24996115  0.55207718  0.27777865
   0.49932172  0.77195608  0.55584123
   0.00061817  0.10505983  0.55566980
   0.50002708  0.59210799  0.66664702
   0.75033506  0.24352513  0.05540640
   0.50010698  0.28410559  0.44429934
   0.75008532  0.88577283  0.27785503
   0.75012042  0.21912733  0.27791346
   0.74989649  0.06462865  0.16652009
   0.99994881  0.51254461  0.88870233
   0.74858472  0.04114958  0.38904184
   0.50007465  0.84526089  0.88960418
   0.49984622  0.33398336  0.99998806
   0.50027798  0.17914882  0.88896662
   0.00042892  0.79665758  0.33348658
   0.74923593  0.37329970  0.38920399
   0.49905075  0.95178144  0.44450071
   0.75047247  0.08954062  0.94441807
   0.75029444  0.11476255  0.72222256
   0.24955179  0.78064420  0.72187034
   0.24927061  0.04066916  0.38946399
   0.00048412  0.43837367  0.55582723
   0.49985817  0.15391894  0.11073992
   0.74950566  0.70670068  0.38901338
   0.74989740  0.75610068  0.94423989
   0.75022894  0.86130975  0.49986806
   0.24989517  0.37954176  0.83335507
   0.00073197  0.12938584  0.33332414
   0.50055529  0.64172965  0.22192072
   0.74981024  0.52752899  0.49997382
   0.50030633  0.58010620  0.77789458
   0.00030115  0.46282931  0.33332978
   0.25006595  0.39818378  0.16666462
   0.00045932  0.77159987  0.55569946
   0.74995897  0.55266393  0.27782790
   0.00340421  0.95085229  0.44433795
   0.99920445  0.17678220  0.88890214
   0.49981687  0.48814375  0.11084458
   0.25293316  0.19244887  0.49917682
   0.49758329  0.43694427  0.55567656
   0.25146827  0.44782275  0.72285639
   0.74988949  0.19425827  0.49996503
   0.99998007  0.00004125  0.99982532
   0.75036008  0.71338260  0.83372545
   0.75136949  0.44634035  0.72294655
   0.25013305  0.86230741  0.49987756
   0.25045806  0.75545841  0.94425391
   0.24927900  0.52619991  0.49945148
   0.00092896  0.33328633  0.99997406
   0.99992977  0.82082437  0.11139155
   0.74872147  0.91161083  0.05574670
   0.50059382  0.12975838  0.33372472
   0.50088101  0.61885801  0.44396288
   0.74958925  0.37915645  0.83316606
   0.75005035  0.04359376  0.83346019
   0.00031881  0.64191796  0.22201885
   0.99868386  0.25846574  0.66706894
   0.74986852  0.57737176  0.05552698
   0.49967079  0.97500331  0.22224873
   0.74988295  0.39841243  0.16653114
   0.49572253  0.10595525  0.55527380
   0.25110623  0.91053295  0.05529159
   0.00126089  0.28359635  0.44427962
   0.25001601  0.06480884  0.16667484
   0.24836089  0.68498137  0.61063571
   0.25076309  0.34811295  0.61046120
   0.74754952  0.42325025  0.94452076
   0.25005873  0.57712925  0.05535490
   0.24941840  0.08951963  0.94481214
   0.25027455  0.73146545  0.16667689
   0.24944113  0.22004544  0.27779284
   0.99996294  0.91275762  0.77782331
   0.24935849  0.37288417  0.38956482
   0.99953975  0.24714764  0.77769073
   0.24980698  0.42326446  0.94484922
   0.74994366  0.73126293  0.16652675
   0.49965470  0.26021951  0.66653799
Direct configuration=     2
   0.49945717  0.30867754  0.22168783
   0.00070118  0.30850339  0.22160134
   0.24956005  0.24345599  0.05551988
   0.49996588  0.82061143  0.11060081
   0.00004795  0.48775759  0.11098686
   0.00148144  0.61760120  0.44376482
   0.25047156  0.01498889  0.61093686
   0.00060889  0.66661706  0.00030294
   0.75069806  0.78073013  0.72234807
   0.49987171  0.79637236  0.33329654
   0.24977592  0.11381673  0.72233155
   0.99984612  0.58089239  0.77749564
   0.00057451  0.59297416  0.66688970
   0.24951062  0.71321445  0.83296745
   0.74976410  0.34876029  0.61105585
   0.00123244  0.92567207  0.66713681
   0.24981463  0.88594230  0.27714581
   0.49921610  0.92620015  0.66636426
   0.50039648  0.91389825  0.77814091
   0.49961187  0.99889152  0.00043414
   0.50018019  0.24685131  0.77789554
   0.49998553  0.46276730  0.33343187
   0.00032032  0.97539920  0.22131835
   0.24911680  0.70712262  0.38913480
   0.49958214  0.66701838  0.00066955
   0.75027631  0.68286359  0.61084177
   0.75044206  0.01514026  0.61092792
   0.00020895  0.15410418  0.11070976
   0.24978244  0.04597920  0.83293602
   0.50091830  0.51289557  0.88929502
   0.99977438  0.84700373  0.88920555
   0.24996115  0.55207718  0.27792743
   0.49932172  0.77195608  0.55569177
   0.00061817  0.10505983  0.55545230
   0.50002708  0.59210799  0.66668431
   0.75033506  0.24352513  0.05560216
   0.50010698  0.28410559  0.44424704
   0.75008532  0.88577283  0.27817577
   0.75012042  0.21912733  0.27819173
   0.74989649  0.06462865  0.16643379
   0.99994881  0.51254461  0.88838896
   0.74858472  0.04114958  0.38873647
   0.50007465  0.84526089  0.88950186
   0.49984622  0.33398336  0.00013500
   0.50027798  0.17914882  0.88883090
   0.00042892  0.79665758  0.33349685
   0.74923593  0.37329970  0.38884339
   0.49905075  0.95178144  0.44455885
   0.75047247  0.08954062  0.94443873
   0.75029444  0.11476255  0.72232625
   0.24955179  0.78064420  0.72207369
   0.24927061  0.04066916  0.38929476
   0.00048412  0.43837367  0.55583145
   0.49985817  0.15391894  0.11079872
   0.74950566  0.70670068  0.38863143
   0.74989740  0.75610068  0.94447305
   0.75022894  0.86130975  0.49966263
   0.24989517  0.37954176  0.83309858
   0.00073197  0.12938584  0.33314533
   0.50055529  0.64172965  0.22155305
   0.74981024  0.52752899  0.49979277
   0.50030633  0.58010620  0.77793752
   0.00030115  0.46282931  0.33331529
   0.25006595  0.39818378  0.16651120
   0.00045932  0.77159987  0.55571066
   0.74995897  0.55266393  0.27827562
   0.00340421  0.95085229  0.44435773
   0.99920445  0.17678220  0.88869974
   0.49981687  0.48814375  0.11109453
   0.25293316  0.19244887  0.49904598
   0.49758329  0.43694427  0.55564019
   0.25146827  0.44782275  0.72309510
   0.74988949  0.19425827  0.49990248
   0.99998007  0.00004125  0.00018868
   0.75036008  0.71338260  0.83355687
   0.75136949  0.44634035  0.72315853
   0.25013305  0.86230741  0.49984888
   0.25045806  0.75545841  0.94447741
   0.24927900  0.52619991  0.49946247
   0.00092896  0.33328633  0.00028142
   0.99992977  0.82082437  0.11372217
   0.74872147  0.91161083  0.05656366
   0.50059382  0.12975838  0.33313541
   0.50088101  0.61885801  0.44400580
   0.74958925  0.37915645  0.83309901
   0.75005035  0.04359376  0.83359212
   0.00031881  0.64191796  0.22126002
   0.99868386  0.25846574  0.66730118
   0.74986852  0.57737176  0.05655067
   0.49967079  0.97500331  0.22195882
   0.74988295  0.39841243  0.16640261
   0.49572253  0.10595525  0.55525938
   0.25110623  0.91053295  0.05632199
   0.00126089  0.28359635  0.44425638
   0.25001601  0.06480884  0.16678445
   0.24836089  0.68498137  0.61046734
   0.25076309  0.34811295  0.61050920
   0.74754952  0.42325025  0.94453025
   0.25005873  0.57712925  0.05549632
   0.24941840  0.08951963  0.94504585
   0.25027455  0.73146545  0.16641542
   0.24944113  0.22004544  0.27729938
   0.99996294  0.91275762  0.77741574
   0.24935849  0.37288417  0.38930085
   0.99953975  0.24714764  0.77784162
   0.24980698  0.42326446  0.94527580
   0.74994366  0.73126293  0.16602171
   0.49965470  0.26021951  0.66621083
Direct configuration=     3
   0.49945717  0.30867754  0.22165382
   0.00070118  0.30850339  0.22155370
   0.24956005  0.24345599  0.05554029
   0.49996588  0.82061143  0.11059915
   0.00004795  0.48775759  0.11100243
   0.00148144  0.61760120  0.44373591
   0.25047156  0.01498889  0.61094154
   0.00060889  0.66661706  0.00031982
   0.75069806  0.78073013  0.72234882
   0.49987171  0.79637236  0.33329981
   0.24977592  0.11381673  0.72235548
   0.99984612  0.58089239  0.77748320
   0.00057451  0.59297416  0.66691155
   0.24951062  0.71321445  0.83294058
   0.74976410  0.34876029  0.61103825
   0.00123244  0.92567207  0.66716269
   0.24981463  0.88594230  0.27709607
   0.49921610  0.92620015  0.66636689
   0.50039648  0.91389825  0.77815083
   0.49961187  0.99889152  0.00044954
   0.50018019  0.24685131  0.77790823
   0.49998553  0.46276730  0.33342718
   0.00032032  0.97539920  0.22125277
   0.24911680  0.70712262  0.38912716
   0.49958214  0.66701838  0.00070882
   0.75027631  0.68286359  0.61084143
   0.75044206  0.01514026  0.61092363
   0.00020895  0.15410418  0.11071439
   0.24978244  0.04597920  0.83291300
   0.50091830  0.51289557  0.88927038
   0.99977438  0.84700373  0.88919188
   0.24996115  0.55207718  0.27793762
   0.49932172  0.77195608  0.55568153
   0.00061817  0.10505983  0.55543741
   0.50002708  0.59210799  0.66668686
   0.75033506  0.24352513  0.05561556
   0.50010698  0.28410559  0.44424346
   0.75008532  0.88577283  0.27819774
   0.75012042  0.21912733  0.27821078
   0.74989649  0.06462865  0.16642788
   0.99994881  0.51254461  0.88836750
   0.74858472  0.04114958  0.38871556
   0.50007465  0.84526089  0.88949485
   0.49984622  0.33398336  0.00014506
   0.50027798  0.17914882  0.88882160
   0.00042892  0.79665758  0.33349755
   0.74923593  0.37329970  0.38881870
   0.49905075  0.95178144  0.44456284
   0.75047247  0.08954062  0.94444014
   0.75029444  0.11476255  0.72233335
   0.24955179  0.78064420  0.72208762
   0.24927061  0.04066916  0.38928317
   0.00048412  0.43837367  0.55583173
   0.49985817  0.15391894  0.11080274
   0.74950566  0.70670068  0.38860528
   0.74989740  0.75610068  0.94448902
   0.75022894  0.86130975  0.49964856
   0.24989517  0.37954176  0.83308102
   0.00073197  0.12938584  0.33313309
   0.50055529  0.64172965  0.22152787
   0.74981024  0.52752899  0.49978037
   0.50030633  0.58010620  0.77794046
   0.00030115  0.46282931  0.33331430
   0.25006595  0.39818378  0.16650069
   0.00045932  0.77159987  0.55571143
   0.74995897  0.55266393  0.27830629
   0.00340421  0.95085229  0.44435908
   0.99920445  0.17678220  0.88868588
   0.49981687  0.48814375  0.11111165
   0.25293316  0.19244887  0.49903701
   0.49758329  0.43694427  0.55563770
   0.25146827  0.44782275  0.72311145
   0.74988949  0.19425827  0.49989820
   0.99998007  0.00004125  0.00021356
   0.75036008  0.71338260  0.83354533
   0.75136949  0.44634035  0.72317305
   0.25013305  0.86230741  0.49984692
   0.25045806  0.75545841  0.94449272
   0.24927900  0.52619991  0.49946322
   0.00092896  0.33328633  0.00030247
   0.99992977  0.82082437  0.11388179
   0.74872147  0.91161083  0.05661961
   0.50059382  0.12975838  0.33309505
   0.50088101  0.61885801  0.44400874
   0.74958925  0.37915645  0.83309442
   0.75005035  0.04359376  0.83360116
   0.00031881  0.64191796  0.22120805
   0.99868386  0.25846574  0.66731708
   0.74986852  0.57737176  0.05662078
   0.49967079  0.97500331  0.22193897
   0.74988295  0.39841243  0.16639381
   0.49572253  0.10595525  0.55525839
   0.25110623  0.91053295  0.05639256
   0.00126089  0.28359635  0.44425479
   0.25001601  0.06480884  0.16679196
   0.24836089  0.68498137  0.61045581
   0.25076309  0.34811295  0.61051249
   0.74754952  0.42325025  0.94453090
   0.25005873  0.57712925  0.05550600
   0.24941840  0.08951963  0.94506186
   0.25027455  0.73146545  0.16639751
   0.24944113  0.22004544  0.27726559
   0.99996294  0.91275762  0.77738783
   0.24935849  0.37288417  0.38928277
   0.99953975  0.24714764  0.77785196
   0.24980698  0.42326446  0.94530502
   0.74994366  0.73126293  0.16598712
   0.49965470  0.26021951  0.66618842
Direct configuration=     4
   0.49945717  0.30867754  0.22165566
   0.00070118  0.30850339  0.22155629
   0.24956005  0.24345599  0.05553918
   0.49996588  0.82061143  0.11059924
   0.00004795  0.48775759  0.11100158
   0.00148144  0.61760120  0.44373748
   0.25047156  0.01498889  0.61094128
   0.00060889  0.66661706  0.00031890
   0.75069806  0.78073013  0.72234878
   0.49987171  0.79637236  0.33329963
   0.24977592  0.11381673  0.72235418
   0.99984612  0.58089239  0.77748388
   0.00057451  0.59297416  0.66691036
   0.24951062  0.71321445  0.83294204
   0.74976410  0.34876029  0.61103921
   0.00123244  0.92567207  0.66716128
   0.24981463  0.88594230  0.27709877
   0.49921610  0.92620015  0.66636674
   0.50039648  0.91389825  0.77815029
   0.49961187  0.99889152  0.00044870
   0.50018019  0.24685131  0.77790754
   0.49998553  0.46276730  0.33342744
   0.00032032  0.97539920  0.22125634
   0.24911680  0.70712262  0.38912758
   0.49958214  0.66701838  0.00070669
   0.75027631  0.68286359  0.61084144
   0.75044206  0.01514026  0.61092386
   0.00020895  0.15410418  0.11071414
   0.24978244  0.04597920  0.83291425
   0.50091830  0.51289557  0.88927172
   0.99977438  0.84700373  0.88919262
   0.24996115  0.55207718  0.27793707
   0.49932172  0.77195608  0.55568209
   0.00061817  0.10505983  0.55543822
   0.50002708  0.59210799  0.66668672
   0.75033506  0.24352513  0.05561484
   0.50010698  0.28410559  0.44424365
   0.75008532  0.88577283  0.27819655
   0.75012042  0.21912733  0.27820975
   0.74989649  0.06462865  0.16642820
   0.99994881  0.51254461  0.88836867
   0.74858472  0.04114958  0.38871670
   0.50007465  0.84526089  0.88949523
   0.49984622  0.33398336  0.00014452
   0.50027798  0.17914882  0.88882211
   0.00042892  0.79665758  0.33349751
   0.74923593  0.37329970  0.38882004
   0.49905075  0.95178144  0.44456262
   0.75047247  0.08954062  0.94444006
   0.75029444  0.11476255  0.72233297
   0.24955179  0.78064420  0.72208686
   0.24927061  0.04066916  0.38928380
   0.00048412  0.43837367  0.55583172
   0.49985817  0.15391894  0.11080252
   0.74950566  0.70670068  0.38860670
   0.74989740  0.75610068  0.94448815
   0.75022894  0.86130975  0.49964933
   0.24989517  0.37954176  0.83308197
   0.00073197  0.12938584  0.33313375
   0.50055529  0.64172965  0.22152924
   0.74981024  0.52752899  0.49978105
   0.50030633  0.58010620  0.77794030
   0.00030115  0.46282931  0.33331436
   0.25006595  0.39818378  0.16650126
   0.00045932  0.77159987  0.55571139
   0.74995897  0.55266393  0.27830462
   0.00340421  0.95085229  0.44435901
   0.99920445  0.17678220  0.88868663
   0.49981687  0.48814375  0.11111072
   0.25293316  0.19244887  0.49903750
   0.49758329  0.43694427  0.55563784
   0.25146827  0.44782275  0.72311056
   0.74988949  0.19425827  0.49989843
   0.99998007  0.00004125  0.00021221
   0.75036008  0.71338260  0.83354596
   0.75136949  0.44634035  0.72317226
   0.25013305  0.86230741  0.49984703
   0.25045806  0.75545841  0.94449189
   0.24927900  0.52619991  0.49946318
   0.00092896  0.33328633  0.00030133
   0.99992977  0.82082437  0.11387311
   0.74872147  0.91161083  0.05661657
   0.50059382  0.12975838  0.33309724
   0.50088101  0.61885801  0.44400858
   0.74958925  0.37915645  0.83309467
   0.75005035  0.04359376  0.83360067
   0.00031881  0.64191796  0.22121087
   0.99868386  0.25846574  0.66731622
   0.74986852  0.57737176  0.05661697
   0.49967079  0.97500331  0.22194005
   0.74988295  0.39841243  0.16639428
   0.49572253  0.10595525  0.55525844
   0.25110623  0.91053295  0.05638873
   0.00126089  0.28359635  0.44425488
   0.25001601  0.06480884  0.16679155
   0.24836089  0.68498137  0.61045644
   0.25076309  0.34811295  0.61051231
   0.74754952  0.42325025  0.94453087
   0.25005873  0.57712925  0.05550548
   0.24941840  0.08951963  0.94506099
   0.25027455  0.73146545  0.16639849
   0.24944113  0.22004544  0.27726742
   0.99996294  0.91275762  0.77738934
   0.24935849  0.37288417  0.38928375
   0.99953975  0.24714764  0.77785140
   0.24980698  0.42326446  0.94530343
   0.74994366  0.73126293  0.16598900
   0.49965470  0.26021951  0.66618964
Direct configuration=     5
   0.49945717  0.30867754  0.22167175
   0.00070118  0.30850339  0.22157882
   0.24956005  0.24345599  0.05552953
   0.49996588  0.82061143  0.11060003
   0.00004795  0.48775759  0.11099422
   0.00148144  0.61760120  0.44375115
   0.25047156  0.01498889  0.61093907
   0.00060889  0.66661706  0.00031092
   0.75069806  0.78073013  0.72234842
   0.49987171  0.79637236  0.33329808
   0.24977592  0.11381673  0.72234286
   0.99984612  0.58089239  0.77748976
   0.00057451  0.59297416  0.66690003
   0.24951062  0.71321445  0.83295475
   0.74976410  0.34876029  0.61104753
   0.00123244  0.92567207  0.66714905
   0.24981463  0.88594230  0.27712229
   0.49921610  0.92620015  0.66636550
   0.50039648  0.91389825  0.77814560
   0.49961187  0.99889152  0.00044142
   0.50018019  0.24685131  0.77790154
   0.49998553  0.46276730  0.33342965
   0.00032032  0.97539920  0.22128734
   0.24911680  0.70712262  0.38913119
   0.49958214  0.66701838  0.00068812
   0.75027631  0.68286359  0.61084160
   0.75044206  0.01514026  0.61092589
   0.00020895  0.15410418  0.11071195
   0.24978244  0.04597920  0.83292513
   0.50091830  0.51289557  0.88928337
   0.99977438  0.84700373  0.88919909
   0.24996115  0.55207718  0.27793225
   0.49932172  0.77195608  0.55568693
   0.00061817  0.10505983  0.55544526
   0.50002708  0.59210799  0.66668551
   0.75033506  0.24352513  0.05560850
   0.50010698  0.28410559  0.44424535
   0.75008532  0.88577283  0.27818616
   0.75012042  0.21912733  0.27820074
   0.74989649  0.06462865  0.16643099
   0.99994881  0.51254461  0.88837882
   0.74858472  0.04114958  0.38872658
   0.50007465  0.84526089  0.88949854
   0.49984622  0.33398336  0.00013976
   0.50027798  0.17914882  0.88882650
   0.00042892  0.79665758  0.33349718
   0.74923593  0.37329970  0.38883172
   0.49905075  0.95178144  0.44456074
   0.75047247  0.08954062  0.94443940
   0.75029444  0.11476255  0.72232961
   0.24955179  0.78064420  0.72208028
   0.24927061  0.04066916  0.38928928
   0.00048412  0.43837367  0.55583158
   0.49985817  0.15391894  0.11080062
   0.74950566  0.70670068  0.38861906
   0.74989740  0.75610068  0.94448060
   0.75022894  0.86130975  0.49965598
   0.24989517  0.37954176  0.83309028
   0.00073197  0.12938584  0.33313954
   0.50055529  0.64172965  0.22154114
   0.74981024  0.52752899  0.49978691
   0.50030633  0.58010620  0.77793891
   0.00030115  0.46282931  0.33331482
   0.25006595  0.39818378  0.16650623
   0.00045932  0.77159987  0.55571103
   0.74995897  0.55266393  0.27829012
   0.00340421  0.95085229  0.44435837
   0.99920445  0.17678220  0.88869319
   0.49981687  0.48814375  0.11110263
   0.25293316  0.19244887  0.49904174
   0.49758329  0.43694427  0.55563902
   0.25146827  0.44782275  0.72310283
   0.74988949  0.19425827  0.49990045
   0.99998007  0.00004125  0.00020044
   0.75036008  0.71338260  0.83355141
   0.75136949  0.44634035  0.72316540
   0.25013305  0.86230741  0.49984795
   0.25045806  0.75545841  0.94448465
   0.24927900  0.52619991  0.49946283
   0.00092896  0.33328633  0.00029138
   0.99992977  0.82082437  0.11379764
   0.74872147  0.91161083  0.05659011
   0.50059382  0.12975838  0.33311633
   0.50088101  0.61885801  0.44400719
   0.74958925  0.37915645  0.83309684
   0.75005035  0.04359376  0.83359639
   0.00031881  0.64191796  0.22123545
   0.99868386  0.25846574  0.66730870
   0.74986852  0.57737176  0.05658382
   0.49967079  0.97500331  0.22194943
   0.74988295  0.39841243  0.16639845
   0.49572253  0.10595525  0.55525891
   0.25110623  0.91053295  0.05635536
   0.00126089  0.28359635  0.44425563
   0.25001601  0.06480884  0.16678800
   0.24836089  0.68498137  0.61046189
   0.25076309  0.34811295  0.61051076
   0.74754952  0.42325025  0.94453056
   0.25005873  0.57712925  0.05550090
   0.24941840  0.08951963  0.94505342
   0.25027455  0.73146545  0.16640695
   0.24944113  0.22004544  0.27728340
   0.99996294  0.91275762  0.77740254
   0.24935849  0.37288417  0.38929230
   0.99953975  0.24714764  0.77784651
   0.24980698  0.42326446  0.94528961
   0.74994366  0.73126293  0.16600535
   0.49965470  0.26021951  0.66620024
Direct configuration=     6
   0.49945717  0.30867754  0.22167979
   0.00070118  0.30850339  0.22159008
   0.24956005  0.24345599  0.05552471
   0.49996588  0.82061143  0.11060042
   0.00004795  0.48775759  0.11099054
   0.00148144  0.61760120  0.44375799
   0.25047156  0.01498889  0.61093797
   0.00060889  0.66661706  0.00030693
   0.75069806  0.78073013  0.72234825
   0.49987171  0.79637236  0.33329731
   0.24977592  0.11381673  0.72233721
   0.99984612  0.58089239  0.77749270
   0.00057451  0.59297416  0.66689486
   0.24951062  0.71321445  0.83296110
   0.74976410  0.34876029  0.61105169
   0.00123244  0.92567207  0.66714293
   0.24981463  0.88594230  0.27713405
   0.49921610  0.92620015  0.66636488
   0.50039648  0.91389825  0.77814326
   0.49961187  0.99889152  0.00043778
   0.50018019  0.24685131  0.77789854
   0.49998553  0.46276730  0.33343076
   0.00032032  0.97539920  0.22130284
   0.24911680  0.70712262  0.38913300
   0.49958214  0.66701838  0.00067884
   0.75027631  0.68286359  0.61084168
   0.75044206  0.01514026  0.61092691
   0.00020895  0.15410418  0.11071085
   0.24978244  0.04597920  0.83293057
   0.50091830  0.51289557  0.88928919
   0.99977438  0.84700373  0.88920232
   0.24996115  0.55207718  0.27792984
   0.49932172  0.77195608  0.55568935
   0.00061817  0.10505983  0.55544878
   0.50002708  0.59210799  0.66668491
   0.75033506  0.24352513  0.05560533
   0.50010698  0.28410559  0.44424619
   0.75008532  0.88577283  0.27818097
   0.75012042  0.21912733  0.27819623
   0.74989649  0.06462865  0.16643239
   0.99994881  0.51254461  0.88838389
   0.74858472  0.04114958  0.38873153
   0.50007465  0.84526089  0.88950020
   0.49984622  0.33398336  0.00013738
   0.50027798  0.17914882  0.88882870
   0.00042892  0.79665758  0.33349701
   0.74923593  0.37329970  0.38883755
   0.49905075  0.95178144  0.44455980
   0.75047247  0.08954062  0.94443906
   0.75029444  0.11476255  0.72232793
   0.24955179  0.78064420  0.72207699
   0.24927061  0.04066916  0.38929202
   0.00048412  0.43837367  0.55583151
   0.49985817  0.15391894  0.11079967
   0.74950566  0.70670068  0.38862525
   0.74989740  0.75610068  0.94447683
   0.75022894  0.86130975  0.49965931
   0.24989517  0.37954176  0.83309443
   0.00073197  0.12938584  0.33314244
   0.50055529  0.64172965  0.22154710
   0.74981024  0.52752899  0.49978984
   0.50030633  0.58010620  0.77793822
   0.00030115  0.46282931  0.33331506
   0.25006595  0.39818378  0.16650871
   0.00045932  0.77159987  0.55571085
   0.74995897  0.55266393  0.27828287
   0.00340421  0.95085229  0.44435805
   0.99920445  0.17678220  0.88869646
   0.49981687  0.48814375  0.11109858
   0.25293316  0.19244887  0.49904386
   0.49758329  0.43694427  0.55563961
   0.25146827  0.44782275  0.72309897
   0.74988949  0.19425827  0.49990147
   0.99998007  0.00004125  0.00019456
   0.75036008  0.71338260  0.83355414
   0.75136949  0.44634035  0.72316196
   0.25013305  0.86230741  0.49984842
   0.25045806  0.75545841  0.94448103
   0.24927900  0.52619991  0.49946265
   0.00092896  0.33328633  0.00028640
   0.99992977  0.82082437  0.11375991
   0.74872147  0.91161083  0.05657688
   0.50059382  0.12975838  0.33312587
   0.50088101  0.61885801  0.44400650
   0.74958925  0.37915645  0.83309793
   0.75005035  0.04359376  0.83359426
   0.00031881  0.64191796  0.22124773
   0.99868386  0.25846574  0.66730494
   0.74986852  0.57737176  0.05656725
   0.49967079  0.97500331  0.22195413
   0.74988295  0.39841243  0.16640053
   0.49572253  0.10595525  0.55525914
   0.25110623  0.91053295  0.05633868
   0.00126089  0.28359635  0.44425601
   0.25001601  0.06480884  0.16678622
   0.24836089  0.68498137  0.61046461
   0.25076309  0.34811295  0.61050998
   0.74754952  0.42325025  0.94453041
   0.25005873  0.57712925  0.05549861
   0.24941840  0.08951963  0.94504964
   0.25027455  0.73146545  0.16641119
   0.24944113  0.22004544  0.27729139
   0.99996294  0.91275762  0.77740914
   0.24935849  0.37288417  0.38929657
   0.99953975  0.24714764  0.77784407
   0.24980698  0.42326446  0.94528271
   0.74994366  0.73126293  0.16601353
   0.49965470  0.26021951  0.66620553
Direct configuration=     7
   0.49945717  0.30867754  0.22168381
   0.00070118  0.30850339  0.22159571
   0.24956005  0.24345599  0.05552229
   0.49996588  0.82061143  0.11060062
   0.00004795  0.48775759  0.11098870
   0.00148144  0.61760120  0.44376140
   0.25047156  0.01498889  0.61093741
   0.00060889  0.66661706  0.00030493
   0.75069806  0.78073013  0.72234816
   0.49987171  0.79637236  0.33329693
   0.24977592  0.11381673  0.72233438
   0.99984612  0.58089239  0.77749417
   0.00057451  0.59297416  0.66689228
   0.24951062  0.71321445  0.83296428
   0.74976410  0.34876029  0.61105377
   0.00123244  0.92567207  0.66713987
   0.24981463  0.88594230  0.27713993
   0.49921610  0.92620015  0.66636457
   0.50039648  0.91389825  0.77814208
   0.49961187  0.99889152  0.00043596
   0.50018019  0.24685131  0.77789704
   0.49998553  0.46276730  0.33343131
   0.00032032  0.97539920  0.22131060
   0.24911680  0.70712262  0.38913390
   0.49958214  0.66701838  0.00067419
   0.75027631  0.68286359  0.61084172
   0.75044206  0.01514026  0.61092742
   0.00020895  0.15410418  0.11071031
   0.24978244  0.04597920  0.83293330
   0.50091830  0.51289557  0.88929211
   0.99977438  0.84700373  0.88920394
   0.24996115  0.55207718  0.27792864
   0.49932172  0.77195608  0.55569056
   0.00061817  0.10505983  0.55545054
   0.50002708  0.59210799  0.66668461
   0.75033506  0.24352513  0.05560374
   0.50010698  0.28410559  0.44424662
   0.75008532  0.88577283  0.27817837
   0.75012042  0.21912733  0.27819398
   0.74989649  0.06462865  0.16643309
   0.99994881  0.51254461  0.88838643
   0.74858472  0.04114958  0.38873400
   0.50007465  0.84526089  0.88950103
   0.49984622  0.33398336  0.00013619
   0.50027798  0.17914882  0.88882980
   0.00042892  0.79665758  0.33349693
   0.74923593  0.37329970  0.38884047
   0.49905075  0.95178144  0.44455932
   0.75047247  0.08954062  0.94443889
   0.75029444  0.11476255  0.72232709
   0.24955179  0.78064420  0.72207534
   0.24927061  0.04066916  0.38929339
   0.00048412  0.43837367  0.55583148
   0.49985817  0.15391894  0.11079919
   0.74950566  0.70670068  0.38862834
   0.74989740  0.75610068  0.94447494
   0.75022894  0.86130975  0.49966097
   0.24989517  0.37954176  0.83309650
   0.00073197  0.12938584  0.33314388
   0.50055529  0.64172965  0.22155007
   0.74981024  0.52752899  0.49979131
   0.50030633  0.58010620  0.77793787
   0.00030115  0.46282931  0.33331518
   0.25006595  0.39818378  0.16650995
   0.00045932  0.77159987  0.55571075
   0.74995897  0.55266393  0.27827925
   0.00340421  0.95085229  0.44435789
   0.99920445  0.17678220  0.88869810
   0.49981687  0.48814375  0.11109656
   0.25293316  0.19244887  0.49904492
   0.49758329  0.43694427  0.55563990
   0.25146827  0.44782275  0.72309703
   0.74988949  0.19425827  0.49990197
   0.99998007  0.00004125  0.00019162
   0.75036008  0.71338260  0.83355551
   0.75136949  0.44634035  0.72316025
   0.25013305  0.86230741  0.49984865
   0.25045806  0.75545841  0.94447922
   0.24927900  0.52619991  0.49946256
   0.00092896  0.33328633  0.00028391
   0.99992977  0.82082437  0.11374104
   0.74872147  0.91161083  0.05657027
   0.50059382  0.12975838  0.33313064
   0.50088101  0.61885801  0.44400615
   0.74958925  0.37915645  0.83309847
   0.75005035  0.04359376  0.83359319
   0.00031881  0.64191796  0.22125388
   0.99868386  0.25846574  0.66730306
   0.74986852  0.57737176  0.05655896
   0.49967079  0.97500331  0.22195648
   0.74988295  0.39841243  0.16640157
   0.49572253  0.10595525  0.55525926
   0.25110623  0.91053295  0.05633033
   0.00126089  0.28359635  0.44425619
   0.25001601  0.06480884  0.16678534
   0.24836089  0.68498137  0.61046598
   0.25076309  0.34811295  0.61050959
   0.74754952  0.42325025  0.94453033
   0.25005873  0.57712925  0.05549746
   0.24941840  0.08951963  0.94504774
   0.25027455  0.73146545  0.16641330
   0.24944113  0.22004544  0.27729539
   0.99996294  0.91275762  0.77741244
   0.24935849  0.37288417  0.38929871
   0.99953975  0.24714764  0.77784285
   0.24980698  0.42326446  0.94527925
   0.74994366  0.73126293  0.16601762
   0.49965470  0.26021951  0.66620818
Direct configuration=     8
   0.49945717  0.30867754  0.22168582
   0.00070118  0.30850339  0.22159853
   0.24956005  0.24345599  0.05552109
   0.49996588  0.82061143  0.11060071
   0.00004795  0.48775759  0.11098778
   0.00148144  0.61760120  0.44376311
   0.25047156  0.01498889  0.61093714
   0.00060889  0.66661706  0.00030393
   0.75069806  0.78073013  0.72234811
   0.49987171  0.79637236  0.33329673
   0.24977592  0.11381673  0.72233296
   0.99984612  0.58089239  0.77749490
   0.00057451  0.59297416  0.66689099
   0.24951062  0.71321445  0.83296587
   0.74976410  0.34876029  0.61105481
   0.00123244  0.92567207  0.66713834
   0.24981463  0.88594230  0.27714287
   0.49921610  0.92620015  0.66636442
   0.50039648  0.91389825  0.77814150
   0.49961187  0.99889152  0.00043505
   0.50018019  0.24685131  0.77789629
   0.49998553  0.46276730  0.33343159
   0.00032032  0.97539920  0.22131447
   0.24911680  0.70712262  0.38913435
   0.49958214  0.66701838  0.00067187
   0.75027631  0.68286359  0.61084175
   0.75044206  0.01514026  0.61092767
   0.00020895  0.15410418  0.11071003
   0.24978244  0.04597920  0.83293466
   0.50091830  0.51289557  0.88929356
   0.99977438  0.84700373  0.88920474
   0.24996115  0.55207718  0.27792804
   0.49932172  0.77195608  0.55569116
   0.00061817  0.10505983  0.55545142
   0.50002708  0.59210799  0.66668446
   0.75033506  0.24352513  0.05560295
   0.50010698  0.28410559  0.44424683
   0.75008532  0.88577283  0.27817707
   0.75012042  0.21912733  0.27819285
   0.74989649  0.06462865  0.16643344
   0.99994881  0.51254461  0.88838770
   0.74858472  0.04114958  0.38873524
   0.50007465  0.84526089  0.88950144
   0.49984622  0.33398336  0.00013559
   0.50027798  0.17914882  0.88883035
   0.00042892  0.79665758  0.33349689
   0.74923593  0.37329970  0.38884193
   0.49905075  0.95178144  0.44455909
   0.75047247  0.08954062  0.94443881
   0.75029444  0.11476255  0.72232667
   0.24955179  0.78064420  0.72207452
   0.24927061  0.04066916  0.38929408
   0.00048412  0.43837367  0.55583146
   0.49985817  0.15391894  0.11079895
   0.74950566  0.70670068  0.38862989
   0.74989740  0.75610068  0.94447400
   0.75022894  0.86130975  0.49966180
   0.24989517  0.37954176  0.83309754
   0.00073197  0.12938584  0.33314461
   0.50055529  0.64172965  0.22155156
   0.74981024  0.52752899  0.49979204
   0.50030633  0.58010620  0.77793769
   0.00030115  0.46282931  0.33331524
   0.25006595  0.39818378  0.16651057
   0.00045932  0.77159987  0.55571071
   0.74995897  0.55266393  0.27827744
   0.00340421  0.95085229  0.44435781
   0.99920445  0.17678220  0.88869892
   0.49981687  0.48814375  0.11109554
   0.25293316  0.19244887  0.49904545
   0.49758329  0.43694427  0.55564005
   0.25146827  0.44782275  0.72309607
   0.74988949  0.19425827  0.49990223
   0.99998007  0.00004125  0.00019015
   0.75036008  0.71338260  0.83355619
   0.75136949  0.44634035  0.72315939
   0.25013305  0.86230741  0.49984877
   0.25045806  0.75545841  0.94447832
   0.24927900  0.52619991  0.49946252
   0.00092896  0.33328633  0.00028267
   0.99992977  0.82082437  0.11373160
   0.74872147  0.91161083  0.05656696
   0.50059382  0.12975838  0.33313303
   0.50088101  0.61885801  0.44400598
   0.74958925  0.37915645  0.83309874
   0.75005035  0.04359376  0.83359266
   0.00031881  0.64191796  0.22125695
   0.99868386  0.25846574  0.66730212
   0.74986852  0.57737176  0.05655481
   0.49967079  0.97500331  0.22195765
   0.74988295  0.39841243  0.16640209
   0.49572253  0.10595525  0.55525932
   0.25110623  0.91053295  0.05632616
   0.00126089  0.28359635  0.44425629
   0.25001601  0.06480884  0.16678489
   0.24836089  0.68498137  0.61046666
   0.25076309  0.34811295  0.61050940
   0.74754952  0.42325025  0.94453029
   0.25005873  0.57712925  0.05549689
   0.24941840  0.08951963  0.94504680
   0.25027455  0.73146545  0.16641436
   0.24944113  0.22004544  0.27729738
   0.99996294  0.91275762  0.77741409
   0.24935849  0.37288417  0.38929978
   0.99953975  0.24714764  0.77784223
   0.24980698  0.42326446  0.94527753
   0.74994366  0.73126293  0.16601966
   0.49965470  0.26021951  0.66620951
Direct configuration=     9
   0.49945717  0.30867754  0.22168682
   0.00070118  0.30850339  0.22159993
   0.24956005  0.24345599  0.05552048
   0.49996588  0.82061143  0.11060076
   0.00004795  0.48775759  0.11098732
   0.00148144  0.61760120  0.44376397
   0.25047156  0.01498889  0.61093700
   0.00060889  0.66661706  0.00030344
   0.75069806  0.78073013  0.72234809
   0.49987171  0.79637236  0.33329664
   0.24977592  0.11381673  0.72233225
   0.99984612  0.58089239  0.77749527
   0.00057451  0.59297416  0.66689034
   0.24951062  0.71321445  0.83296666
   0.74976410  0.34876029  0.61105533
   0.00123244  0.92567207  0.66713758
   0.24981463  0.88594230  0.27714434
   0.49921610  0.92620015  0.66636434
   0.50039648  0.91389825  0.77814120
   0.49961187  0.99889152  0.00043459
   0.50018019  0.24685131  0.77789591
   0.49998553  0.46276730  0.33343173
   0.00032032  0.97539920  0.22131641
   0.24911680  0.70712262  0.38913458
   0.49958214  0.66701838  0.00067071
   0.75027631  0.68286359  0.61084176
   0.75044206  0.01514026  0.61092780
   0.00020895  0.15410418  0.11070989
   0.24978244  0.04597920  0.83293534
   0.50091830  0.51289557  0.88929429
   0.99977438  0.84700373  0.88920515
   0.24996115  0.55207718  0.27792774
   0.49932172  0.77195608  0.55569147
   0.00061817  0.10505983  0.55545186
   0.50002708  0.59210799  0.66668438
   0.75033506  0.24352513  0.05560255
   0.50010698  0.28410559  0.44424693
   0.75008532  0.88577283  0.27817642
   0.75012042  0.21912733  0.27819229
   0.74989649  0.06462865  0.16643361
   0.99994881  0.51254461  0.88838833
   0.74858472  0.04114958  0.38873586
   0.50007465  0.84526089  0.88950165
   0.49984622  0.33398336  0.00013530
   0.50027798  0.17914882  0.88883062
   0.00042892  0.79665758  0.33349687
   0.74923593  0.37329970  0.38884266
   0.49905075  0.95178144  0.44455897
   0.75047247  0.08954062  0.94443877
   0.75029444  0.11476255  0.72232646
   0.24955179  0.78064420  0.72207410
   0.24927061  0.04066916  0.38929442
   0.00048412  0.43837367  0.55583145
   0.49985817  0.15391894  0.11079883
   0.74950566  0.70670068  0.38863066
   0.74989740  0.75610068  0.94447353
   0.75022894  0.86130975  0.49966222
   0.24989517  0.37954176  0.83309806
   0.00073197  0.12938584  0.33314497
   0.50055529  0.64172965  0.22155231
   0.74981024  0.52752899  0.49979241
   0.50030633  0.58010620  0.77793761
   0.00030115  0.46282931  0.33331526
   0.25006595  0.39818378  0.16651088
   0.00045932  0.77159987  0.55571069
   0.74995897  0.55266393  0.27827653
   0.00340421  0.95085229  0.44435777
   0.99920445  0.17678220  0.88869933
   0.49981687  0.48814375  0.11109504
   0.25293316  0.19244887  0.49904571
   0.49758329  0.43694427  0.55564012
   0.25146827  0.44782275  0.72309558
   0.74988949  0.19425827  0.49990235
   0.99998007  0.00004125  0.00018941
   0.75036008  0.71338260  0.83355653
   0.75136949  0.44634035  0.72315896
   0.25013305  0.86230741  0.49984883
   0.25045806  0.75545841  0.94447786
   0.24927900  0.52619991  0.49946249
   0.00092896  0.33328633  0.00028205
   0.99992977  0.82082437  0.11372689
   0.74872147  0.91161083  0.05656531
   0.50059382  0.12975838  0.33313422
   0.50088101  0.61885801  0.44400589
   0.74958925  0.37915645  0.83309888
   0.75005035  0.04359376  0.83359239
   0.00031881  0.64191796  0.22125848
   0.99868386  0.25846574  0.66730165
   0.74986852  0.57737176  0.05655274
   0.49967079  0.97500331  0.22195824
   0.74988295  0.39841243  0.16640235
   0.49572253  0.10595525  0.55525935
   0.25110623  0.91053295  0.05632408
   0.00126089  0.28359635  0.44425633
   0.25001601  0.06480884  0.16678467
   0.24836089  0.68498137  0.61046700
   0.25076309  0.34811295  0.61050930
   0.74754952  0.42325025  0.94453027
   0.25005873  0.57712925  0.05549660
   0.24941840  0.08951963  0.94504633
   0.25027455  0.73146545  0.16641489
   0.24944113  0.22004544  0.27729838
   0.99996294  0.91275762  0.77741491
   0.24935849  0.37288417  0.38930031
   0.99953975  0.24714764  0.77784193
   0.24980698  0.42326446  0.94527666
   0.74994366  0.73126293  0.16602069
   0.49965470  0.26021951  0.66621017
Direct configuration=    10
   0.49945717  0.30867754  0.22168732
   0.00070118  0.30850339  0.22160064
   0.24956005  0.24345599  0.05552018
   0.49996588  0.82061143  0.11060079
   0.00004795  0.48775759  0.11098709
   0.00148144  0.61760120  0.44376440
   0.25047156  0.01498889  0.61093693
   0.00060889  0.66661706  0.00030319
   0.75069806  0.78073013  0.72234808
   0.49987171  0.79637236  0.33329659
   0.24977592  0.11381673  0.72233190
   0.99984612  0.58089239  0.77749546
   0.00057451  0.59297416  0.66689002
   0.24951062  0.71321445  0.83296706
   0.74976410  0.34876029  0.61105559
   0.00123244  0.92567207  0.66713719
   0.24981463  0.88594230  0.27714508
   0.49921610  0.92620015  0.66636430
   0.50039648  0.91389825  0.77814106
   0.49961187  0.99889152  0.00043437
   0.50018019  0.24685131  0.77789572
   0.49998553  0.46276730  0.33343180
   0.00032032  0.97539920  0.22131738
   0.24911680  0.70712262  0.38913469
   0.49958214  0.66701838  0.00067013
   0.75027631  0.68286359  0.61084176
   0.75044206  0.01514026  0.61092786
   0.00020895  0.15410418  0.11070983
   0.24978244  0.04597920  0.83293568
   0.50091830  0.51289557  0.88929465
   0.99977438  0.84700373  0.88920535
   0.24996115  0.55207718  0.27792758
   0.49932172  0.77195608  0.55569162
   0.00061817  0.10505983  0.55545208
   0.50002708  0.59210799  0.66668434
   0.75033506  0.24352513  0.05560236
   0.50010698  0.28410559  0.44424699
   0.75008532  0.88577283  0.27817610
   0.75012042  0.21912733  0.27819201
   0.74989649  0.06462865  0.16643370
   0.99994881  0.51254461  0.88838865
   0.74858472  0.04114958  0.38873616
   0.50007465  0.84526089  0.88950175
   0.49984622  0.33398336  0.00013515
   0.50027798  0.17914882  0.88883076
   0.00042892  0.79665758  0.33349686
   0.74923593  0.37329970  0.38884303
   0.49905075  0.95178144  0.44455891
   0.75047247  0.08954062  0.94443875
   0.75029444  0.11476255  0.72232635
   0.24955179  0.78064420  0.72207390
   0.24927061  0.04066916  0.38929459
   0.00048412  0.43837367  0.55583145
   0.49985817  0.15391894  0.11079877
   0.74950566  0.70670068  0.38863105
   0.74989740  0.75610068  0.94447329
   0.75022894  0.86130975  0.49966243
   0.24989517  0.37954176  0.83309832
   0.00073197  0.12938584  0.33314515
   0.50055529  0.64172965  0.22155268
   0.74981024  0.52752899  0.49979259
   0.50030633  0.58010620  0.77793756
   0.00030115  0.46282931  0.33331528
   0.25006595  0.39818378  0.16651104
   0.00045932  0.77159987  0.55571068
   0.74995897  0.55266393  0.27827608
   0.00340421  0.95085229  0.44435775
   0.99920445  0.17678220  0.88869954
   0.49981687  0.48814375  0.11109479
   0.25293316  0.19244887  0.49904584
   0.49758329  0.43694427  0.55564016
   0.25146827  0.44782275  0.72309534
   0.74988949  0.19425827  0.49990242
   0.99998007  0.00004125  0.00018904
   0.75036008  0.71338260  0.83355670
   0.75136949  0.44634035  0.72315874
   0.25013305  0.86230741  0.49984885
   0.25045806  0.75545841  0.94447764
   0.24927900  0.52619991  0.49946248
   0.00092896  0.33328633  0.00028174
   0.99992977  0.82082437  0.11372453
   0.74872147  0.91161083  0.05656448
   0.50059382  0.12975838  0.33313481
   0.50088101  0.61885801  0.44400585
   0.74958925  0.37915645  0.83309894
   0.75005035  0.04359376  0.83359225
   0.00031881  0.64191796  0.22125925
   0.99868386  0.25846574  0.66730141
   0.74986852  0.57737176  0.05655171
   0.49967079  0.97500331  0.22195853
   0.74988295  0.39841243  0.16640248
   0.49572253  0.10595525  0.55525936
   0.25110623  0.91053295  0.05632304
   0.00126089  0.28359635  0.44425636
   0.25001601  0.06480884  0.16678456
   0.24836089  0.68498137  0.61046717
   0.25076309  0.34811295  0.61050925
   0.74754952  0.42325025  0.94453026
   0.25005873  0.57712925  0.05549646
   0.24941840  0.08951963  0.94504609
   0.25027455  0.73146545  0.16641516
   0.24944113  0.22004544  0.27729888
   0.99996294  0.91275762  0.77741533
   0.24935849  0.37288417  0.38930058
   0.99953975  0.24714764  0.77784178
   0.24980698  0.42326446  0.94527623
   0.74994366  0.73126293  0.16602120
   0.49965470  0.26021951  0.66621050
Direct configuration=    11
   0.49945717  0.30867754  0.22168758
   0.00070118  0.30850339  0.22160099
   0.24956005  0.24345599  0.05552003
   0.49996588  0.82061143  0.11060080
   0.00004795  0.48775759  0.11098698
   0.00148144  0.61760120  0.44376461
   0.25047156  0.01498889  0.61093689
   0.00060889  0.66661706  0.00030306
   0.75069806  0.78073013  0.72234807
   0.49987171  0.79637236  0.33329656
   0.24977592  0.11381673  0.72233172
   0.99984612  0.58089239  0.77749555
   0.00057451  0.59297416  0.66688986
   0.24951062  0.71321445  0.83296726
   0.74976410  0.34876029  0.61105572
   0.00123244  0.92567207  0.66713700
   0.24981463  0.88594230  0.27714545
   0.49921610  0.92620015  0.66636428
   0.50039648  0.91389825  0.77814098
   0.49961187  0.99889152  0.00043425
   0.50018019  0.24685131  0.77789563
   0.49998553  0.46276730  0.33343183
   0.00032032  0.97539920  0.22131786
   0.24911680  0.70712262  0.38913475
   0.49958214  0.66701838  0.00066984
   0.75027631  0.68286359  0.61084176
   0.75044206  0.01514026  0.61092789
   0.00020895  0.15410418  0.11070979
   0.24978244  0.04597920  0.83293585
   0.50091830  0.51289557  0.88929484
   0.99977438  0.84700373  0.88920545
   0.24996115  0.55207718  0.27792751
   0.49932172  0.77195608  0.55569169
   0.00061817  0.10505983  0.55545219
   0.50002708  0.59210799  0.66668433
   0.75033506  0.24352513  0.05560226
   0.50010698  0.28410559  0.44424701
   0.75008532  0.88577283  0.27817594
   0.75012042  0.21912733  0.27819187
   0.74989649  0.06462865  0.16643374
   0.99994881  0.51254461  0.88838881
   0.74858472  0.04114958  0.38873632
   0.50007465  0.84526089  0.88950180
   0.49984622  0.33398336  0.00013507
   0.50027798  0.17914882  0.88883083
   0.00042892  0.79665758  0.33349685
   0.74923593  0.37329970  0.38884321
   0.49905075  0.95178144  0.44455888
   0.75047247  0.08954062  0.94443874
   0.75029444  0.11476255  0.72232630
   0.24955179  0.78064420  0.72207380
   0.24927061  0.04066916  0.38929468
   0.00048412  0.43837367  0.55583145
   0.49985817  0.15391894  0.11079875
   0.74950566  0.70670068  0.38863124
   0.74989740  0.75610068  0.94447317
   0.75022894  0.86130975  0.49966253
   0.24989517  0.37954176  0.83309845
   0.00073197  0.12938584  0.33314524
   0.50055529  0.64172965  0.22155286
   0.74981024  0.52752899  0.49979268
   0.50030633  0.58010620  0.77793754
   0.00030115  0.46282931  0.33331529
   0.25006595  0.39818378  0.16651112
   0.00045932  0.77159987  0.55571067
   0.74995897  0.55266393  0.27827585
   0.00340421  0.95085229  0.44435774
   0.99920445  0.17678220  0.88869964
   0.49981687  0.48814375  0.11109466
   0.25293316  0.19244887  0.49904591
   0.49758329  0.43694427  0.55564018
   0.25146827  0.44782275  0.72309522
   0.74988949  0.19425827  0.49990245
   0.99998007  0.00004125  0.00018886
   0.75036008  0.71338260  0.83355679
   0.75136949  0.44634035  0.72315864
   0.25013305  0.86230741  0.49984887
   0.25045806  0.75545841  0.94447752
   0.24927900  0.52619991  0.49946248
   0.00092896  0.33328633  0.00028158
   0.99992977  0.82082437  0.11372335
   0.74872147  0.91161083  0.05656407
   0.50059382  0.12975838  0.33313511
   0.50088101  0.61885801  0.44400583
   0.74958925  0.37915645  0.83309898
   0.75005035  0.04359376  0.83359219
   0.00031881  0.64191796  0.22125963
   0.99868386  0.25846574  0.66730129
   0.74986852  0.57737176  0.05655119
   0.49967079  0.97500331  0.22195868
   0.74988295  0.39841243  0.16640254
   0.49572253  0.10595525  0.55525937
   0.25110623  0.91053295  0.05632251
   0.00126089  0.28359635  0.44425637
   0.25001601  0.06480884  0.16678451
   0.24836089  0.68498137  0.61046726
   0.25076309  0.34811295  0.61050923
   0.74754952  0.42325025  0.94453026
   0.25005873  0.57712925  0.05549639
   0.24941840  0.08951963  0.94504597
   0.25027455  0.73146545  0.16641529
   0.24944113  0.22004544  0.27729913
   0.99996294  0.91275762  0.77741553
   0.24935849  0.37288417  0.38930071
   0.99953975  0.24714764  0.77784170
   0.24980698  0.42326446  0.94527602
   0.74994366  0.73126293  0.16602145
   0.49965470  0.26021951  0.66621066
Direct configuration=    12
   0.49945717  0.30867754  0.22168770
   0.00070118  0.30850339  0.22160117
   0.24956005  0.24345599  0.05551996
   0.49996588  0.82061143  0.11060081
   0.00004795  0.48775759  0.11098692
   0.00148144  0.61760120  0.44376472
   0.25047156  0.01498889  0.61093688
   0.00060889  0.66661706  0.00030300
   0.75069806  0.78073013  0.72234807
   0.49987171  0.79637236  0.33329655
   0.24977592  0.11381673  0.72233164
   0.99984612  0.58089239  0.77749559
   0.00057451  0.59297416  0.66688978
   0.24951062  0.71321445  0.83296736
   0.74976410  0.34876029  0.61105578
   0.00123244  0.92567207  0.66713691
   0.24981463  0.88594230  0.27714563
   0.49921610  0.92620015  0.66636427
   0.50039648  0.91389825  0.77814095
   0.49961187  0.99889152  0.00043420
   0.50018019  0.24685131  0.77789558
   0.49998553  0.46276730  0.33343185
   0.00032032  0.97539920  0.22131811
   0.24911680  0.70712262  0.38913478
   0.49958214  0.66701838  0.00066970
   0.75027631  0.68286359  0.61084176
   0.75044206  0.01514026  0.61092791
   0.00020895  0.15410418  0.11070977
   0.24978244  0.04597920  0.83293593
   0.50091830  0.51289557  0.88929493
   0.99977438  0.84700373  0.88920550
   0.24996115  0.55207718  0.27792747
   0.49932172  0.77195608  0.55569173
   0.00061817  0.10505983  0.55545225
   0.50002708  0.59210799  0.66668432
   0.75033506  0.24352513  0.05560221
   0.50010698  0.28410559  0.44424703
   0.75008532  0.88577283  0.27817586
   0.75012042  0.21912733  0.27819180
   0.74989649  0.06462865  0.16643377
   0.99994881  0.51254461  0.88838888
   0.74858472  0.04114958  0.38873640
   0.50007465  0.84526089  0.88950183
   0.49984622  0.33398336  0.00013504
   0.50027798  0.17914882  0.88883086
   0.00042892  0.79665758  0.33349685
   0.74923593  0.37329970  0.38884330
   0.49905075  0.95178144  0.44455887
   0.75047247  0.08954062  0.94443873
   0.75029444  0.11476255  0.72232628
   0.24955179  0.78064420  0.72207374
   0.24927061  0.04066916  0.38929472
   0.00048412  0.43837367  0.55583145
   0.49985817  0.15391894  0.11079873
   0.74950566  0.70670068  0.38863134
   0.74989740  0.75610068  0.94447311
   0.75022894  0.86130975  0.49966258
   0.24989517  0.37954176  0.83309852
   0.00073197  0.12938584  0.33314529
   0.50055529  0.64172965  0.22155296
   0.74981024  0.52752899  0.49979273
   0.50030633  0.58010620  0.77793753
   0.00030115  0.46282931  0.33331529
   0.25006595  0.39818378  0.16651116
   0.00045932  0.77159987  0.55571067
   0.74995897  0.55266393  0.27827574
   0.00340421  0.95085229  0.44435773
   0.99920445  0.17678220  0.88869969
   0.49981687  0.48814375  0.11109460
   0.25293316  0.19244887  0.49904594
   0.49758329  0.43694427  0.55564019
   0.25146827  0.44782275  0.72309516
   0.74988949  0.19425827  0.49990246
   0.99998007  0.00004125  0.00018877
   0.75036008  0.71338260  0.83355683
   0.75136949  0.44634035  0.72315858
   0.25013305  0.86230741  0.49984888
   0.25045806  0.75545841  0.94447747
   0.24927900  0.52619991  0.49946247
   0.00092896  0.33328633  0.00028150
   0.99992977  0.82082437  0.11372276
   0.74872147  0.91161083  0.05656386
   0.50059382  0.12975838  0.33313526
   0.50088101  0.61885801  0.44400582
   0.74958925  0.37915645  0.83309900
   0.75005035  0.04359376  0.83359215
   0.00031881  0.64191796  0.22125983
   0.99868386  0.25846574  0.66730123
   0.74986852  0.57737176  0.05655093
   0.49967079  0.97500331  0.22195875
   0.74988295  0.39841243  0.16640258
   0.49572253  0.10595525  0.55525937
   0.25110623  0.91053295  0.05632225
   0.00126089  0.28359635  0.44425638
   0.25001601  0.06480884  0.16678448
   0.24836089  0.68498137  0.61046730
   0.25076309  0.34811295  0.61050921
   0.74754952  0.42325025  0.94453026
   0.25005873  0.57712925  0.05549635
   0.24941840  0.08951963  0.94504591
   0.25027455  0.73146545  0.16641535
   0.24944113  0.22004544  0.27729926
   0.99996294  0.91275762  0.77741564
   0.24935849  0.37288417  0.38930078
   0.99953975  0.24714764  0.77784166
   0.24980698  0.42326446  0.94527591
   0.74994366  0.73126293  0.16602158
   0.49965470  0.26021951  0.66621075
Direct configuration=    13
   0.49945717  0.30867754  0.22168776
   0.00070118  0.30850339  0.22160125
   0.24956005  0.24345599  0.05551992
   0.49996588  0.82061143  0.11060081
   0.00004795  0.48775759  0.11098689
   0.00148144  0.61760120  0.44376477
   0.25047156  0.01498889  0.61093687
   0.00060889  0.66661706  0.00030297
   0.75069806  0.78073013  0.72234807
   0.49987171  0.79637236  0.33329654
   0.24977592  0.11381673  0.72233159
   0.99984612  0.58089239  0.77749562
   0.00057451  0.59297416  0.66688974
   0.24951062  0.71321445  0.83296740
   0.74976410  0.34876029  0.61105582
   0.00123244  0.92567207  0.66713686
   0.24981463  0.88594230  0.27714572
   0.49921610  0.92620015  0.66636427
   0.50039648  0.91389825  0.77814093
   0.49961187  0.99889152  0.00043417
   0.50018019  0.24685131  0.77789556
   0.49998553  0.46276730  0.33343186
   0.00032032  0.97539920  0.22131823
   0.24911680  0.70712262  0.38913479
   0.49958214  0.66701838  0.00066963
   0.75027631  0.68286359  0.61084176
   0.75044206  0.01514026  0.61092792
   0.00020895  0.15410418  0.11070977
   0.24978244  0.04597920  0.83293597
   0.50091830  0.51289557  0.88929497
   0.99977438  0.84700373  0.88920553
   0.24996115  0.55207718  0.27792745
   0.49932172  0.77195608  0.55569175
   0.00061817  0.10505983  0.55545227
   0.50002708  0.59210799  0.66668431
   0.75033506  0.24352513  0.05560218
   0.50010698  0.28410559  0.44424703
   0.75008532  0.88577283  0.27817582
   0.75012042  0.21912733  0.27819176
   0.74989649  0.06462865  0.16643378
   0.99994881  0.51254461  0.88838892
   0.74858472  0.04114958  0.38873643
   0.50007465  0.84526089  0.88950184
   0.49984622  0.33398336  0.00013502
   0.50027798  0.17914882  0.88883088
   0.00042892  0.79665758  0.33349685
   0.74923593  0.37329970  0.38884335
   0.49905075  0.95178144  0.44455886
   0.75047247  0.08954062  0.94443873
   0.75029444  0.11476255  0.72232626
   0.24955179  0.78064420  0.72207372
   0.24927061  0.04066916  0.38929474
   0.00048412  0.43837367  0.55583145
   0.49985817  0.15391894  0.11079872
   0.74950566  0.70670068  0.38863138
   0.74989740  0.75610068  0.94447308
   0.75022894  0.86130975  0.49966261
   0.24989517  0.37954176  0.83309855
   0.00073197  0.12938584  0.33314531
   0.50055529  0.64172965  0.22155300
   0.74981024  0.52752899  0.49979275
   0.50030633  0.58010620  0.77793753
   0.00030115  0.46282931  0.33331529
   0.25006595  0.39818378  0.16651118
   0.00045932  0.77159987  0.55571067
   0.74995897  0.55266393  0.27827568
   0.00340421  0.95085229  0.44435773
   0.99920445  0.17678220  0.88869972
   0.49981687  0.48814375  0.11109456
   0.25293316  0.19244887  0.49904596
   0.49758329  0.43694427  0.55564019
   0.25146827  0.44782275  0.72309513
   0.74988949  0.19425827  0.49990247
   0.99998007  0.00004125  0.00018872
   0.75036008  0.71338260  0.83355685
   0.75136949  0.44634035  0.72315856
   0.25013305  0.86230741  0.49984888
   0.25045806  0.75545841  0.94447744
   0.24927900  0.52619991  0.49946247
   0.00092896  0.33328633  0.00028146
   0.99992977  0.82082437  0.11372247
   0.74872147  0.91161083  0.05656376
   0.50059382  0.12975838  0.33313534
   0.50088101  0.61885801  0.44400581
   0.74958925  0.37915645  0.83309900
   0.75005035  0.04359376  0.83359214
   0.00031881  0.64191796  0.22125992
   0.99868386  0.25846574  0.66730121
   0.74986852  0.57737176  0.05655080
   0.49967079  0.97500331  0.22195879
   0.74988295  0.39841243  0.16640259
   0.49572253  0.10595525  0.55525938
   0.25110623  0.91053295  0.05632212
   0.00126089  0.28359635  0.44425638
   0.25001601  0.06480884  0.16678446
   0.24836089  0.68498137  0.61046732
   0.25076309  0.34811295  0.61050921
   0.74754952  0.42325025  0.94453025
   0.25005873  0.57712925  0.05549633
   0.24941840  0.08951963  0.94504588
   0.25027455  0.73146545  0.16641539
   0.24944113  0.22004544  0.27729932
   0.99996294  0.91275762  0.77741569
   0.24935849  0.37288417  0.38930081
   0.99953975  0.24714764  0.77784164
   0.24980698  0.42326446  0.94527586
   0.74994366  0.73126293  0.16602165
   0.49965470  0.26021951  0.66621079
Direct configuration=    14
   0.49945717  0.30867754  0.22168779
   0.00070118  0.30850339  0.22160130
   0.24956005  0.24345599  0.05551990
   0.49996588  0.82061143  0.11060081
   0.00004795  0.48775759  0.11098688
   0.00148144  0.61760120  0.44376480
   0.25047156  0.01498889  0.61093686
   0.00060889  0.66661706  0.00030295
   0.75069806  0.78073013  0.72234807
   0.49987171  0.79637236  0.33329654
   0.24977592  0.11381673  0.72233157
   0.99984612  0.58089239  0.77749563
   0.00057451  0.59297416  0.66688972
   0.24951062  0.71321445  0.83296743
   0.74976410  0.34876029  0.61105583
   0.00123244  0.92567207  0.66713683
   0.24981463  0.88594230  0.27714577
   0.49921610  0.92620015  0.66636426
   0.50039648  0.91389825  0.77814092
   0.49961187  0.99889152  0.00043415
   0.50018019  0.24685131  0.77789555
   0.49998553  0.46276730  0.33343186
   0.00032032  0.97539920  0.22131829
   0.24911680  0.70712262  0.38913480
   0.49958214  0.66701838  0.00066959
   0.75027631  0.68286359  0.61084176
   0.75044206  0.01514026  0.61092792
   0.00020895  0.15410418  0.11070976
   0.24978244  0.04597920  0.83293599
   0.50091830  0.51289557  0.88929499
   0.99977438  0.84700373  0.88920554
   0.24996115  0.55207718  0.27792744
   0.49932172  0.77195608  0.55569176
   0.00061817  0.10505983  0.55545229
   0.50002708  0.59210799  0.66668431
   0.75033506  0.24352513  0.05560217
   0.50010698  0.28410559  0.44424704
   0.75008532  0.88577283  0.27817579
   0.75012042  0.21912733  0.27819174
   0.74989649  0.06462865  0.16643378
   0.99994881  0.51254461  0.88838894
   0.74858472  0.04114958  0.38873645
   0.50007465  0.84526089  0.88950185
   0.49984622  0.33398336  0.00013501
   0.50027798  0.17914882  0.88883089
   0.00042892  0.79665758  0.33349685
   0.74923593  0.37329970  0.38884337
   0.49905075  0.95178144  0.44455886
   0.75047247  0.08954062  0.94443873
   0.75029444  0.11476255  0.72232626
   0.24955179  0.78064420  0.72207371
   0.24927061  0.04066916  0.38929475
   0.00048412  0.43837367  0.55583145
   0.49985817  0.15391894  0.11079872
   0.74950566  0.70670068  0.38863141
   0.74989740  0.75610068  0.94447307
   0.75022894  0.86130975  0.49966262
   0.24989517  0.37954176  0.83309856
   0.00073197  0.12938584  0.33314532
   0.50055529  0.64172965  0.22155303
   0.74981024  0.52752899  0.49979276
   0.50030633  0.58010620  0.77793752
   0.00030115  0.46282931  0.33331529
   0.25006595  0.39818378  0.16651119
   0.00045932  0.77159987  0.55571067
   0.74995897  0.55266393  0.27827565
   0.00340421  0.95085229  0.44435773
   0.99920445  0.17678220  0.88869973
   0.49981687  0.48814375  0.11109455
   0.25293316  0.19244887  0.49904597
   0.49758329  0.43694427  0.55564019
   0.25146827  0.44782275  0.72309512
   0.74988949  0.19425827  0.49990247
   0.99998007  0.00004125  0.00018870
   0.75036008  0.71338260  0.83355686
   0.75136949  0.44634035  0.72315854
   0.25013305  0.86230741  0.49984888
   0.25045806  0.75545841  0.94447743
   0.24927900  0.52619991  0.49946247
   0.00092896  0.33328633  0.00028144
   0.99992977  0.82082437  0.11372232
   0.74872147  0.91161083  0.05656371
   0.50059382  0.12975838  0.33313537
   0.50088101  0.61885801  0.44400581
   0.74958925  0.37915645  0.83309901
   0.75005035  0.04359376  0.83359213
   0.00031881  0.64191796  0.22125997
   0.99868386  0.25846574  0.66730119
   0.74986852  0.57737176  0.05655074
   0.49967079  0.97500331  0.22195880
   0.74988295  0.39841243  0.16640260
   0.49572253  0.10595525  0.55525938
   0.25110623  0.91053295  0.05632206
   0.00126089  0.28359635  0.44425638
   0.25001601  0.06480884  0.16678446
   0.24836089  0.68498137  0.61046733
   0.25076309  0.34811295  0.61050920
   0.74754952  0.42325025  0.94453025
   0.25005873  0.57712925  0.05549633
   0.24941840  0.08951963  0.94504587
   0.25027455  0.73146545  0.16641540
   0.24944113  0.22004544  0.27729935
   0.99996294  0.91275762  0.77741571
   0.24935849  0.37288417  0.38930083
   0.99953975  0.24714764  0.77784163
   0.24980698  0.42326446  0.94527583
   0.74994366  0.73126293  0.16602168
   0.49965470  0.26021951  0.66621081
Direct configuration=    15
   0.49945717  0.30867754  0.22168781
   0.00070118  0.30850339  0.22160132
   0.24956005  0.24345599  0.05551989
   0.49996588  0.82061143  0.11060081
   0.00004795  0.48775759  0.11098687
   0.00148144  0.61760120  0.44376481
   0.25047156  0.01498889  0.61093686
   0.00060889  0.66661706  0.00030294
   0.75069806  0.78073013  0.72234807
   0.49987171  0.79637236  0.33329654
   0.24977592  0.11381673  0.72233156
   0.99984612  0.58089239  0.77749563
   0.00057451  0.59297416  0.66688971
   0.24951062  0.71321445  0.83296744
   0.74976410  0.34876029  0.61105584
   0.00123244  0.92567207  0.66713682
   0.24981463  0.88594230  0.27714579
   0.49921610  0.92620015  0.66636426
   0.50039648  0.91389825  0.77814092
   0.49961187  0.99889152  0.00043415
   0.50018019  0.24685131  0.77789554
   0.49998553  0.46276730  0.33343187
   0.00032032  0.97539920  0.22131832
   0.24911680  0.70712262  0.38913480
   0.49958214  0.66701838  0.00066957
   0.75027631  0.68286359  0.61084176
   0.75044206  0.01514026  0.61092792
   0.00020895  0.15410418  0.11070976
   0.24978244  0.04597920  0.83293601
   0.50091830  0.51289557  0.88929501
   0.99977438  0.84700373  0.88920555
   0.24996115  0.55207718  0.27792744
   0.49932172  0.77195608  0.55569176
   0.00061817  0.10505983  0.55545230
   0.50002708  0.59210799  0.66668431
   0.75033506  0.24352513  0.05560216
   0.50010698  0.28410559  0.44424704
   0.75008532  0.88577283  0.27817578
   0.75012042  0.21912733  0.27819174
   0.74989649  0.06462865  0.16643378
   0.99994881  0.51254461  0.88838895
   0.74858472  0.04114958  0.38873646
   0.50007465  0.84526089  0.88950185
   0.49984622  0.33398336  0.00013500
   0.50027798  0.17914882  0.88883089
   0.00042892  0.79665758  0.33349685
   0.74923593  0.37329970  0.38884338
   0.49905075  0.95178144  0.44455886
   0.75047247  0.08954062  0.94443873
   0.75029444  0.11476255  0.72232625
   0.24955179  0.78064420  0.72207370
   0.24927061  0.04066916  0.38929476
   0.00048412  0.43837367  0.55583145
   0.49985817  0.15391894  0.11079872
   0.74950566  0.70670068  0.38863142
   0.74989740  0.75610068  0.94447306
   0.75022894  0.86130975  0.49966263
   0.24989517  0.37954176  0.83309857
   0.00073197  0.12938584  0.33314533
   0.50055529  0.64172965  0.22155304
   0.74981024  0.52752899  0.49979277
   0.50030633  0.58010620  0.77793752
   0.00030115  0.46282931  0.33331529
   0.25006595  0.39818378  0.16651119
   0.00045932  0.77159987  0.55571066
   0.74995897  0.55266393  0.27827564
   0.00340421  0.95085229  0.44435773
   0.99920445  0.17678220  0.88869973
   0.49981687  0.48814375  0.11109454
   0.25293316  0.19244887  0.49904597
   0.49758329  0.43694427  0.55564019
   0.25146827  0.44782275  0.72309511
   0.74988949  0.19425827  0.49990248
   0.99998007  0.00004125  0.00018869
   0.75036008  0.71338260  0.83355687
   0.75136949  0.44634035  0.72315854
   0.25013305  0.86230741  0.49984888
   0.25045806  0.75545841  0.94447742
   0.24927900  0.52619991  0.49946247
   0.00092896  0.33328633  0.00028143
   0.99992977  0.82082437  0.11372224
   0.74872147  0.91161083  0.05656368
   0.50059382  0.12975838  0.33313539
   0.50088101  0.61885801  0.44400581
   0.74958925  0.37915645  0.83309901
   0.75005035  0.04359376  0.83359213
   0.00031881  0.64191796  0.22125999
   0.99868386  0.25846574  0.66730118
   0.74986852  0.57737176  0.05655070
   0.49967079  0.97500331  0.22195881
   0.74988295  0.39841243  0.16640260
   0.49572253  0.10595525  0.55525938
   0.25110623  0.91053295  0.05632202
   0.00126089  0.28359635  0.44425638
   0.25001601  0.06480884  0.16678445
   0.24836089  0.68498137  0.61046734
   0.25076309  0.34811295  0.61050920
   0.74754952  0.42325025  0.94453025
   0.25005873  0.57712925  0.05549632
   0.24941840  0.08951963  0.94504586
   0.25027455  0.73146545  0.16641541
   0.24944113  0.22004544  0.27729937
   0.99996294  0.91275762  0.77741573
   0.24935849  0.37288417  0.38930084
   0.99953975  0.24714764  0.77784163
   0.24980698  0.42326446  0.94527581
   0.74994366  0.73126293  0.16602169
   0.49965470  0.26021951  0.66621082
Direct configuration=    16
   0.49945717  0.30867754  0.22168782
   0.00070118  0.30850339  0.22160133
   0.24956005  0.24345599  0.05551989
   0.49996588  0.82061143  0.11060081
   0.00004795  0.48775759  0.11098687
   0.00148144  0.61760120  0.44376482
   0.25047156  0.01498889  0.61093686
   0.00060889  0.66661706  0.00030294
   0.75069806  0.78073013  0.72234807
   0.49987171  0.79637236  0.33329654
   0.24977592  0.11381673  0.72233155
   0.99984612  0.58089239  0.77749564
   0.00057451  0.59297416  0.66688970
   0.24951062  0.71321445  0.83296745
   0.74976410  0.34876029  0.61105584
   0.00123244  0.92567207  0.66713682
   0.24981463  0.88594230  0.27714580
   0.49921610  0.92620015  0.66636426
   0.50039648  0.91389825  0.77814091
   0.49961187  0.99889152  0.00043414
   0.50018019  0.24685131  0.77789554
   0.49998553  0.46276730  0.33343187
   0.00032032  0.97539920  0.22131833
   0.24911680  0.70712262  0.38913480
   0.49958214  0.66701838  0.00066956
   0.75027631  0.68286359  0.61084177
   0.75044206  0.01514026  0.61092792
   0.00020895  0.15410418  0.11070976
   0.24978244  0.04597920  0.83293601
   0.50091830  0.51289557  0.88929501
   0.99977438  0.84700373  0.88920555
   0.24996115  0.55207718  0.27792744
   0.49932172  0.77195608  0.55569177
   0.00061817  0.10505983  0.55545230
   0.50002708  0.59210799  0.66668431
   0.75033506  0.24352513  0.05560216
   0.50010698  0.28410559  0.44424704
   0.75008532  0.88577283  0.27817578
   0.75012042  0.21912733  0.27819173
   0.74989649  0.06462865  0.16643379
   0.99994881  0.51254461  0.88838896
   0.74858472  0.04114958  0.38873647
   0.50007465  0.84526089  0.88950185
   0.49984622  0.33398336  0.00013500
   0.50027798  0.17914882  0.88883090
   0.00042892  0.79665758  0.33349685
   0.74923593  0.37329970  0.38884339
   0.49905075  0.95178144  0.44455885
   0.75047247  0.08954062  0.94443873
   0.75029444  0.11476255  0.72232625
   0.24955179  0.78064420  0.72207370
   0.24927061  0.04066916  0.38929476
   0.00048412  0.43837367  0.55583145
   0.49985817  0.15391894  0.11079872
   0.74950566  0.70670068  0.38863143
   0.74989740  0.75610068  0.94447306
   0.75022894  0.86130975  0.49966263
   0.24989517  0.37954176  0.83309858
   0.00073197  0.12938584  0.33314533
   0.50055529  0.64172965  0.22155304
   0.74981024  0.52752899  0.49979277
   0.50030633  0.58010620  0.77793752
   0.00030115  0.46282931  0.33331529
   0.25006595  0.39818378  0.16651119
   0.00045932  0.77159987  0.55571066
   0.74995897  0.55266393  0.27827563
   0.00340421  0.95085229  0.44435773
   0.99920445  0.17678220  0.88869974
   0.49981687  0.48814375  0.11109454
   0.25293316  0.19244887  0.49904597
   0.49758329  0.43694427  0.55564019
   0.25146827  0.44782275  0.72309510
   0.74988949  0.19425827  0.49990248
   0.99998007  0.00004125  0.00018868
   0.75036008  0.71338260  0.83355687
   0.75136949  0.44634035  0.72315853
   0.25013305  0.86230741  0.49984888
   0.25045806  0.75545841  0.94447741
   0.24927900  0.52619991  0.49946247
   0.00092896  0.33328633  0.00028143
   0.99992977  0.82082437  0.11372221
   0.74872147  0.91161083  0.05656367
   0.50059382  0.12975838  0.33313540
   0.50088101  0.61885801  0.44400580
   0.74958925  0.37915645  0.83309901
   0.75005035  0.04359376  0.83359212
   0.00031881  0.64191796  0.22126001
   0.99868386  0.25846574  0.66730118
   0.74986852  0.57737176  0.05655069
   0.49967079  0.97500331  0.22195882
   0.74988295  0.39841243  0.16640261
   0.49572253  0.10595525  0.55525938
   0.25110623  0.91053295  0.05632201
   0.00126089  0.28359635  0.44425638
   0.25001601  0.06480884  0.16678445
   0.24836089  0.68498137  0.61046734
   0.25076309  0.34811295  0.61050920
   0.74754952  0.42325025  0.94453025
   0.25005873  0.57712925  0.05549632
   0.24941840  0.08951963  0.94504586
   0.25027455  0.73146545  0.16641542
   0.24944113  0.22004544  0.27729937
   0.99996294  0.91275762  0.77741573
   0.24935849  0.37288417  0.38930084
   0.99953975  0.24714764  0.77784163
   0.24980698  0.42326446  0.94527581
   0.74994366  0.73126293  0.16602170
   0.49965470  0.26021951  0.66621082
Direct configuration=    17
   0.49945717  0.30867754  0.22168782
   0.00070118  0.30850339  0.22160134
   0.24956005  0.24345599  0.05551988
   0.49996588  0.82061143  0.11060081
   0.00004795  0.48775759  0.11098686
   0.00148144  0.61760120  0.44376482
   0.25047156  0.01498889  0.61093686
   0.00060889  0.66661706  0.00030294
   0.75069806  0.78073013  0.72234807
   0.49987171  0.79637236  0.33329654
   0.24977592  0.11381673  0.72233155
   0.99984612  0.58089239  0.77749564
   0.00057451  0.59297416  0.66688970
   0.24951062  0.71321445  0.83296745
   0.74976410  0.34876029  0.61105585
   0.00123244  0.92567207  0.66713681
   0.24981463  0.88594230  0.27714581
   0.49921610  0.92620015  0.66636426
   0.50039648  0.91389825  0.77814091
   0.49961187  0.99889152  0.00043414
   0.50018019  0.24685131  0.77789554
   0.49998553  0.46276730  0.33343187
   0.00032032  0.97539920  0.22131834
   0.24911680  0.70712262  0.38913480
   0.49958214  0.66701838  0.00066956
   0.75027631  0.68286359  0.61084177
   0.75044206  0.01514026  0.61092792
   0.00020895  0.15410418  0.11070976
   0.24978244  0.04597920  0.83293601
   0.50091830  0.51289557  0.88929501
   0.99977438  0.84700373  0.88920555
   0.24996115  0.55207718  0.27792744
   0.49932172  0.77195608  0.55569177
   0.00061817  0.10505983  0.55545230
   0.50002708  0.59210799  0.66668431
   0.75033506  0.24352513  0.05560216
   0.50010698  0.28410559  0.44424704
   0.75008532  0.88577283  0.27817578
   0.75012042  0.21912733  0.27819173
   0.74989649  0.06462865  0.16643379
   0.99994881  0.51254461  0.88838896
   0.74858472  0.04114958  0.38873647
   0.50007465  0.84526089  0.88950186
   0.49984622  0.33398336  0.00013500
   0.50027798  0.17914882  0.88883090
   0.00042892  0.79665758  0.33349685
   0.74923593  0.37329970  0.38884339
   0.49905075  0.95178144  0.44455885
   0.75047247  0.08954062  0.94443873
   0.75029444  0.11476255  0.72232625
   0.24955179  0.78064420  0.72207369
   0.24927061  0.04066916  0.38929476
   0.00048412  0.43837367  0.55583145
   0.49985817  0.15391894  0.11079872
   0.74950566  0.70670068  0.38863143
   0.74989740  0.75610068  0.94447306
   0.75022894  0.86130975  0.49966263
   0.24989517  0.37954176  0.83309858
   0.00073197  0.12938584  0.33314533
   0.50055529  0.64172965  0.22155305
   0.74981024  0.52752899  0.49979277
   0.50030633  0.58010620  0.77793752
   0.00030115  0.46282931  0.33331529
   0.25006595  0.39818378  0.16651119
   0.00045932  0.77159987  0.55571066
   0.74995897  0.55266393  0.27827563
   0.00340421  0.95085229  0.44435773
   0.99920445  0.17678220  0.88869974
   0.49981687  0.48814375  0.11109453
   0.25293316  0.19244887  0.49904597
   0.49758329  0.43694427  0.55564019
   0.25146827  0.44782275  0.72309510
   0.74988949  0.19425827  0.49990248
   0.99998007  0.00004125  0.00018868
   0.75036008  0.71338260  0.83355687
   0.75136949  0.44634035  0.72315853
   0.25013305  0.86230741  0.49984888
   0.25045806  0.75545841  0.94447741
   0.24927900  0.52619991  0.49946247
   0.00092896  0.33328633  0.00028143
   0.99992977  0.82082437  0.11372219
   0.74872147  0.91161083  0.05656366
   0.50059382  0.12975838  0.33313541
   0.50088101  0.61885801  0.44400580
   0.74958925  0.37915645  0.83309901
   0.75005035  0.04359376  0.83359212
   0.00031881  0.64191796  0.22126001
   0.99868386  0.25846574  0.66730118
   0.74986852  0.57737176  0.05655068
   0.49967079  0.97500331  0.22195882
   0.74988295  0.39841243  0.16640261
   0.49572253  0.10595525  0.55525938
   0.25110623  0.91053295  0.05632200
   0.00126089  0.28359635  0.44425638
   0.25001601  0.06480884  0.16678445
   0.24836089  0.68498137  0.61046734
   0.25076309  0.34811295  0.61050920
   0.74754952  0.42325025  0.94453025
   0.25005873  0.57712925  0.05549632
   0.24941840  0.08951963  0.94504585
   0.25027455  0.73146545  0.16641542
   0.24944113  0.22004544  0.27729938
   0.99996294  0.91275762  0.77741574
   0.24935849  0.37288417  0.38930085
   0.99953975  0.24714764  0.77784162
   0.24980698  0.42326446  0.94527580
   0.74994366  0.73126293  0.16602171
   0.49965470  0.26021951  0.66621083
Direct configuration=    18
   0.49945717  0.30867754  0.22168782
   0.00070118  0.30850339  0.22160134
   0.24956005  0.24345599  0.05551988
   0.49996588  0.82061143  0.11060081
   0.00004795  0.48775759  0.11098686
   0.00148144  0.61760120  0.44376482
   0.25047156  0.01498889  0.61093686
   0.00060889  0.66661706  0.00030294
   0.75069806  0.78073013  0.72234807
   0.49987171  0.79637236  0.33329654
   0.24977592  0.11381673  0.72233155
   0.99984612  0.58089239  0.77749564
   0.00057451  0.59297416  0.66688970
   0.24951062  0.71321445  0.83296745
   0.74976410  0.34876029  0.61105585
   0.00123244  0.92567207  0.66713681
   0.24981463  0.88594230  0.27714581
   0.49921610  0.92620015  0.66636426
   0.50039648  0.91389825  0.77814091
   0.49961187  0.99889152  0.00043414
   0.50018019  0.24685131  0.77789554
   0.49998553  0.46276730  0.33343187
   0.00032032  0.97539920  0.22131834
   0.24911680  0.70712262  0.38913480
   0.49958214  0.66701838  0.00066956
   0.75027631  0.68286359  0.61084177
   0.75044206  0.01514026  0.61092792
   0.00020895  0.15410418  0.11070976
   0.24978244  0.04597920  0.83293601
   0.50091830  0.51289557  0.88929502
   0.99977438  0.84700373  0.88920555
   0.24996115  0.55207718  0.27792743
   0.49932172  0.77195608  0.55569177
   0.00061817  0.10505983  0.55545230
   0.50002708  0.59210799  0.66668431
   0.75033506  0.24352513  0.05560216
   0.50010698  0.28410559  0.44424704
   0.75008532  0.88577283  0.27817578
   0.75012042  0.21912733  0.27819173
   0.74989649  0.06462865  0.16643379
   0.99994881  0.51254461  0.88838896
   0.74858472  0.04114958  0.38873647
   0.50007465  0.84526089  0.88950186
   0.49984622  0.33398336  0.00013500
   0.50027798  0.17914882  0.88883090
   0.00042892  0.79665758  0.33349685
   0.74923593  0.37329970  0.38884339
   0.49905075  0.95178144  0.44455885
   0.75047247  0.08954062  0.94443873
   0.75029444  0.11476255  0.72232625
   0.24955179  0.78064420  0.72207369
   0.24927061  0.04066916  0.38929476
   0.00048412  0.43837367  0.55583145
   0.49985817  0.15391894  0.11079872
   0.74950566  0.70670068  0.38863143
   0.74989740  0.75610068  0.94447305
   0.75022894  0.86130975  0.49966263
   0.24989517  0.37954176  0.83309858
   0.00073197  0.12938584  0.33314533
   0.50055529  0.64172965  0.22155305
   0.74981024  0.52752899  0.49979277
   0.50030633  0.58010620  0.77793752
   0.00030115  0.46282931  0.33331529
   0.25006595  0.39818378  0.16651119
   0.00045932  0.77159987  0.55571066
   0.74995897  0.55266393  0.27827562
   0.00340421  0.95085229  0.44435773
   0.99920445  0.17678220  0.88869974
   0.49981687  0.48814375  0.11109453
   0.25293316  0.19244887  0.49904597
   0.49758329  0.43694427  0.55564019
   0.25146827  0.44782275  0.72309510
   0.74988949  0.19425827  0.49990248
   0.99998007  0.00004125  0.00018868
   0.75036008  0.71338260  0.83355687
   0.75136949  0.44634035  0.72315853
   0.25013305  0.86230741  0.49984888
   0.25045806  0.75545841  0.94447741
   0.24927900  0.52619991  0.49946247
   0.00092896  0.33328633  0.00028143
   0.99992977  0.82082437  0.11372218
   0.74872147  0.91161083  0.05656366
   0.50059382  0.12975838  0.33313541
   0.50088101  0.61885801  0.44400580
   0.74958925  0.37915645  0.83309901
   0.75005035  0.04359376  0.83359212
   0.00031881  0.64191796  0.22126002
   0.99868386  0.25846574  0.66730118
   0.74986852  0.57737176  0.05655067
   0.49967079  0.97500331  0.22195882
   0.74988295  0.39841243  0.16640261
   0.49572253  0.10595525  0.55525938
   0.25110623  0.91053295  0.05632200
   0.00126089  0.28359635  0.44425638
   0.25001601  0.06480884  0.16678445
   0.24836089  0.68498137  0.61046734
   0.25076309  0.34811295  0.61050920
   0.74754952  0.42325025  0.94453025
   0.25005873  0.57712925  0.05549632
   0.24941840  0.08951963  0.94504585
   0.25027455  0.73146545  0.16641542
   0.24944113  0.22004544  0.27729938
   0.99996294  0.91275762  0.77741574
   0.24935849  0.37288417  0.38930085
   0.99953975  0.24714764  0.77784162
   0.24980698  0.42326446  0.94527580
   0.74994366  0.73126293  0.16602171
   0.49965470  0.26021951  0.66621083
Direct configuration=    19
   0.49945717  0.30867754  0.22168783
   0.00070118  0.30850339  0.22160134
   0.24956005  0.24345599  0.05551988
   0.49996588  0.82061143  0.11060081
   0.00004795  0.48775759  0.11098686
   0.00148144  0.61760120  0.44376482
   0.25047156  0.01498889  0.61093686
   0.00060889  0.66661706  0.00030294
   0.75069806  0.78073013  0.72234807
   0.49987171  0.79637236  0.33329654
   0.24977592  0.11381673  0.72233155
   0.99984612  0.58089239  0.77749564
   0.00057451  0.59297416  0.66688970
   0.24951062  0.71321445  0.83296745
   0.74976410  0.34876029  0.61105585
   0.00123244  0.92567207  0.66713681
   0.24981463  0.88594230  0.27714581
   0.49921610  0.92620015  0.66636426
   0.50039648  0.91389825  0.77814091
   0.49961187  0.99889152  0.00043414
   0.50018019  0.24685131  0.77789554
   0.49998553  0.46276730  0.33343187
   0.00032032  0.97539920  0.22131835
   0.24911680  0.70712262  0.38913480
   0.49958214  0.66701838  0.00066955
   0.75027631  0.68286359  0.61084177
   0.75044206  0.01514026  0.61092792
   0.00020895  0.15410418  0.11070976
   0.24978244  0.04597920  0.83293602
   0.50091830  0.51289557  0.88929502
   0.99977438  0.84700373  0.88920555
   0.24996115  0.55207718  0.27792743
   0.49932172  0.77195608  0.55569177
   0.00061817  0.10505983  0.55545230
   0.50002708  0.59210799  0.66668431
   0.75033506  0.24352513  0.05560216
   0.50010698  0.28410559  0.44424704
   0.75008532  0.88577283  0.27817578
   0.75012042  0.21912733  0.27819173
   0.74989649  0.06462865  0.16643379
   0.99994881  0.51254461  0.88838896
   0.74858472  0.04114958  0.38873647
   0.50007465  0.84526089  0.88950186
   0.49984622  0.33398336  0.00013500
   0.50027798  0.17914882  0.88883090
   0.00042892  0.79665758  0.33349685
   0.74923593  0.37329970  0.38884339
   0.49905075  0.95178144  0.44455885
   0.75047247  0.08954062  0.94443873
   0.75029444  0.11476255  0.72232625
   0.24955179  0.78064420  0.72207369
   0.24927061  0.04066916  0.38929476
   0.00048412  0.43837367  0.55583145
   0.49985817  0.15391894  0.11079872
   0.74950566  0.70670068  0.38863143
   0.74989740  0.75610068  0.94447305
   0.75022894  0.86130975  0.49966263
   0.24989517  0.37954176  0.83309858
   0.00073197  0.12938584  0.33314533
   0.50055529  0.64172965  0.22155305
   0.74981024  0.52752899  0.49979277
   0.50030633  0.58010620  0.77793752
   0.00030115  0.46282931  0.33331529
   0.25006595  0.39818378  0.16651119
   0.00045932  0.77159987  0.55571066
   0.74995897  0.55266393  0.27827562
   0.00340421  0.95085229  0.44435773
   0.99920445  0.17678220  0.88869974
   0.49981687  0.48814375  0.11109453
   0.25293316  0.19244887  0.49904598
   0.49758329  0.43694427  0.55564019
   0.25146827  0.44782275  0.72309510
   0.74988949  0.19425827  0.49990248
   0.99998007  0.00004125  0.00018868
   0.75036008  0.71338260  0.83355687
   0.75136949  0.44634035  0.72315853
   0.25013305  0.86230741  0.49984888
   0.25045806  0.75545841  0.94447741
   0.24927900  0.52619991  0.49946247
   0.00092896  0.33328633  0.00028142
   0.99992977  0.82082437  0.11372218
   0.74872147  0.91161083  0.05656366
   0.50059382  0.12975838  0.33313541
   0.50088101  0.61885801  0.44400580
   0.74958925  0.37915645  0.83309901
   0.75005035  0.04359376  0.83359212
   0.00031881  0.64191796  0.22126002
   0.99868386  0.25846574  0.66730118
   0.74986852  0.57737176  0.05655067
   0.49967079  0.97500331  0.22195882
   0.74988295  0.39841243  0.16640261
   0.49572253  0.10595525  0.55525938
   0.25110623  0.91053295  0.05632199
   0.00126089  0.28359635  0.44425638
   0.25001601  0.06480884  0.16678445
   0.24836089  0.68498137  0.61046734
   0.25076309  0.34811295  0.61050920
   0.74754952  0.42325025  0.94453025
   0.25005873  0.57712925  0.05549632
   0.24941840  0.08951963  0.94504585
   0.25027455  0.73146545  0.16641542
   0.24944113  0.22004544  0.27729938
   0.99996294  0.91275762  0.77741574
   0.24935849  0.37288417  0.38930085
   0.99953975  0.24714764  0.77784162
   0.24980698  0.42326446  0.94527580
   0.74994366  0.73126293  0.16602171
   0.49965470  0.26021951  0.66621083
