Generated by pymatgen.io.lammps.data.LammpsData

24948  atoms

    1  atom types

0.000000 54.504395  xlo xhi
0.000000 63.033596  ylo yhi
0.000000 104.937693  zlo zhi
1.432581 0.000000 0.000000  xy xz yz

Masses

1  55.85

Atoms

2080   1  1.131964  2.844214 11.957648
4159   1  2.648389  0.512799 11.964084
14554  1  3.609437  2.844213 11.957648
16643  1  0.170916  0.512800 11.964084
2179   1  0.960717  2.846072 16.024614
4258   1  2.460930  0.533909 16.046872
14653  1  3.438190  2.846071 16.024614
20890  1  1.791036  1.679645 13.994301
2278   1  0.869011  2.860013 20.092697
4357   1  2.388629  0.544030 20.106867
14752  1  3.346484  2.860012 20.092696
20989  1  1.664821  1.696568 18.068837
2377   1  0.825903  2.868235 24.149492
4456   1  2.355868  0.549656 24.156251
14851  1  3.303376  2.868235 24.149492
21088  1  1.607015  1.706143 22.127024
2476   1  0.814927  2.871125 28.200887
4555   1  2.342053  0.552644 28.201058
14950  1  3.292400  2.871125 28.200887
21187  1  1.582498  1.711046 26.176761
21286  1  1.581949  1.712095 30.223974
2575   1  0.838269  2.868092 32.253944
4654   1  2.344315  0.553349 32.245399
15049  1  3.315741  2.868091 32.253944
21385  1  1.616323  1.708712 34.275094
2674   1  0.930613  2.855037 36.321384
4753   1  2.381384  0.552547 36.293864
15148  1  3.408086  2.855037 36.321383
21484  1  1.764999  1.693908 38.347991
2773   1  1.195163  2.868486 40.389555
4852   1  2.684704  0.563274 40.366849
15247  1  3.672636  2.868486 40.389555
21583  1  2.295871  1.755783 42.404210
17336  1  0.207232  0.563274 40.366849
2872   1  1.568747  2.925348 44.409736
4951   1  3.379864  0.574721 44.373656
21682  1  2.534171  1.743309 46.394330
17435  1  0.902391  0.574722 44.373656
9218   1  0.056698  1.743309 46.394330
2971   1  1.706526  2.909883 48.417077
5050   1  3.434979  0.567540 48.400777
21781  1  2.590166  1.735566 50.425919
17534  1  0.957506  0.567540 48.400778
9317   1  0.112694  1.735567 50.425919
5149   1  0.970885  0.564890 52.444691
15544  1  1.758469  2.903625 52.451115
17623  1  3.448358  0.564890 52.444691
5248   1  0.974454  0.563655 56.492324
9406   1  2.612008  1.733388 54.469648
15643  1  1.784452  2.903000 56.494338
17722  1  3.451927  0.563655 56.492323
21880  1  0.134536  1.733388 54.469648
5347   1  0.973838  0.563185 60.540878
9505   1  2.622195  1.733383 58.516635
15742  1  1.798308  2.904369 60.540505
17821  1  3.451311  0.563185 60.540877
21979  1  0.144722  1.733383 58.516635
5446   1  0.970565  0.563357 64.589816
9604   1  2.625876  1.734162 62.564628
15841  1  1.803775  2.906091 64.587898
17920  1  3.448038  0.563357 64.589816
22078  1  0.148404  1.734163 62.564628
5545   1  0.964892  0.564191 68.639116
9703   1  2.624547  1.735320 66.613196
15940  1  1.802172  2.908013 68.635976
18019  1  3.442365  0.564191 68.639116
22177  1  0.147075  1.735320 66.613196
5644   1  0.956376  0.565765 72.688316
9802   1  2.618516  1.737022 70.661995
16039  1  1.793652  2.910628 72.683913
18118  1  3.433849  0.565765 72.688316
22276  1  0.141043  1.737022 70.661996
9901   1  2.607099  1.739598 74.710062
22375  1  0.129627  1.739598 74.710062
5743   1  0.943733  0.568215 76.736261
10000  1  2.588071  1.743385 78.755719
16138  1  1.776874  2.914457 76.730180
18217  1  3.421206  0.568215 76.736261
22474  1  0.110599  1.743385 78.755719
5842   1  0.924061  0.571852 80.781124
10099  1  2.556247  1.748816 82.796669
16237  1  1.748053  2.919861 80.772613
18316  1  3.401534  0.571852 80.781124
22573  1  0.078775  1.748816 82.796669
5941   1  0.890738  0.577481 84.820306
10198  1  2.500879  1.755311 86.831561
16336  1  1.699089  2.926577 84.809143
18415  1  3.368210  0.577481 84.820306
22672  1  0.023407  1.755311 86.831561
6040   1  0.830814  0.583288 88.854521
10297  1  2.378875  1.762757 90.849825
16435  1  1.607250  2.934346 88.834540
18514  1  3.308286  0.583288 88.854521
20791  1  2.058625  1.700930  9.933014
6139   1  0.638713  0.585564 92.861405
16534  1  1.414808  2.918268 92.857904
18613  1  3.116185  0.585563 92.861405
4061   1  3.892281  2.918267 92.857903
16654  1  0.463394  7.521874 11.976475
22870  1  2.045229  5.183193 11.964903
18821  1  0.264815  4.004507 13.988057
111    1  1.182172  6.337764 13.994692
6337   1  2.742287  4.004507 13.988057
12585  1  3.659644  6.337764 13.994692
16753  1  0.338666  7.498187 16.026811
22969  1  1.900908  5.168705 16.020163
4269   1  2.816138  7.498187 16.026811
18920  1  0.143066  4.012031 18.054530
210    1  1.074170  6.334047 18.052851
6436   1  2.620539  4.012031 18.054530
12684  1  3.551642  6.334046 18.052851
16852  1  0.257598  7.499683 20.085893
23068  1  1.811377  5.177533 20.084669
4368   1  2.735071  7.499683 20.085893
19019  1  0.076019  4.023519 22.118398
309    1  1.009409  6.342414 22.115555
6535   1  2.553492  4.023519 22.118398
12783  1  3.486882  6.342414 22.115555
16951  1  0.214209  7.506394 24.147412
23167  1  1.765266  5.186408 24.146249
4467   1  2.691681  7.506394 24.147411
408    1  0.983333  6.348007 26.176519
6634   1  2.526599  4.029433 26.175055
12882  1  3.460806  6.348007 26.176519
17050  1  0.208164  7.508078 28.208681
23266  1  1.757270  5.188754 28.204492
507    1  0.996938  6.345741 30.237505
6733   1  2.535453  4.028546 30.230385
12981  1  3.474410  6.345741 30.237505
19316  1  0.117593  4.018475 34.293624
606    1  1.058426  6.337111 34.300554
6832   1  2.595066  4.018474 34.293623
13080  1  3.535899  6.337110 34.300554
17149  1  0.243046  7.502823 32.270133
23365  1  1.792258  5.182371 32.265780
4665   1  2.720519  7.502822 32.270133
19415  1  0.269950  4.011229 38.362220
705    1  1.183800  6.343133 38.356205
6931   1  2.747423  4.011229 38.362220
13179  1  3.661272  6.343133 38.356205
17248  1  0.326234  7.501102 36.327141
23464  1  1.889088  5.172100 36.331445
4764   1  2.803706  7.501101 36.327141
19514  1  0.570443  4.079175 42.402650
804    1  1.388791  6.401587 42.396111
7030   1  3.047915  4.079174 42.402650
13278  1  3.866264  6.401587 42.396111
17347  1  0.472646  7.533124 40.371731
23563  1  2.081856  5.200162 40.382632
19613  1  0.788204  4.089076 46.420662
903    1  1.563219  6.424109 46.427591
7129   1  3.265677  4.089076 46.420662
23662  1  2.327022  5.257209 44.415203
19712  1  0.886590  4.076268 50.439554
1002   1  1.670920  6.416677 50.451842
7228   1  3.364063  4.076268 50.439554
23761  1  2.470601  5.252221 48.435351
11386  1  2.549490  5.243707 52.461344
7327   1  0.935331  4.072700 54.475401
11485  1  2.595943  5.243264 56.498528
13575  1  1.739446  6.412900 54.482367
19801  1  3.412803  4.072700 54.475401
23959  1  0.118471  5.243264 56.498529
7426   1  0.963258  4.073970 58.518165
11584  1  2.624057  5.246127 60.540952
13674  1  1.783790  6.415316 58.520468
19900  1  3.440731  4.073970 58.518165
24058  1  0.146584  5.246127 60.540952
7525   1  0.978409  4.076390 62.563633
11683  1  2.638404  5.249111 64.585956
13773  1  1.810340  6.419065 62.562744
19999  1  3.455881  4.076390 62.563633
24157  1  0.160932  5.249112 64.585957
7624   1  0.983473  4.078728 66.610514
11782  1  2.641151  5.251907 68.632424
13872  1  1.822046  6.422240 66.607560
20098  1  3.460946  4.078727 66.610514
24256  1  0.163678  5.251907 68.632424
7723   1  0.979592  4.081378 70.657969
11881  1  2.633109  5.255449 72.679066
13971  1  1.820774  6.425572 70.653669
20197  1  3.457064  4.081378 70.657969
24355  1  0.155636  5.255449 72.679066
7822   1  0.966458  4.085116 74.704608
14070  1  1.806760  6.430290 74.699273
20296  1  3.443930  4.085116 74.704608
7921   1  0.941639  4.090461 78.748376
11980  1  2.613185  5.260581 76.723943
14169  1  1.777872  6.436942 78.742058
20395  1  3.419111  4.090461 78.748376
24454  1  0.135713  5.260581 76.723943
8020   1  0.899330  4.097306 82.786987
12079  1  2.577529  5.267440 80.764722
14268  1  1.728533  6.444824 82.779675
20494  1  3.376802  4.097305 82.786987
24553  1  0.100056  5.267440 80.764722
8119   1  0.825883  4.104914 86.817249
12178  1  2.517419  5.275141 84.798903
14367  1  1.648768  6.449951 86.812211
20593  1  3.303356  4.104914 86.817249
8218   1  0.693421  4.102837 90.842992
12277  1  2.417015  5.277921 88.827919
14466  1  1.523620  6.437353 90.846545
20692  1  3.170894  4.102837 90.842992
1993   1  4.001093  6.437352 90.846544
18722  1  0.464912  4.041925  9.939285
12     1  1.343708  6.380486  9.949044
6238   1  2.942384  4.041924  9.939285
12486  1  3.821181  6.380486  9.949044
12376  1  2.251284  5.249043 92.862376
2091   1  1.349755  9.859044 11.990265
4170   1  2.940866  7.521874 11.976474
14565  1  3.827227  9.859044 11.990265
2190   1  1.237717  9.830781 16.038837
14664  1  3.715189  9.830781 16.038837
20901  1  2.081967  8.673169 14.006703
6348   1  2.970446 11.008679 14.021154
18832  1  0.492973 11.008680 14.021154
2289   1  1.163951  9.826621 20.093598
14763  1  3.641424  9.826621 20.093598
18931  1  0.403890 10.992664 18.071710
21000  1  1.985419  8.661558 18.060069
6447   1  2.881362 10.992663 18.071710
2388   1  1.124253  9.830547 24.151956
14862  1  3.601725  9.830547 24.151956
19030  1  0.349418 10.992803 22.126495
21099  1  1.926467  8.665222 22.119112
6546   1  2.826890 10.992803 22.126494
2487   1  1.118109  9.832292 28.211022
4566   1  2.685636  7.508077 28.208681
14961  1  3.595581  9.832291 28.211022
19129  1  0.326705 10.996025 26.183244
21198  1  1.902626  8.669421 26.179780
6645   1  2.804177 10.996025 26.183243
19228  1  0.336031 10.996648 30.239011
21297  1  1.915449  8.667994 30.240204
6744   1  2.813503 10.996648 30.239011
2586   1  1.147324  9.830602 32.267802
15060  1  3.624797  9.830602 32.267802
19327  1  0.379668 10.998462 34.290030
21396  1  1.968473  8.664879 34.297368
6843   1  2.857140 10.998462 34.290030
2685   1  1.216172  9.835488 36.317866
15159  1  3.693645  9.835487 36.317866
19426  1  0.463128 11.014892 38.333634
21495  1  2.069960  8.678514 38.345368
6942   1  2.940601 11.014891 38.333634
2784   1  1.332323  9.865995 40.359621
4863   1  2.950119  7.533123 40.371731
15258  1  3.809796  9.865995 40.359621
19525  1  0.584894 11.053300 42.373719
21594  1  2.223425  8.726378 42.385562
7041   1  3.062367 11.053299 42.373719
17446  1  0.652007  7.582650 44.410005
2883   1  1.472877  9.907049 44.400066
4962   1  3.129480  7.582650 44.410004
15357  1  3.950349  9.907049 44.400066
19624  1  0.705336 11.078918 46.414576
21693  1  2.365783  8.752823 46.423694
7140   1  3.182809 11.078918 46.414575
17545  1  0.781727  7.588234 48.440975
2982   1  1.588486  9.919068 48.437520
5061   1  3.259200  7.588234 48.440975
15456  1  4.065959  9.919068 48.437520
19723  1  0.805486 11.085213 50.451758
21792  1  2.470643  8.753000 50.455403
7239   1  3.282959 11.085212 50.451758
5160   1  0.870841  7.583297 52.469147
15555  1  1.680294  9.920021 52.470597
17634  1  3.348313  7.583297 52.469147
5259   1  0.933397  7.584105 56.502562
9417   1  2.549905  8.752555 54.486679
15654  1  1.754036  9.924470 56.504039
17733  1  3.410870  7.584105 56.502562
7338   1  0.891066 11.090128 54.486177
19812  1  3.368538 11.090127 54.486177
5358   1  0.974956  7.588443 60.541323
9516   1  2.608103  8.757035 58.521911
15753  1  1.807644  9.930925 60.540529
17832  1  3.452428  7.588443 60.541323
7437   1  0.960614 11.098367 58.521022
19911  1  3.438086 11.098366 58.521022
5457   1  0.998257  7.592333 64.583740
9615   1  2.645631  8.762019 62.561334
15852  1  1.839804  9.935437 64.580881
17931  1  3.475729  7.592332 64.583740
7536   1  1.008469 11.104825 62.558736
20010  1  3.485942 11.104824 62.558736
5556   1  1.005758  7.595597 68.628629
9714   1  2.664229  8.765579 66.604254
15951  1  1.852546  9.938610 68.624693
18030  1  3.483230  7.595597 68.628629
7635   1  1.034182 11.108268 66.600465
20109  1  3.511654 11.108268 66.600465
22188  1  0.186757  8.765580 66.604254
5655   1  0.998929  7.599740 72.674393
9813   1  2.666204  8.769122 70.649446
16050  1  1.847865  9.942809 72.670401
18129  1  3.476401  7.599740 72.674393
7734   1  1.040179 11.111360 70.645547
20208  1  3.517651 11.111360 70.645547
22287  1  0.188731  8.769122 70.649446
9912   1  2.652414  8.774411 74.694895
7833   1  1.027854 11.116612 74.692013
20307  1  3.505327 11.116612 74.692013
22386  1  0.174941  8.774411 74.694895
5754   1  0.977206  7.605875 76.718805
10011  1  2.621410  8.781923 78.738182
16149  1  1.825862  9.949441 76.715683
18228  1  3.454679  7.605875 76.718805
7932   1  0.996649 11.124343 78.737560
20406  1  3.474122 11.124343 78.737560
5853   1  0.937305  7.613764 80.759482
10110  1  2.569197  8.789660 82.777742
16248  1  1.784450  9.957571 80.758471
18327  1  3.414778  7.613764 80.759482
8031   1  0.944147 11.131286 82.780960
20505  1  3.421620 11.131286 82.780960
5952   1  0.872760  7.620462 84.795571
10209  1  2.489309  8.790792 86.815166
16347  1  1.719416  9.962262 84.798710
18426  1  3.350232  7.620462 84.795571
8130   1  0.865820 11.128921 86.823368
20604  1  3.343292 11.128921 86.823368
6051   1  0.773961  7.616360 88.830908
10308  1  2.372926  8.770548 90.855415
16446  1  1.624269  9.952409 88.839460
18525  1  3.251434  7.616359 88.830908
8229   1  0.755580 11.103881 90.867370
20703  1  3.233052 11.103881 90.867370
20802  1  2.220626  8.717064  9.961144
6150   1  0.629502  7.580893 92.871464
16545  1  1.493611  9.913640 92.883347
18624  1  3.106975  7.580893 92.871464
6249   1  3.095893 11.052350  9.974944
4072   1  3.971083  9.913640 92.883347
18733  1  0.618420 11.052350  9.974944
22881  1  2.229478 12.194791 12.005279
4181   1  3.103150 14.529433 12.020658
16665  1  0.625678 14.529433 12.020658
122    1  1.372294 13.343832 14.036436
12596  1  3.849766 13.343832 14.036436
22980  1  2.124555 12.164843 16.053040
4280   1  3.000541 14.499947 16.067408
16764  1  0.523069 14.499947 16.067408
221    1  1.286828 13.326428 18.084651
12695  1  3.764300 13.326428 18.084651
23079  1  2.055127 12.157675 20.104097
4379   1  2.932494 14.492462 20.114625
16863  1  0.455022 14.492463 20.114625
320    1  1.234312 13.325150 22.134779
12794  1  3.711784 13.325150 22.134779
16962  1  0.417237 14.494669 24.162781
23178  1  2.017345 12.159982 24.157658
4478   1  2.894709 14.494669 24.162781
419    1  1.211116 13.328367 26.186023
12893  1  3.688589 13.328367 26.186023
17061  1  0.407081 14.498292 28.211018
23277  1  2.009513 12.162521 28.211564
4577   1  2.884554 14.498292 28.211018
518    1  1.216518 13.331014 30.236086
12992  1  3.693991 13.331014 30.236086
617    1  1.252300 13.335931 34.281971
13091  1  3.729772 13.335931 34.281971
17160  1  0.424766 14.502224 32.256921
23376  1  2.032512 12.164183 32.262577
4676   1  2.902238 14.502223 32.256921
716    1  1.322338 13.352125 38.322663
13190  1  3.799811 13.352125 38.322662
17259  1  0.472982 14.511841 36.298458
23475  1  2.089732 12.172649 36.307659
4775   1  2.950455 14.511841 36.298458
815    1  1.423255 13.382172 42.362039
13289  1  3.900727 13.382171 42.362038
17358  1  0.553478 14.533671 40.336995
23574  1  2.185037 12.199305 40.347694
4874   1  3.030951 14.533670 40.336995
914    1  1.528963 13.404469 46.403432
13388  1  4.006436 13.404468 46.403432
17457  1  0.653168 14.559035 44.376989
23673  1  2.300956 12.232285 44.388483
4973   1  3.130641 14.559035 44.376989
1013   1  1.625988 13.414408 50.443706
13487  1  4.103460 13.414408 50.443706
17556  1  0.751467 14.573204 48.418434
23772  1  2.406056 12.246851 48.429062
5072   1  3.228940 14.573203 48.418434
11397  1  2.499075 12.253483 52.466424
5171   1  0.846967 14.584166 52.458576
17645  1  3.324439 14.584165 52.458576
11496  1  2.581810 12.263363 56.501771
13586  1  1.717354 13.425179 54.481316
5270   1  0.939296 14.600469 56.496140
17744  1  3.416768 14.600469 56.496140
11595  1  2.646358 12.272982 60.537712
13685  1  1.797583 13.438662 58.517191
5369   1  1.014955 14.614124 60.532647
17843  1  3.492428 14.614124 60.532648
11694  1  2.687241 12.277912 64.577051
13784  1  1.855433 13.446931 62.554532
5468   1  1.064726 14.619159 64.572181
17942  1  3.542199 14.619158 64.572181
11793  1  2.705787 12.280303 68.620672
13883  1  1.888563 13.449679 66.596136
5567   1  1.089766 14.619949 68.616691
18041  1  3.567239 14.619949 68.616691
11892  1  2.704309 12.283832 72.667371
13982  1  1.899465 13.451514 70.642117
5666   1  1.092584 14.621980 72.665365
18140  1  3.570056 14.621980 72.665365
14081  1  1.889833 13.455996 74.690752
11991  1  2.683486 12.290316 76.714941
14180  1  1.859728 13.463459 78.739855
5765   1  1.074053 14.627726 76.716198
18239  1  3.551526 14.627726 76.716198
12090  1  2.642321 12.298199 80.761439
14279  1  1.807786 13.469791 82.787921
5864   1  1.033778 14.635374 80.767191
18338  1  3.511251 14.635374 80.767191
12189  1  2.578023 12.301183 84.806444
14378  1  1.730459 13.465469 86.834806
5963   1  0.969807 14.637813 84.816994
18437  1  3.447280 14.637813 84.816994
12288  1  2.485465 12.287637 88.851313
14477  1  1.622807 13.437835 90.881237
6062   1  0.877616 14.622830 88.865120
18536  1  3.355089 14.622830 88.865120
2004   1  4.100280 13.437834 90.881237
23     1  1.491796 13.386788  9.989791
12497  1  3.969269 13.386788  9.989791
12387  1  2.362070 12.247008 92.897076
6161   1  0.755504 14.580912 92.911870
18635  1  3.232976 14.580912 92.911870
2102   1  1.492772 16.863290 12.035563
6260   1  3.230064 18.054054 10.019662
14576  1  3.970244 16.863290 12.035563
20813  1  2.362682 15.720650 10.004947
18744  1  0.752592 18.054055 10.019662
2201   1  1.388159 16.836295 16.080418
6359   1  3.103539 18.013932 14.064785
14675  1  3.865632 16.836294 16.080418
20912  1  2.242781 15.678768 14.051348
18843  1  0.626067 18.013932 14.064785
2300   1  1.319246 16.830851 20.123258
6458   1  3.015906 18.001595 18.106331
14774  1  3.796719 16.830850 20.123258
21011  1  2.157564 15.662658 18.096751
18942  1  0.538434 18.001595 18.106331
2399   1  1.280451 16.834064 24.166216
6557   1  2.962106 18.002981 22.146540
14873  1  3.757923 16.834064 24.166216
21110  1  2.104887 15.661997 22.141930
19041  1  0.484633 18.002981 22.146540
2498   1  1.268138 16.838634 28.209755
6656   1  2.936308 18.007760 26.187903
14972  1  3.745611 16.838634 28.209755
21209  1  2.080310 15.665917 26.187687
19140  1  0.458836 18.007761 26.187903
6755   1  2.935615 18.012598 30.229747
19239  1  0.458142 18.012598 30.229747
21308  1  2.082232 15.670036 30.232787
2597   1  1.281606 16.843684 32.252077
6854   1  2.960174 18.019037 34.269903
15071  1  3.759078 16.843683 32.252077
19338  1  0.482702 18.019038 34.269903
21407  1  2.111804 15.676338 34.274957
2696   1  1.322687 16.852862 36.291415
6953   1  3.011826 18.030528 38.307429
15170  1  3.800160 16.852862 36.291415
19437  1  0.534353 18.030528 38.307429
21506  1  2.171673 15.690569 38.313598
2795   1  1.392206 16.869609 40.328635
7052   1  3.088068 18.046192 42.344139
15269  1  3.869679 16.869609 40.328635
19536  1  0.610595 18.046192 42.344139
21605  1  2.258315 15.713057 42.351741
2894   1  1.480934 16.887705 44.367009
7151   1  3.177886 18.057989 46.382545
15368  1  3.958406 16.887705 44.367009
19635  1  0.700414 18.057989 46.382545
21704  1  2.354344 15.730574 46.392221
2993   1  1.575595 16.899207 48.407597
7250   1  3.276145 18.067798 50.423176
15467  1  4.053068 16.899207 48.407597
19734  1  0.798672 18.067798 50.423176
21803  1  2.450700 15.741660 50.433582
3093   1  4.153478 16.912685 52.448926
15566  1  1.676005 16.912685 52.448926
7349   1  0.908588 18.088678 54.464299
9428   1  2.549668 15.757908 54.473521
15665  1  1.780768 16.935976 56.488246
19823  1  3.386061 18.088677 54.464299
7448   1  1.016761 18.115771 58.502787
9527   1  2.642063 15.777732 58.510806
15764  1  1.869289 16.954144 60.525806
19922  1  3.494234 18.115771 58.502787
7547   1  1.097262 18.127188 62.542254
9626   1  2.710449 15.787846 62.548814
15863  1  1.928689 16.958586 64.566668
20021  1  3.574734 18.127188 62.542254
7646   1  1.147233 18.125958 66.587181
9725   1  2.751553 15.789133 66.591477
15962  1  1.961070 16.956838 68.613142
20120  1  3.624706 18.125958 66.587181
7745   1  1.170786 18.122671 70.637543
9824   1  2.768325 15.788820 70.639317
16061  1  1.969200 16.956584 72.664351
20219  1  3.648258 18.122671 70.637543
7844   1  1.169505 18.123634 74.691736
9923   1  2.762449 15.791820 74.690813
20318  1  3.646978 18.123634 74.691736
7943   1  1.143246 18.129996 78.748492
10022  1  2.734089 15.798790 78.743993
16160  1  1.953733 16.961141 76.718582
20417  1  3.620718 18.129995 78.748492
8042   1  1.091100 18.137591 82.806166
10121  1  2.682413 15.805279 82.796959
16259  1  1.914315 16.968867 80.774101
20516  1  3.568572 18.137591 82.806166
8141   1  1.010384 18.135773 86.861539
10220  1  2.604463 15.801046 86.847994
16358  1  1.849424 16.972369 84.828691
20615  1  3.487857 18.135773 86.861538
8240   1  0.895593 18.108678 90.911357
10319  1  2.495456 15.772676 90.896155
16457  1  1.754788 16.958375 88.879837
20714  1  3.373065 18.108677 90.911357
3984   1  4.232261 16.958375 88.879837
16556  1  1.627836 16.915458 92.926987
4083   1  4.105308 16.915457 92.926987
34     1  1.614660 20.386934 10.033192
4192   1  3.198698 21.530046 12.060199
12508  1  4.092132 20.386934 10.033192
22892  1  2.351647 19.196661 12.049121
16676  1  0.721226 21.530047 12.060199
133    1  1.474737 20.350128 14.075417
4291   1  3.079467 21.515727 16.095971
12607  1  3.952210 20.350128 14.075417
22991  1  2.241157 19.174520 16.090590
16775  1  0.601994 21.515728 16.095971
232    1  1.383317 20.343776 18.111693
4390   1  3.008311 21.518446 20.128944
12706  1  3.860790 20.343776 18.111693
23090  1  2.170404 19.172859 20.128456
16874  1  0.530838 21.518446 20.128944
331    1  1.329292 20.347628 22.147616
4489   1  2.970700 21.523689 24.165611
12805  1  3.806765 20.347628 22.147616
23189  1  2.131031 19.177405 24.167221
16973  1  0.493227 21.523690 24.165611
430    1  1.303729 20.352782 26.186552
4588   1  2.957660 21.528347 28.205697
12904  1  3.781201 20.352781 26.186552
23288  1  2.117538 19.182392 28.207915
17072  1  0.480187 21.528347 28.205698
529    1  1.301556 20.357551 30.227232
13003  1  3.779028 20.357551 30.227232
628    1  1.321778 20.363354 34.267196
4687   1  2.965454 21.533010 32.246641
13102  1  3.799251 20.363354 34.267196
23387  1  2.127768 19.187603 32.248602
17171  1  0.487982 21.533010 32.246641
727    1  1.365896 20.372042 38.304913
4786   1  2.994448 21.539327 36.286246
13201  1  3.843368 20.372042 38.304913
17270  1  0.516975 21.539327 36.286246
23486  1  2.162699 19.195504 36.287256
826    1  1.433318 20.381866 42.340646
4885   1  3.046175 21.547328 40.323312
13300  1  3.910791 20.381865 42.340646
17369  1  0.568703 21.547328 40.323312
23585  1  2.223216 19.207473 40.323758
925    1  1.518736 20.387508 46.376135
4984   1  3.119488 21.552712 44.357913
13399  1  3.996208 20.387507 46.376135
17468  1  0.642016 21.552712 44.357913
23684  1  2.303944 19.218749 44.360066
1024   1  1.621243 20.393572 50.414053
5083   1  3.212881 21.553837 48.392132
13498  1  4.098715 20.393571 50.414053
17567  1  0.735409 21.553837 48.392132
23783  1  2.397395 19.225738 48.398210
5182   1  0.855241 21.565084 52.430210
11408  1  2.505768 19.239527 52.439021
17656  1  3.332713 21.565084 52.430210
1124   1  4.224407 20.417747 54.454954
5281   1  1.002941 21.604008 56.470428
11507  1  2.627972 19.270316 56.479315
13597  1  1.746934 20.417748 54.454954
17755  1  3.480414 21.604007 56.470428
5380   1  1.129444 21.630602 60.510891
11606  1  2.732759 19.293016 60.518127
13696  1  1.877054 20.453167 58.494212
17854  1  3.606917 21.630601 60.510891
5479   1  1.212627 21.629327 64.558469
11705  1  2.803149 19.295587 64.561518
13795  1  1.972302 20.464506 62.536089
17953  1  3.690099 21.629327 64.558469
5578   1  1.261646 21.619997 68.611476
11804  1  2.843719 19.290352 68.610910
13894  1  2.032188 20.459444 66.584602
18052  1  3.739118 21.619997 68.611476
5677   1  1.281529 21.614346 72.666245
11903  1  2.857861 19.287305 72.664481
13993  1  2.062944 20.452739 70.637631
18151  1  3.759001 21.614346 72.666245
14092  1  2.066657 20.451483 74.693201
5776   1  1.273840 21.615757 76.722674
12002  1  2.846061 19.290350 76.721041
14191  1  2.043105 20.456985 78.751639
18250  1  3.751312 21.615756 76.722674
5875   1  1.237322 21.623594 80.782989
12101  1  2.807508 19.298368 80.780151
14290  1  1.990366 20.466165 82.813122
18349  1  3.714795 21.623594 80.782989
5974   1  1.167686 21.633241 84.847028
12200  1  2.740332 19.304537 84.839604
14389  1  1.904762 20.469111 86.873677
18448  1  3.645159 21.633241 84.847027
6073   1  1.058096 21.630172 88.907441
12299  1  2.639978 19.294336 88.894415
14488  1  1.778904 20.446116 90.926112
18547  1  3.535569 21.630171 88.907441
2015   1  4.256377 20.446116 90.926112
6172   1  0.897677 21.587712 92.955576
12398  1  2.501077 19.250907 92.941747
18646  1  3.375150 21.587711 92.955576
2113   1  1.548316 23.864910 12.066599
6271   1  3.300636 25.050129 10.052158
14587  1  4.025788 23.864909 12.066598
20824  1  2.467522 22.719022 10.044645
22903  1  2.336472 26.205464 12.063357
18755  1  0.823164 25.050129 10.052158
2212   1  1.421635 23.861351 16.093895
6370   1  3.112720 25.033010 14.077662
14686  1  3.899108 23.861351 16.093895
20923  1  2.306479 22.688917 14.081033
23002  1  2.220037 26.211724 16.083116
18854  1  0.635248 25.033010 14.077662
2311   1  1.356106 23.866970 20.124550
6469   1  3.027477 25.039206 18.104026
14785  1  3.833578 23.866969 20.124550
21022  1  2.213133 22.689761 18.111057
23101  1  2.171738 26.216667 20.118229
18953  1  0.550004 25.039206 18.104026
2410   1  1.324256 23.871673 24.162179
6568   1  2.987075 25.044020 22.140233
14884  1  3.801728 23.871672 24.162178
21121  1  2.162633 22.695099 22.144998
23200  1  2.149051 26.220341 24.158230
2509   1  1.313412 23.875398 28.203467
6667   1  2.969504 25.047611 26.181030
14983  1  3.790884 23.875398 28.203467
21220  1  2.139828 22.699755 26.184005
23299  1  2.141998 26.222695 28.201757
6766   1  2.967831 25.050461 30.224332
21319  1  2.137359 22.703806 30.225383
2608   1  1.319434 23.878997 32.246084
6865   1  2.980187 25.053726 34.268088
15082  1  3.796906 23.878996 32.246084
21418  1  2.153563 22.708505 34.266751
23398  1  2.146782 26.224868 32.246694
2707   1  1.342283 23.883634 36.288003
6964   1  3.007729 25.057848 38.310685
15181  1  3.819755 23.883634 36.288003
21517  1  2.189786 22.714746 38.306256
23497  1  2.163250 26.227691 36.291566
2806   1  1.384016 23.888731 40.327497
7063   1  3.053435 25.060593 42.350025
15280  1  3.861488 23.888730 40.327497
19547  1  0.575962 25.060594 42.350025
21616  1  2.247672 22.720176 42.342522
23596  1  2.193425 26.230591 40.334943
2905   1  1.447604 23.889993 44.362305
7162   1  3.124163 25.056878 46.382215
15379  1  3.925076 23.889992 44.362305
19646  1  0.646691 25.056878 46.382215
21715  1  2.328042 22.720133 46.375170
23695  1  2.242197 26.230125 44.373754
3004   1  1.539248 23.885048 48.391999
7261   1  3.235734 25.049163 50.408068
15478  1  4.016721 23.885047 48.391999
19745  1  0.758261 25.049163 50.408068
21814  1  2.436163 22.720034 50.408034
23794  1  2.324330 26.221402 48.401601
3104   1  4.151304 23.889976 52.424058
15577  1  1.673832 23.889976 52.424058
11419  1  2.473037 26.215959 52.423348
7360   1  0.939012 25.070598 54.440497
9439   1  2.584506 22.745145 54.446596
15676  1  1.860795 23.937587 56.462497
19834  1  3.416485 25.070597 54.440496
11518  1  2.725778 26.271449 56.456677
3203   1  4.338267 23.937587 56.462497
7459   1  1.153187 25.126836 58.480176
9538   1  2.746955 22.790261 58.486188
15775  1  2.017774 23.966094 60.505980
19933  1  3.630659 25.126836 58.480176
11617  1  2.928671 26.296776 60.507100
7558   1  1.290276 25.128266 62.534115
9637   1  2.860707 22.798881 62.532274
15874  1  2.115330 23.958455 64.560231
20032  1  3.767748 25.128266 62.534114
11716  1  3.038775 26.281186 64.570391
7657   1  1.368678 25.113144 66.593309
9736   1  2.931003 22.788759 66.585832
15973  1  2.170932 23.945590 68.616558
20131  1  3.846150 25.113144 66.593309
11815  1  3.093726 26.267985 68.626500
24289  1  0.616253 26.267986 68.626500
7756   1  1.407209 25.102800 70.647302
9835   1  2.967851 22.779146 70.640725
16072  1  2.194236 23.938653 72.670078
20230  1  3.884682 25.102800 70.647302
11914  1  3.115900 26.261831 72.675571
24388  1  0.638428 26.261831 72.675571
7855   1  1.417519 25.099310 74.697839
9934   1  2.975897 22.776192 74.695202
20329  1  3.894992 25.099309 74.697839
22408  1  0.498425 22.776192 74.695203
7954   1  1.403812 25.101593 78.750006
10033  1  2.956417 22.780291 78.752061
16171  1  2.190662 23.938670 76.723299
20428  1  3.881285 25.101592 78.750006
12013  1  3.115950 26.260925 76.723533
24487  1  0.638478 26.260925 76.723533
8053   1  1.361016 25.109344 82.808927
10132  1  2.905435 22.790111 82.814787
16270  1  2.159488 23.944925 80.780893
20527  1  3.838489 25.109344 82.808927
12112  1  3.094223 26.264511 80.775207
24586  1  0.616750 26.264512 80.775207
8152   1  1.270859 25.122782 86.879650
10231  1  2.814376 22.799348 86.881530
16369  1  2.091454 23.956487 84.846962
20626  1  3.748331 25.122782 86.879649
12211  1  3.039423 26.273169 84.835937
8251   1  1.102311 25.124151 90.949487
10330  1  2.670762 22.785026 90.939524
16468  1  1.970564 23.963824 88.916135
20725  1  3.579783 25.124150 90.949487
12310  1  2.916404 26.289168 88.913136
16567  1  1.773117 23.926581 92.967881
12409  1  2.653544 26.267974 92.977355
4094   1  4.250590 23.926580 92.967881
45     1  1.595600 27.383177 10.052467
4203   1  3.053954 28.559702 12.041229
12519  1  4.073072 27.383177 10.052467
20835  1  2.098476 29.741524 10.052648
144    1  1.407445 27.384728 14.061616
4302   1  3.005906 28.562002 16.076179
12618  1  3.884918 27.384727 14.061616
20934  1  2.166243 29.734782 14.061392
243    1  1.353464 27.389403 18.096479
4401   1  2.980307 28.567029 20.112580
12717  1  3.830937 27.389403 18.096479
21033  1  2.148288 29.741023 18.091084
342    1  1.327652 27.393501 22.135279
4500   1  2.970035 28.568984 24.155394
12816  1  3.805124 27.393501 22.135279
21132  1  2.142058 29.742913 22.132454
441    1  1.317569 27.395567 26.178662
4599   1  2.967946 28.569744 28.201150
12915  1  3.795042 27.395567 26.178662
21231  1  2.141012 29.743231 26.177909
540    1  1.317544 27.396919 30.224232
13014  1  3.795016 27.396919 30.224232
21330  1  2.143151 29.742940 30.225218
639    1  1.326199 27.398477 34.270532
4698   1  2.971866 28.570254 32.248215
13113  1  3.803671 27.398476 34.270532
21429  1  2.148227 29.742567 34.273442
738    1  1.344460 27.400497 38.316581
4797   1  2.981861 28.571036 36.295757
13212  1  3.821933 27.400496 38.316581
21528  1  2.156955 29.742262 38.322175
837    1  1.375234 27.401522 42.360793
4896   1  2.999471 28.571799 40.343071
13311  1  3.852707 27.401522 42.360793
21627  1  2.171276 29.741497 42.370760
936    1  1.427070 27.397665 46.398547
4995   1  3.028860 28.570716 44.388120
13410  1  3.904543 27.397664 46.398547
21726  1  2.196886 29.738728 46.416582
1035   1  1.529643 27.384542 50.419380
5094   1  3.084541 28.564012 48.424223
13509  1  4.007116 27.384541 50.419380
21825  1  2.257156 29.730531 50.450239
5193   1  0.749802 28.548263 52.433499
17667  1  3.227275 28.548263 52.433499
5292   1  1.130429 28.604084 56.455121
13608  1  1.753678 27.393708 54.438953
17766  1  3.607902 28.604083 56.455120
9450   1  2.501054 29.717672 54.442309
1135   1  4.231151 27.393708 54.438952
5391   1  1.404379 28.615805 60.523222
13707  1  2.063054 27.460393 58.479673
17865  1  3.881851 28.615805 60.523222
9549   1  3.040857 29.779708 58.499593
5490   1  1.508030 28.598164 64.589309
13806  1  2.225736 27.449040 62.547194
17964  1  3.985503 28.598163 64.589308
9648   1  3.197564 29.760983 62.572674
22122  1  0.720091 29.760983 62.572674
5589   1  1.548894 28.589643 68.638182
13905  1  2.300676 27.433417 66.607254
18063  1  4.026366 28.589642 68.638182
9747   1  3.244507 29.753333 66.621687
22221  1  0.767035 29.753334 66.621688
5688   1  1.565549 28.585361 72.681487
14004  1  2.332995 27.425536 70.655911
18162  1  4.043021 28.585361 72.681487
9846   1  3.263824 29.748925 70.663871
22320  1  0.786352 29.748925 70.663871
14103  1  2.343103 27.422435 74.701022
9945   1  3.271940 29.746441 74.704464
22419  1  0.794468 29.746441 74.704464
5787   1  1.568646 28.583884 76.724316
14202  1  2.336486 27.422948 78.747383
18261  1  4.046118 28.583883 76.724316
10044  1  3.273117 29.745448 78.746501
22518  1  0.795645 29.745448 78.746501
5886   1  1.559474 28.584810 80.769939
14301  1  2.309338 27.426932 82.798926
18360  1  4.036946 28.584810 80.769939
10143  1  3.266731 29.746023 82.792086
22617  1  0.789259 29.746024 82.792086
5985   1  1.530751 28.588352 84.821266
14400  1  2.241482 27.435882 86.861478
18459  1  4.008223 28.588351 84.821265
10242  1  3.244362 29.748202 86.842756
22716  1  0.766890 29.748203 86.842757
6084   1  1.449185 28.596586 88.884657
14499  1  2.058649 27.455698 90.946775
18558  1  3.926657 28.596585 88.884657
10341  1  3.164683 29.758954 90.902891
22815  1  0.687211 29.758954 90.902891
6183   1  1.099172 28.602237 92.974094
18657  1  3.576644 28.602236 92.974094
2124   1  1.295473 30.913089 12.065386
6282   1  2.962184 32.079651 10.052128
14598  1  3.772945 30.913088 12.065386
22914  1  2.015032 33.266317 12.041911
10440  1  4.492505 33.266316 12.041911
2223   1  1.302569 30.916221 16.072977
6381   1  2.909915 32.095063 14.061882
14697  1  3.780041 30.916221 16.072977
23013  1  2.076886 33.270483 16.077182
10539  1  4.554359 33.270482 16.077182
2322   1  1.307841 30.917466 20.110709
6480   1  2.940012 32.093082 18.091683
14796  1  3.785313 30.917465 20.110709
23112  1  2.113193 33.267819 20.114091
10638  1  4.590665 33.267819 20.114091
2421   1  1.311971 30.917331 24.155065
6579   1  2.955546 32.092113 22.133409
10737  1  4.609275 33.265483 24.157787
14895  1  3.789444 30.917331 24.155065
23211  1  2.131802 33.265483 24.157787
2520   1  1.315446 30.916410 28.202086
6678   1  2.964097 32.090584 26.179383
10836  1  4.618341 33.262798 28.204706
14994  1  3.792919 30.916410 28.202086
23310  1  2.140868 33.262799 28.204706
6777   1  2.968576 32.088568 30.227341
2619   1  1.318694 30.915117 32.250431
6876   1  2.970097 32.086138 34.276365
10935  1  4.620895 33.259643 32.253185
15093  1  3.796166 30.915117 32.250430
23409  1  2.143422 33.259643 32.253185
2718   1  1.322203 30.913644 36.299591
6975   1  2.969182 32.083309 38.326183
11034  1  4.617827 33.255846 36.302505
15192  1  3.799675 30.913644 36.299591
23508  1  2.140354 33.255846 36.302505
2817   1  1.326851 30.911984 40.349380
7074   1  2.966498 32.080370 42.376550
11133  1  4.609291 33.251612 40.352405
15291  1  3.804324 30.911984 40.349380
23607  1  2.131819 33.251613 40.352405
2916   1  1.334716 30.909909 44.398962
7173   1  2.963101 32.077946 46.426068
11232  1  4.594985 33.248174 44.402059
15390  1  3.812188 30.909909 44.398961
23706  1  2.117512 33.248174 44.402059
3015   1  1.352049 30.906645 48.445116
7272   1  2.960022 32.076372 50.470093
11331  1  4.570867 33.247468 48.448238
15489  1  3.829521 30.906645 48.445116
23805  1  2.093395 33.247468 48.448238
3115   1  3.889242 30.899086 52.474181
11430  1  4.505692 33.252882 52.477011
15588  1  1.411769 30.899086 52.474181
23904  1  2.028220 33.252882 52.477012
7371   1  2.957957 32.075982 54.470903
11529  1  3.797012 33.242406 56.487542
15687  1  2.111378 30.910445 56.483246
24003  1  1.319540 33.242406 56.487542
7470   1  1.716664 32.076516 58.541976
11628  1  3.482986 33.232186 60.560555
15786  1  2.425244 30.919953 60.557394
19944  1  4.194136 32.076516 58.541976
24102  1  1.005513 33.232186 60.560555
7569   1  1.715231 32.075690 62.587095
11727  1  3.437731 33.234961 64.608339
15885  1  2.470399 30.915710 64.605432
20043  1  4.192704 32.075690 62.587095
24201  1  0.960259 33.234961 64.608339
7668   1  1.716065 32.074783 66.629456
11826  1  3.425024 33.235959 68.649868
15984  1  2.486544 30.912356 68.647045
20142  1  4.193538 32.074783 66.629456
24300  1  0.947551 33.235959 68.649868
7767   1  1.718806 32.073303 70.668756
11925  1  3.424328 33.234882 72.689317
16083  1  2.494984 30.909834 72.686402
20241  1  4.196278 32.073303 70.668756
24399  1  0.946856 33.234882 72.689317
7866   1  1.724061 32.071230 74.707769
20340  1  4.201534 32.071230 74.707769
7965   1  1.733149 32.068777 78.748785
12024  1  3.432401 33.232209 76.729739
16182  1  2.500710 30.907844 76.726353
20439  1  4.210622 32.068776 78.748785
24498  1  0.954928 33.232209 76.729739
8064   1  1.749312 32.066339 82.793679
12123  1  3.451281 33.228429 80.773716
16281  1  2.505609 30.906492 80.768945
20538  1  4.226785 32.066339 82.793679
24597  1  0.973808 33.228429 80.773716
8163   1  1.782351 32.064567 86.843896
12222  1  3.490152 33.223992 84.823934
16380  1  2.510679 30.906118 84.815541
20637  1  4.259823 32.064566 86.843896
24696  1  1.012680 33.223993 84.823934
8262   1  1.871279 32.056319 90.902225
12321  1  3.582899 33.217657 88.886185
16479  1  2.516021 30.906765 88.865265
20736  1  4.348752 32.056319 90.902225
24795  1  1.105427 33.217657 88.886185
12420  1  3.953267 33.218911 92.975182
16578  1  2.522506 30.910621 92.937452
24894  1  1.475795 33.218912 92.975182
56     1  0.987225 34.439272 10.054682
4214   1  2.731785 35.621142 12.065507
8372   1  4.235587 36.772936 10.055409
12530  1  3.464697 34.439271 10.054682
20846  1  1.758115 36.772936 10.055409
155    1  1.191518 34.445167 14.062853
4313   1  2.863452 35.620816 16.085094
8471   1  4.441393 36.797289 14.080148
12629  1  3.668990 34.445166 14.062853
20945  1  1.963920 36.797289 14.080148
254    1  1.257941 34.444659 18.098294
4412   1  2.922836 35.617932 20.121277
8570   1  4.540134 36.794749 18.107086
12728  1  3.735413 34.444658 18.098294
21044  1  2.062661 36.794749 18.107086
353    1  1.293267 34.441242 22.138151
4511   1  2.954065 35.613543 24.163013
8669   1  4.590411 36.790152 22.145041
12827  1  3.770740 34.441241 22.138151
21143  1  2.112938 36.790152 22.145041
452    1  1.310950 34.437770 26.183067
4610   1  2.968156 35.609033 28.208800
8768   1  4.615741 36.784783 26.188332
12926  1  3.788423 34.437770 26.183067
21242  1  2.138268 36.784784 26.188332
551    1  1.317596 34.433981 30.230534
8867   1  4.623975 36.779287 30.234615
13025  1  3.795069 34.433981 30.230534
21341  1  2.146502 36.779288 30.234615
650    1  1.315414 34.429519 34.279104
4709   1  2.969736 35.604076 32.256396
8966   1  4.617714 36.773015 34.281734
13124  1  3.792887 34.429518 34.279104
21440  1  2.140241 36.773015 34.281734
749    1  1.304638 34.424201 38.328110
4808   1  2.959817 35.598110 36.304441
9065   1  4.596714 36.765506 38.328313
13223  1  3.782110 34.424200 38.328109
21539  1  2.119241 36.765506 38.328314
848    1  1.284656 34.419101 42.376863
4907   1  2.937791 35.591504 40.352061
9164   1  4.559367 36.758662 42.372784
13322  1  3.762129 34.419101 42.376863
21638  1  2.081894 36.758662 42.372785
947    1  1.251948 34.417075 46.422780
5006   1  2.901340 35.587117 44.397280
9263   1  4.499511 36.757871 46.410631
13421  1  3.729420 34.417074 46.422780
21737  1  2.022039 36.757871 46.410631
1046   1  1.185121 34.422347 50.456323
5105   1  2.838260 35.590054 48.433397
9362   1  4.389523 36.768412 50.431314
13520  1  3.662594 34.422346 50.456323
21836  1  1.912050 36.768412 50.431315
5204   1  2.689249 35.604018 52.442469
5303   1  2.301615 35.548816 56.464680
9461   1  4.158740 36.758821 54.450899
13619  1  3.413206 34.434553 54.448391
21935  1  1.681267 36.758821 54.450899
1145   1  0.935734 34.434553 54.448391
5402   1  2.024946 35.536960 60.532297
9560   1  3.844216 36.692945 58.491422
13718  1  2.867639 34.373570 58.506326
17876  1  4.502418 35.536960 60.532297
22034  1  1.366743 36.692945 58.491422
5501   1  1.921012 35.553106 64.597785
9659   1  3.679326 36.703489 62.558464
13817  1  2.709626 34.390717 62.578604
17975  1  4.398485 35.553105 64.597785
22133  1  1.201854 36.703489 62.558464
5600   1  1.883241 35.559251 68.646455
9758   1  3.605346 36.717329 66.618132
13916  1  2.664199 34.396533 66.627331
18074  1  4.360713 35.559250 68.646455
22232  1  1.127874 36.717329 66.618132
5699   1  1.873981 35.559806 72.689963
9857   1  3.577801 36.722165 70.666746
14015  1  2.650204 34.397942 70.669496
18173  1  4.351453 35.559805 72.689963
22331  1  1.100329 36.722165 70.666746
9956   1  3.577316 36.720733 74.712394
14114  1  2.652407 34.396148 74.710526
22430  1  1.099844 36.720734 74.712394
5798   1  1.884090 35.556260 76.733862
10055  1  3.600043 36.714427 78.760579
14213  1  2.668936 34.391919 78.754059
18272  1  4.361562 35.556260 76.733862
22529  1  1.122571 36.714428 78.760580
5897   1  1.915190 35.549455 80.782520
10154  1  3.652276 36.704040 82.816460
14312  1  2.705768 34.385785 82.803616
18371  1  4.392662 35.549455 80.782520
22628  1  1.174804 36.704041 82.816460
5996   1  1.980133 35.539510 84.841128
10253  1  3.753749 36.690222 86.885310
14411  1  2.784475 34.377135 86.864761
18470  1  4.457606 35.539510 84.841128
22727  1  1.276277 36.690223 86.885310
6095   1  2.115706 35.524854 88.917254
10352  1  3.937286 36.691918 90.954086
14510  1  2.981494 34.360198 90.949406
18569  1  4.593178 35.524853 88.917254
22826  1  1.459814 36.691919 90.954086
6194   1  2.396876 35.552137 92.980484
2135   1  1.042312 37.962286 12.069916
6293   1  2.590650 39.104554 10.049161
10451  1  4.347504 40.297886 12.064575
14609  1  3.519785 37.962285 12.069916
22925  1  1.870031 40.297887 12.064575
67     1  0.965820 41.437157 10.038628
12541  1  3.443292 41.437157 10.038628
2234   1  1.185503 37.971416 16.097111
6392   1  2.771099 39.141905 14.084651
10550  1  4.484648 40.317332 16.100304
14708  1  3.662975 37.971415 16.097111
23024  1  2.007175 40.317332 16.100304
166    1  1.127299 41.481391 14.079931
12640  1  3.604771 41.481390 14.079930
2333   1  1.262889 37.967202 20.129164
6491   1  2.879005 39.144090 18.115468
10649  1  4.568494 40.315104 20.135188
14807  1  3.740361 37.967202 20.129164
23123  1  2.091021 40.315105 20.135188
265    1  1.234470 41.489856 18.117381
12739  1  3.711943 41.489856 18.117381
2432   1  1.303580 37.961240 24.169358
6590   1  2.939947 39.138194 22.151779
10748  1  4.615322 40.307835 24.175239
14906  1  3.781053 37.961239 24.169358
23222  1  2.137849 40.307835 24.175239
364    1  1.299547 41.484412 22.156474
12838  1  3.777020 41.484411 22.156474
2531   1  1.321494 37.955028 28.213880
6689   1  2.970677 39.131250 26.194177
10847  1  4.635323 40.300349 28.219361
15005  1  3.798967 37.955027 28.213880
23321  1  2.157850 40.300349 28.219361
463    1  1.333122 41.476385 26.199633
12937  1  3.810594 41.476385 26.199633
6788   1  2.979462 39.124360 30.239358
562    1  1.341018 41.468744 30.244587
13036  1  3.818490 41.468744 30.244587
2630   1  1.321502 37.948529 32.260069
6887   1  2.968517 39.116728 34.284594
10946  1  4.632826 40.292845 32.264321
15104  1  3.798974 37.948529 32.260069
23420  1  2.155354 40.292846 32.264321
661    1  1.324580 41.460436 34.288222
13135  1  3.802053 41.460435 34.288222
2729   1  1.304293 37.940769 36.305841
6986   1  2.936956 39.107425 38.327927
11045  1  4.607814 40.283808 36.307561
15203  1  3.781766 37.940769 36.305841
23519  1  2.130341 40.283808 36.307562
760    1  1.282310 41.449596 38.328541
13234  1  3.759783 41.449596 38.328541
2828   1  1.268570 37.932153 40.349636
7085   1  2.883051 39.098946 42.367466
11144  1  4.558664 40.273247 40.347430
15302  1  3.746043 37.932153 40.349635
23618  1  2.081192 40.273247 40.347430
859    1  1.213754 41.438545 42.364735
13333  1  3.691226 41.438544 42.364735
2927   1  1.211451 37.927229 44.388584
7184   1  2.802758 39.098210 46.399586
11243  1  4.484700 40.266688 44.382156
15401  1  3.688924 37.927228 44.388584
23717  1  2.007227 40.266688 44.382156
958    1  1.121610 41.434390 46.396952
13432  1  3.599083 41.434390 46.396952
3026   1  1.120785 37.932483 48.416347
7283   1  2.682474 39.103810 50.425071
11342  1  4.382872 40.268563 48.411461
15500  1  3.598257 37.932483 48.416347
23816  1  1.905399 40.268563 48.411462
1057   1  1.003132 41.433010 50.428983
13531  1  3.480605 41.433010 50.428983
3125   1  0.964604 37.936591 52.437786
11441  1  4.239520 40.262906 52.442749
15599  1  3.442076 37.936591 52.437786
23915  1  1.762047 40.262906 52.442750
7382   1  2.494200 39.082315 54.456874
11540  1  4.045352 40.216052 56.480332
15698  1  3.182823 37.881638 56.470713
24014  1  1.567879 40.216052 56.480332
13630  1  3.323627 41.408343 54.466419
7481   1  2.274286 39.026918 58.496018
11639  1  3.883243 40.188243 60.523398
15797  1  2.975864 37.856650 60.520842
19955  1  4.751759 39.026918 58.496018
24113  1  1.405771 40.188244 60.523398
13729  1  3.154413 41.364322 58.505198
7580   1  2.133889 39.025341 62.549692
11738  1  3.783273 40.195364 64.577499
15896  1  2.864558 37.871175 64.583759
20054  1  4.611362 39.025341 62.549692
24212  1  1.305800 40.195364 64.577499
13828  1  3.036190 41.356056 62.551054
7679   1  2.055399 39.039011 66.608664
11837  1  3.728685 40.206269 68.633749
15995  1  2.811914 37.882086 68.639659
20153  1  4.532872 39.039010 66.608664
24311  1  1.251213 40.206270 68.633749
13927  1  2.964371 41.365230 66.604652
7778   1  2.020560 39.046428 70.662579
11936  1  3.710332 40.209624 72.687118
16094  1  2.796268 37.884435 72.688858
20252  1  4.498033 39.046428 70.662579
24410  1  1.232859 40.209625 72.687118
14026  1  2.929503 41.372358 70.659465
7877   1  2.018408 39.045351 74.713232
20351  1  4.495881 39.045351 74.713232
14125  1  2.927218 41.371246 74.713229
7976   1  2.045274 39.037204 78.765837
12035  1  3.723130 40.204499 76.739878
16193  1  2.807974 37.880004 76.737605
20450  1  4.522747 39.037204 78.765837
24509  1  1.245657 40.204499 76.739878
14224  1  2.955787 41.362156 78.767934
8075   1  2.105196 39.024172 82.824849
12134  1  3.767014 40.192855 80.796045
16292  1  2.847790 37.870142 80.791319
20549  1  4.582669 39.024171 82.824849
24608  1  1.289541 40.192855 80.796045
14323  1  3.016503 41.349317 82.825307
8174   1  2.207743 39.013790 86.889062
12233  1  3.846514 40.180448 84.856586
16391  1  2.925977 37.856583 84.854550
20648  1  4.685215 39.013789 86.889062
24707  1  1.369041 40.180448 84.856586
14422  1  3.113642 41.344301 86.882634
8273   1  2.367104 39.031060 90.945552
12332  1  3.969744 40.183739 88.914783
16490  1  3.059983 37.850136 88.922117
24806  1  1.492272 40.183739 88.914783
14521  1  3.256437 41.369782 90.933126
12431  1  4.149423 40.231973 92.961405
16589  1  3.275587 37.893225 92.972505
24905  1  1.671951 40.231974 92.961405
4225   1  2.718532 42.632176 12.054166
8383   1  4.305461 43.770575 10.025535
20857  1  1.827989 43.770576 10.025535
2146   1  1.102460 44.966671 12.040766
14620  1  3.579933 44.966671 12.040766
4324   1  2.848786 42.658841 16.095824
8482   1  4.456682 43.818429 14.069813
20956  1  1.979209 43.818430 14.069813
2245   1  1.229402 44.997213 16.086342
14719  1  3.706874 44.997212 16.086342
4423   1  2.933155 42.659722 20.136386
8581   1  4.561534 43.831530 18.113246
21055  1  2.084061 43.831531 18.113247
2344   1  1.313020 45.000151 20.133125
14818  1  3.790492 45.000151 20.133125
4522   1  2.982066 42.652245 24.179473
8680   1  4.627015 43.827252 22.157720
21154  1  2.149543 43.827253 22.157720
2443   1  1.361477 44.993078 24.181498
14917  1  3.838950 44.993078 24.181498
4621   1  3.002108 42.644212 28.224778
8779   1  4.660640 43.819093 26.204088
21253  1  2.183167 43.819093 26.204088
2542   1  1.379342 44.985577 28.229888
15016  1  3.856814 44.985577 28.229888
8878   1  4.665895 43.811681 30.250218
21352  1  2.188422 43.811682 30.250219
4720   1  2.995863 42.636554 32.269359
8977   1  4.642941 43.803612 34.293165
21451  1  2.165468 43.803612 34.293165
2641   1  1.367795 44.978938 32.275351
15115  1  3.845268 44.978938 32.275351
4819   1  2.962497 42.626823 36.310621
9076   1  4.589845 43.791287 38.331551
21550  1  2.112373 43.791287 38.331551
2740   1  1.325334 44.969201 36.315760
15214  1  3.802806 44.969201 36.315760
4918   1  2.900597 42.613768 40.347797
9175   1  4.508283 43.775942 42.366699
21649  1  2.030810 43.775942 42.366699
2839   1  1.250857 44.952756 40.351840
15313  1  3.728329 44.952756 40.351840
5017   1  2.814025 42.603163 44.381882
9274   1  4.408183 43.766421 46.401215
21748  1  1.930711 43.766421 46.401215
2938   1  1.153011 44.936261 44.387005
15412  1  3.630484 44.936261 44.387005
5116   1  2.708302 42.599516 48.415216
9373   1  4.293379 43.759683 50.437687
21847  1  1.815906 43.759684 50.437687
3037   1  1.044618 44.927478 48.423602
15511  1  3.522090 44.927478 48.423602
5215   1  2.578199 42.588271 52.451981
15610  1  3.401745 44.914569 52.462400
5314   1  2.422142 42.550510 56.490929
9472   1  4.157664 43.736601 54.476915
21946  1  1.680192 43.736601 54.476916
15709  1  3.269944 44.885414 56.500957
5413   1  2.289403 42.524942 60.530825
9571   1  4.019642 43.702592 58.515059
17887  1  4.766876 42.524942 60.530825
22045  1  1.542170 43.702592 58.515059
15808  1  3.157861 44.863976 60.539126
5512   1  2.202467 42.526185 64.578462
9670   1  3.918752 43.691967 62.556783
17986  1  4.679940 42.526185 64.578462
22144  1  1.441279 43.691967 62.556784
15907  1  3.082405 44.861744 64.582918
5611   1  2.152688 42.534132 68.631653
9769   1  3.855740 43.696610 66.605693
18085  1  4.630160 42.534132 68.631653
22243  1  1.378267 43.696610 66.605694
16006  1  3.039046 44.866300 68.632943
5710   1  2.135379 42.536914 72.685964
9868   1  3.824653 43.701632 70.658812
18184  1  4.612851 42.536914 72.685964
22342  1  1.347181 43.701633 70.658812
16105  1  3.024477 44.867648 72.686075
9967   1  3.823497 43.699959 74.712919
22441  1  1.346024 43.699959 74.712919
5809   1  2.148824 42.531393 76.740270
10066  1  3.851933 43.690912 78.766893
18283  1  4.626296 42.531392 76.740270
22540  1  1.374461 43.690912 78.766893
16204  1  3.038181 44.862026 76.739476
5908   1  2.192868 42.519735 80.795430
10165  1  3.910602 43.679460 82.820278
18382  1  4.670341 42.519735 80.795430
22639  1  1.433130 43.679460 82.820278
16303  1  3.080654 44.851241 80.791560
6007   1  2.269305 42.510045 84.850789
10264  1  4.002735 43.678093 86.871616
18481  1  4.746778 42.510045 84.850789
22738  1  1.525262 43.678094 86.871616
16402  1  3.153785 44.843551 84.841449
6106   1  2.383924 42.519469 88.902702
10363  1  4.136083 43.706798 90.918935
22837  1  1.658611 43.706798 90.918935
16501  1  3.263368 44.855303 88.888755
6205   1  2.544268 42.568621 92.948282
16600  1  3.415087 44.903726 92.933788
6304   1  2.695741 46.104627 10.010748
10462  1  4.451124 47.301969 12.025458
22936  1  1.973652 47.301970 12.025458
177    1  1.246159 48.490167 14.041393
6403   1  2.845084 46.154500 14.056476
10561  1  4.579774 47.333194 16.074016
12651  1  3.723632 48.490167 14.041393
23035  1  2.102301 47.333195 16.074016
276    1  1.353444 48.503194 18.095141
6502   1  2.949451 46.169339 18.105071
10660  1  4.663816 47.335903 20.127153
12750  1  3.830916 48.503193 18.095141
23134  1  2.186343 47.335903 20.127153
375    1  1.418357 48.498603 22.152946
6601   1  3.014373 46.165599 22.156024
10759  1  4.710821 47.329162 24.181857
12849  1  3.895829 48.498603 22.152946
23233  1  2.233349 47.329162 24.181858
474    1  1.446527 48.492382 26.209745
6700   1  3.046001 46.158111 26.207379
10858  1  4.724478 47.323341 28.234546
12948  1  3.923999 48.492381 26.209745
23332  1  2.247005 47.323341 28.234546
573    1  1.440347 48.489474 30.261978
6799   1  3.046607 46.152235 30.256158
13047  1  3.917819 48.489474 30.261978
672    1  1.399906 48.485776 34.307337
6898   1  3.015789 46.145597 34.299667
10957  1  4.705740 47.319189 32.282141
13146  1  3.877378 48.485776 34.307337
23431  1  2.228267 47.319189 32.282141
771    1  1.322195 48.471267 38.345676
6997   1  2.951227 46.131889 38.337447
11056  1  4.652951 47.310432 36.323014
13245  1  3.799667 48.471267 38.345675
23530  1  2.175478 47.310432 36.323014
870    1  1.210621 48.442961 42.381637
7096   1  2.856191 46.110694 42.372837
11155  1  4.564533 47.289937 40.359070
13344  1  3.688093 48.442961 42.381637
23629  1  2.087061 47.289937 40.359070
969    1  1.091660 48.422489 46.419575
7195   1  2.748022 46.095406 46.409571
11254  1  4.453636 47.266444 44.395528
13443  1  3.569133 48.422489 46.419575
23728  1  1.976164 47.266444 44.395528
7294   1  2.635266 46.085958 50.447933
11353  1  4.340956 47.254148 48.433690
13542  1  3.455921 48.413096 50.457528
23827  1  1.863484 47.254148 48.433690
11452  1  4.226822 47.242574 52.472072
23926  1  1.749350 47.242574 52.472072
7393   1  2.513899 46.066890 54.486692
11551  1  4.111443 47.221302 56.509179
13641  1  3.344342 48.399319 54.494307
24025  1  1.633971 47.221302 56.509179
7492   1  2.396821 46.041448 58.523825
11650  1  4.014905 47.204417 60.546237
13740  1  3.242554 48.381125 58.530217
24124  1  1.537432 47.204417 60.546237
19966  1  4.874293 46.041448 58.523824
7591   1  2.309680 46.030919 62.563395
11749  1  3.949366 47.200502 64.588091
13839  1  3.166990 48.371801 62.568903
24223  1  1.471893 47.200502 64.588091
20065  1  4.787153 46.030919 62.563395
7690   1  2.254990 46.032206 66.609291
11848  1  3.912148 47.202283 68.635946
13938  1  3.119808 48.370911 66.613378
20164  1  4.732462 46.032206 66.609291
24322  1  1.434676 47.202283 68.635947
7789   1  2.228493 46.034824 70.660246
11947  1  3.900323 47.202227 72.687359
14037  1  3.097456 48.371592 70.662747
20263  1  4.705965 46.034824 70.660246
24421  1  1.422851 47.202227 72.687359
7888   1  2.228670 46.032499 74.712975
14136  1  3.098370 48.368919 74.713823
20362  1  4.706142 46.032498 74.712975
7987   1  2.255985 46.024081 78.764552
12046  1  3.913656 47.196855 76.738802
14235  1  3.123602 48.361548 78.762915
20461  1  4.733458 46.024081 78.764552
24520  1  1.436183 47.196855 76.738802
8086   1  2.312055 46.013930 82.813271
12145  1  3.953759 47.187230 80.787298
14334  1  3.176558 48.352428 82.807357
20560  1  4.789527 46.013930 82.813271
24619  1  1.476286 47.187230 80.787298
8185   1  2.401000 46.013687 86.859206
12244  1  4.024164 47.180248 84.831859
14433  1  3.263578 48.351062 86.847841
20659  1  4.878472 46.013687 86.859206
24718  1  1.546691 47.180248 84.831859
8284   1  2.530684 46.042101 90.903939
12343  1  4.131885 47.190929 88.874647
14532  1  3.394530 48.376054 90.889068
24817  1  1.654412 47.190929 88.874647
78     1  1.089843 48.439383  9.994952
12552  1  3.567315 48.439383  9.994952
12442  1  4.283647 47.237602 92.918510
24916  1  1.806174 47.237602 92.918511
2157   1  1.268258 51.976141 11.992870
4236   1  2.854068 49.638430 12.009113
14631  1  3.745730 51.976141 11.992869
2256   1  1.420511 51.996174 16.050511
4335   1  2.990609 49.666660 16.060992
8493   1  4.616259 50.825142 14.026240
14730  1  3.897983 51.996174 16.050511
20967  1  2.138786 50.825142 14.026241
2355   1  1.511271 51.990575 20.117457
4434   1  3.077309 49.666326 20.120886
8592   1  4.730704 50.832245 18.086426
14829  1  3.988743 51.990574 20.117457
21066  1  2.253231 50.832245 18.086426
2454   1  1.552489 51.984497 24.181224
4533   1  3.122332 49.659673 24.181560
8691   1  4.796039 50.825619 22.150484
14928  1  4.029961 51.984497 24.181224
21165  1  2.318566 50.825620 22.150485
2553   1  1.551880 51.984985 28.239853
4632   1  3.129792 49.656631 28.238320
8790   1  4.819055 50.821335 26.211102
15027  1  4.029353 51.984984 28.239853
21264  1  2.341583 50.821336 26.211102
8889   1  4.804054 50.822600 30.266459
21363  1  2.326581 50.822601 30.266460
2652   1  1.513007 51.990067 32.293776
4731   1  3.101787 49.656526 32.288892
8988   1  4.752018 50.823554 34.314973
15126  1  3.990479 51.990067 32.293776
21462  1  2.274545 50.823554 34.314973
2751   1  1.433428 51.988434 36.340181
4830   1  3.036786 49.650258 36.331621
9087   1  4.658296 50.809653 38.355108
15225  1  3.910900 51.988433 36.340180
21561  1  2.180824 50.809653 38.355108
2850   1  1.304999 51.960075 40.378069
4929   1  2.931148 49.625549 40.368262
9186   1  4.524134 50.773020 42.391477
15324  1  3.782472 51.960075 40.378069
21660  1  2.046661 50.773020 42.391477
5028   1  2.802572 49.594323 44.405466
9285   1  4.389675 50.748704 46.429168
15423  1  3.628176 51.920458 44.415050
21759  1  1.912203 50.748704 46.429168
5127   1  2.682712 49.580822 48.443255
9384   1  4.273524 50.742135 50.464447
15522  1  3.497566 51.908791 48.450095
21858  1  1.796052 50.742135 50.464448
5226   1  2.571978 49.572854 52.479265
15621  1  3.388742 51.906019 52.482085
5325   1  2.468700 49.558637 56.514346
9483   1  4.169225 50.734162 54.498238
15720  1  3.296154 51.897639 56.515398
21957  1  1.691753 50.734163 54.498238
17799  1  4.946173 49.558637 56.514346
5424   1  2.385020 49.545928 60.550912
9582   1  4.080146 50.721805 58.533273
15819  1  3.224621 51.888203 60.552589
22056  1  1.602674 50.721806 58.533273
17898  1  4.862493 49.545928 60.550912
5523   1  2.328495 49.541376 64.592330
9681   1  4.015286 50.713915 62.572282
15918  1  3.176894 51.883530 64.594884
22155  1  1.537814 50.713915 62.572283
17997  1  4.805968 49.541376 64.592329
5622   1  2.296775 49.541226 68.639229
9780   1  3.975099 50.711739 66.616708
16017  1  3.150149 51.882224 68.641903
18096  1  4.774247 49.541226 68.639229
22254  1  1.497626 50.711739 66.616708
5721   1  2.286995 49.540229 72.689368
9879   1  3.956183 50.711162 70.665405
16116  1  3.141614 51.880826 72.691556
18195  1  4.764467 49.540229 72.689368
22353  1  1.478710 50.711162 70.665406
9978   1  3.956930 50.708567 74.715429
22452  1  1.479458 50.708567 74.715429
5820   1  2.298979 49.535511 76.739171
10077  1  3.978706 50.702643 78.763100
16215  1  3.151133 51.877089 76.740626
18294  1  4.776451 49.535511 76.739171
22551  1  1.501233 50.702643 78.763100
5919   1  2.335467 49.527350 80.784957
10176  1  4.026640 50.694829 82.804897
16314  1  3.181902 51.870853 80.785559
18393  1  4.812939 49.527350 80.784957
22650  1  1.549167 50.694829 82.804897
6018   1  2.402575 49.520314 84.824839
10275  1  4.110804 50.691195 86.840143
16413  1  3.242486 51.864259 84.822929
18492  1  4.880047 49.520314 84.824839
22749  1  1.633331 50.691195 86.840143
6117   1  2.510409 49.527023 88.862117
10374  1  4.246790 50.709370 90.875666
16512  1  3.349179 51.865277 88.853772
18591  1  4.987881 49.527023 88.862117
22848  1  1.769317 50.709370 90.875666
8394   1  4.441878 50.775231  9.978856
20868  1  1.964406 50.775231  9.978856
6216   1  2.670630 49.570350 92.903224
16611  1  3.526821 51.901912 92.889061
10473  1  4.656716 54.313952 11.979262
22947  1  2.179243 54.313952 11.979262
4247   1  3.139726 56.644157 11.978194
188    1  1.522494 55.481332 14.013218
6414   1  3.051340 53.157523 14.014191
10572  1  4.833077 54.318270 16.048580
12662  1  3.999967 55.481331 14.013218
23046  1  2.355605 54.318271 16.048581
4346   1  3.330102 56.629789 16.062369
287    1  1.649190 55.470015 18.090004
6513   1  3.176090 53.154754 18.083346
10671  1  4.922654 54.308840 20.119535
12761  1  4.126663 55.470014 18.090003
23145  1  2.445181 54.308840 20.119535
4445   1  3.397977 56.624747 20.124477
386    1  1.699273 55.465003 22.151344
6612   1  3.238901 53.146903 22.150235
10770  1  4.955293 54.305075 24.180208
12860  1  4.176745 55.465003 22.151344
23244  1  2.477820 54.305075 24.180208
4544   1  3.416648 56.624065 24.177343
485    1  1.705743 55.465766 26.206121
6711   1  3.254395 53.145285 26.210334
10869  1  4.946520 54.308469 28.236937
12959  1  4.183216 55.465765 26.206121
23343  1  2.469048 54.308469 28.236937
4643   1  3.402440 56.628338 28.228508
584    1  1.674759 55.473598 30.261436
6810   1  3.229849 53.150857 30.267273
13058  1  4.152231 55.473597 30.261436
683    1  1.598438 55.486871 34.319978
6909   1  3.164836 53.157956 34.320409
10968  1  4.897474 54.318462 32.293730
13157  1  4.075911 55.486871 34.319978
23442  1  2.420002 54.318462 32.293730
4742   1  3.349945 56.639922 32.284725
782    1  1.459267 55.484145 38.371758
7008   1  3.051015 53.147349 38.364386
11067  1  4.801183 54.324108 36.346536
13256  1  3.936739 55.484145 38.371758
23541  1  2.323710 54.324108 36.346537
4841   1  3.238447 56.654499 36.346660
881    1  1.239138 55.426649 42.408259
7107   1  2.883736 53.100980 42.400883
11166  1  4.640901 54.294074 40.387252
13355  1  3.716611 55.426649 42.408259
23640  1  2.163428 54.294074 40.387252
4940   1  3.030309 56.627958 40.394391
7206   1  2.726826 53.075304 46.436176
11265  1  4.446978 54.245608 44.422372
13454  1  3.527391 55.404403 46.437401
23739  1  1.969506 54.245608 44.422372
5039   1  2.770077 56.571635 44.424413
7305   1  2.606171 53.074211 50.466319
11364  1  4.302181 54.239745 48.451339
13553  1  3.404172 55.410419 50.460429
23838  1  1.824708 54.239745 48.451339
5138   1  2.611575 56.575815 48.443034
17612  1  5.089047 56.575814 48.443034
11463  1  4.196649 54.242523 52.478657
23937  1  1.719177 54.242523 52.478657
5237   1  2.516824 56.581952 52.468385
17711  1  4.994297 56.581952 52.468385
7404   1  2.509291 53.071575 54.497122
11562  1  4.116471 54.238025 56.512048
13652  1  3.318903 55.411096 54.490622
24036  1  1.638999 54.238026 56.512048
5336   1  2.453662 56.578832 56.505628
19878  1  4.986764 53.071574 54.497122
17810  1  4.931134 56.578831 56.505628
7503   1  2.432965 53.063333 58.532648
11661  1  4.057868 54.230755 60.551522
13751  1  3.257438 55.405113 58.529062
24135  1  1.580395 54.230755 60.551522
5435   1  2.409145 56.573038 60.548684
19977  1  4.910437 53.063333 58.532648
17909  1  4.886617 56.573037 60.548684
7602   1  2.378962 53.056653 62.573317
11760  1  4.019081 54.226281 64.595691
13850  1  3.214833 55.399459 62.572446
24234  1  1.541608 54.226281 64.595692
5534   1  2.379412 56.569135 64.595110
20076  1  4.856435 53.056653 62.573317
18008  1  4.856884 56.569135 64.595110
7701   1  2.345562 53.053853 66.618742
11859  1  3.996962 54.224482 68.643539
13949  1  3.188122 55.396604 66.619419
24333  1  1.519489 54.224482 68.643539
5633   1  2.361655 56.567413 68.644002
20175  1  4.823035 53.053853 66.618741
18107  1  4.839128 56.567413 68.644002
7800   1  2.329477 53.052658 70.667577
11958  1  3.989009 54.223142 72.693343
14048  1  3.174425 55.395330 70.668835
20274  1  4.806950 53.052658 70.667577
24432  1  1.511536 54.223142 72.693343
5732   1  2.353821 56.566478 72.694191
18206  1  4.831294 56.566478 72.694190
7899   1  2.329163 53.050518 74.717345
14147  1  3.172343 55.393897 74.718857
20373  1  4.806636 53.050518 74.717344
7998   1  2.346018 53.046247 78.764816
12057  1  3.995013 54.220589 76.742531
14246  1  3.182920 55.391353 78.766972
20472  1  4.823491 53.046247 78.764816
24531  1  1.517541 54.220589 76.742531
5831   1  2.355517 56.565168 76.743841
18305  1  4.832989 56.565168 76.743841
8097   1  2.385430 53.040507 82.806735
12156  1  4.018012 54.216385 80.788000
14345  1  3.210904 55.387686 82.810224
20571  1  4.862902 53.040507 82.806735
24630  1  1.540540 54.216385 80.788000
5930   1  2.368840 56.563056 80.790548
18404  1  4.846313 56.563055 80.790548
8196   1  2.461227 53.035606 86.839283
12255  1  4.065976 54.211788 84.827007
14444  1  3.267118 55.384754 86.846877
20670  1  4.938699 53.035606 86.839283
24729  1  1.588503 54.211788 84.827007
6029   1  2.400242 56.560153 84.831328
18503  1  4.877714 56.560153 84.831327
8295   1  2.601730 53.043780 90.866238
12354  1  4.162009 54.208626 88.853951
14543  1  3.394940 55.383799 90.866027
24828  1  1.684537 54.208627 88.853951
6128   1  2.462684 56.559628 88.866740
18602  1  4.940156 56.559628 88.866740
89     1  1.247601 55.452830  9.950203
6315   1  2.841802 53.112900  9.963397
12563  1  3.725073 55.452829  9.950203
12453  1  4.363799 54.232343 92.878191
24927  1  1.886326 54.232343 92.878191
6227   1  2.662023 56.564998 92.873931
18701  1  5.139496 56.564998 92.873931
2168   1  1.776943 58.946748 12.018693
14642  1  4.254415 58.946748 12.018693
2267   1  1.861223 58.940829 16.076314
8504   1  5.015472 57.787224 14.037659
14741  1  4.338695 58.940829 16.076314
20978  1  2.538000 57.787224 14.037659
6425   1  3.611242 60.096830 14.052441
2366   1  1.885096 58.941895 20.126011
8603   1  5.100649 57.783610 18.099669
14840  1  4.362569 58.941894 20.126011
21077  1  2.623177 57.783610 18.099669
6524   1  3.610236 60.099819 18.100610
2465   1  1.886338 58.943466 24.171971
8702   1  5.126523 57.783039 22.150936
14939  1  4.363811 58.943466 24.171970
21176  1  2.649050 57.783039 22.150936
6623   1  3.605089 60.102211 22.146525
2564   1  1.870082 58.947197 28.217031
8801   1  5.123726 57.785136 26.198735
15038  1  4.347555 58.947196 28.217030
21275  1  2.646253 57.785136 26.198735
6722   1  3.593572 60.104954 26.189942
8900   1  5.093447 57.791833 30.248294
21374  1  2.615975 57.791834 30.248294
6821   1  3.570530 60.109299 30.233544
2663   1  1.827343 58.955174 32.266204
8999   1  5.017313 57.806616 34.307757
15137  1  4.304816 58.955174 32.266203
21473  1  2.539840 57.806616 34.307758
6920   1  3.519131 60.117025 34.282535
2762   1  1.719802 58.972661 36.331272
9098   1  4.850236 57.817534 38.373471
15236  1  4.197275 58.972660 36.331272
21572  1  2.372763 57.817534 38.373471
7019   1  3.356072 60.136251 38.354095
2861   1  1.437852 58.960120 40.397265
9197   1  4.533112 57.749723 42.411151
15335  1  3.915325 58.960120 40.397265
21671  1  2.055639 57.749724 42.411151
7118   1  2.804368 60.073681 42.409573
9296   1  4.300723 57.739685 46.427471
15434  1  3.526474 58.903881 44.415679
21770  1  1.823250 57.739686 46.427471
7217   1  2.553410 60.085623 46.397927
19691  1  5.030883 60.085622 46.397927
9395   1  4.187172 57.750740 50.445406
15533  1  3.374293 58.918191 48.421784
21869  1  1.709700 57.750741 50.445406
7316   1  2.482720 60.091411 50.428844
19790  1  4.960192 60.091410 50.428843
15632  1  3.307046 58.921927 52.455398
9494   1  4.122413 57.751185 54.481071
15731  1  3.264980 58.919039 56.498715
21968  1  1.644941 57.751185 54.481071
7415   1  2.445380 60.090416 54.472522
19889  1  4.922853 60.090415 54.472521
9593   1  4.078070 57.746440 58.524145
15830  1  3.235145 58.914722 60.545325
22067  1  1.600597 57.746440 58.524146
7514   1  2.419198 60.086986 58.519698
19988  1  4.896670 60.086986 58.519698
9692   1  4.047177 57.741953 62.570456
15929  1  3.214388 58.911846 64.593649
22166  1  1.569705 57.741953 62.570456
7613   1  2.399970 60.084036 62.568148
20087  1  4.877443 60.084036 62.568148
9791   1  4.027014 57.739582 66.618935
16028  1  3.200775 58.910678 68.643326
22265  1  1.549541 57.739582 66.618935
7712   1  2.386172 60.082611 66.617570
20186  1  4.863645 60.082611 66.617569
9890   1  4.015397 57.738662 70.668922
16127  1  3.192781 58.910401 72.693701
22364  1  1.537925 57.738662 70.668922
7811   1  2.376441 60.082380 70.667744
20285  1  4.853914 60.082380 70.667744
9989   1  4.011094 57.738077 74.719214
22463  1  1.533622 57.738077 74.719214
7910   1  2.369701 60.082743 74.717882
20384  1  4.847173 60.082743 74.717882
10088  1  4.014420 57.737192 78.768024
16226  1  3.189718 58.910314 76.743520
22562  1  1.536947 57.737192 78.768025
8009   1  2.365322 60.083405 78.766631
20483  1  4.842795 60.083405 78.766631
10187  1  4.028125 57.735885 82.812979
16325  1  3.192088 58.910203 80.791011
22661  1  1.550652 57.735885 82.812979
8108   1  2.363073 60.084517 82.812044
20582  1  4.840545 60.084517 82.812044
10286  1  4.059967 57.733682 86.850281
16424  1  3.202375 58.910118 84.833455
22760  1  1.582495 57.733682 86.850281
8207   1  2.362892 60.086604 86.849943
20681  1  4.840364 60.086604 86.849942
10385  1  4.116938 57.737814 90.885097
16523  1  3.227509 58.908608 88.863192
22859  1  1.639465 57.737814 90.885098
8306   1  2.364322 60.090152 90.857087
20780  1  4.841794 60.090151 90.857087
8405   1  4.652260 57.784704  9.950025
20879  1  2.174787 57.784704  9.950025
16622  1  3.168788 58.923719 92.871906
6326   1  3.610336 60.092529  9.982024
22958  1  2.967222 61.243137 12.013498
100    1  2.207175 62.406605 14.027496
12574  1  4.684648 62.406605 14.027495
23057  1  2.883723 61.256098 16.070926
199    1  2.120681 62.416197 18.088433
12673  1  4.598154 62.416196 18.088433
23156  1  2.854299 61.260226 20.119875
298    1  2.085119 62.421553 22.137767
12772  1  4.562591 62.421552 22.137767
23255  1  2.837325 61.263537 24.164461
397    1  2.066055 62.425139 26.182008
12871  1  4.543528 62.425139 26.182008
23354  1  2.821540 61.266651 28.206747
496    1  2.053936 62.427708 30.224283
12970  1  4.531409 62.427708 30.224283
595    1  2.045490 62.429739 34.267717
13069  1  4.522962 62.429739 34.267716
23453  1  2.799193 61.270501 32.249619
694    1  2.042820 62.433103 38.312194
11078  1  5.225652 61.275507 36.297405
13168  1  4.520293 62.433102 38.312194
23552  1  2.748179 61.275507 36.297405
793    1  3.267441 62.431749 42.380355
11177  1  4.901235 61.264742 40.369522
23651  1  2.423762 61.264742 40.369522
892    1  3.259678 62.431330 46.379249
11276  1  4.191605 61.254792 44.376026
23750  1  1.714132 61.254792 44.376026
991    1  3.252582 62.430280 50.420989
11375  1  4.122406 61.260600 48.402326
23849  1  1.644933 61.260601 48.402327
11474  1  4.094227 61.260602 52.446122
23948  1  1.616754 61.260603 52.446123
11573  1  4.074898 61.258342 56.493801
13564  1  3.244927 62.428684 54.468304
24047  1  1.597425 61.258343 56.493801
11672  1  4.059747 61.255852 60.542514
13663  1  3.236998 62.426973 58.517026
24146  1  1.582275 61.255852 60.542515
11771  1  4.047786 61.254402 64.591777
13762  1  3.229259 62.425870 62.566113
24245  1  1.570313 61.254402 64.591778
11870  1  4.038162 61.254141 68.641636
13861  1  3.221694 62.425695 66.615588
24344  1  1.560689 61.254141 68.641636
11969  1  4.029887 61.254719 72.691705
13960  1  3.213774 62.426381 70.665364
24443  1  1.552415 61.254719 72.691705
14059  1  3.204586 62.427801 74.714724
12068  1  4.021940 61.255861 76.740965
14158  1  3.192573 62.429994 78.762313
24542  1  1.544468 61.255861 76.740965
12167  1  4.012991 61.257637 80.787838
14257  1  3.174524 62.433418 82.806085
24641  1  1.535518 61.257637 80.787838
12266  1  4.000348 61.260728 84.829727
14356  1  3.142621 62.439646 86.842403
24740  1  1.522876 61.260728 84.829727
12365  1  3.976836 61.267796 88.859006
14455  1  3.089299 62.442618 90.876472
24839  1  1.499363 61.267796 88.859006
1      1  2.564879 62.401226  9.940519
12475  1  5.042352 62.401226  9.940518
12464  1  4.039045 61.261260 92.867204
24938  1  1.561573 61.261261 92.867205
2081   1  6.086909  2.844213 11.957648
4160   1  7.603334  0.512798 11.964084
16633  1  5.125861  0.512799 11.964084
2180   1  5.915662  2.846070 16.024614
4259   1  7.415875  0.533908 16.046871
8416   1  4.268509  1.679645 13.994301
16732  1  4.938403  0.533909 16.046872
20891  1  6.745981  1.679644 13.994301
2279   1  5.823957  2.860012 20.092696
4358   1  7.343574  0.544029 20.106867
8515   1  4.142294  1.696567 18.068837
16831  1  4.866102  0.544029 20.106867
20990  1  6.619767  1.696567 18.068837
2378   1  5.780848  2.868234 24.149491
4457   1  7.310814  0.549656 24.156251
8614   1  4.084488  1.706143 22.127024
16930  1  4.833341  0.549656 24.156251
21089  1  6.561960  1.706143 22.127024
2477   1  5.769872  2.871124 28.200887
4556   1  7.296999  0.552644 28.201057
8713   1  4.059971  1.711046 26.176761
17029  1  4.819526  0.552644 28.201057
21188  1  6.537443  1.711045 26.176760
8812   1  4.059422  1.712095 30.223973
21287  1  6.536894  1.712095 30.223973
2576   1  5.793214  2.868091 32.253944
4655   1  7.299260  0.553349 32.245398
8911   1  4.093796  1.708712 34.275094
17128  1  4.821788  0.553349 32.245398
21386  1  6.571268  1.708712 34.275094
2675   1  5.885558  2.855037 36.321383
4754   1  7.336328  0.552547 36.293863
9010   1  4.242472  1.693908 38.347991
17227  1  4.858856  0.552547 36.293864
21485  1  6.719944  1.693907 38.347991
2774   1  6.150108  2.868485 40.389555
4853   1  7.639649  0.563273 40.366849
9109   1  4.773344  1.755783 42.404210
17326  1  5.162177  0.563273 40.366849
21584  1  7.250816  1.755782 42.404210
15346  1  4.046219  2.925348 44.409736
2873   1  6.523692  2.925347 44.409736
9208   1  5.011644  1.743309 46.394330
17425  1  5.857337  0.574721 44.373656
21683  1  7.489116  1.743308 46.394329
15445  1  4.183998  2.909883 48.417076
2972   1  6.661471  2.909883 48.417076
9307   1  5.067639  1.735566 50.425919
17524  1  5.912452  0.567540 48.400777
21782  1  7.545111  1.735565 50.425919
3071   1  4.235941  2.903624 52.451115
5150   1  5.925830  0.564889 52.444691
15545  1  6.713414  2.903624 52.451114
3170   1  4.261924  2.903000 56.494337
5249   1  5.929399  0.563654 56.492323
9407   1  7.566953  1.733387 54.469648
15644  1  6.739397  2.903000 56.494337
21881  1  5.089481  1.733387 54.469648
3269   1  4.275781  2.904369 60.540505
5348   1  5.928783  0.563184 60.540877
9506   1  7.577140  1.733382 58.516634
15743  1  6.753253  2.904369 60.540505
21980  1  5.099667  1.733383 58.516634
3368   1  4.281247  2.906091 64.587898
5447   1  5.925510  0.563357 64.589816
9605   1  7.580821  1.734162 62.564627
15842  1  6.758720  2.906091 64.587898
22079  1  5.103349  1.734162 62.564627
3467   1  4.279644  2.908013 68.635976
5546   1  5.919837  0.564191 68.639116
9704   1  7.579492  1.735320 66.613196
15941  1  6.757117  2.908012 68.635976
22178  1  5.102020  1.735320 66.613196
3566   1  4.271124  2.910628 72.683913
5645   1  5.911321  0.565765 72.688316
9803   1  7.573461  1.737022 70.661995
16040  1  6.748597  2.910628 72.683913
22277  1  5.095988  1.737022 70.661995
9902   1  7.562045  1.739598 74.710062
22376  1  5.084572  1.739598 74.710062
3665   1  4.254346  2.914457 76.730180
5744   1  5.898679  0.568215 76.736261
10001  1  7.543016  1.743385 78.755719
16139  1  6.731819  2.914457 76.730180
22475  1  5.065544  1.743385 78.755719
3764   1  4.225525  2.919861 80.772613
5843   1  5.879006  0.571852 80.781124
10100  1  7.511192  1.748815 82.796669
16238  1  6.702998  2.919860 80.772613
22574  1  5.033720  1.748816 82.796669
3863   1  4.176562  2.926577 84.809143
5942   1  5.845683  0.577480 84.820306
10199  1  7.455824  1.755310 86.831561
16337  1  6.654034  2.926576 84.809143
22673  1  4.978352  1.755310 86.831561
3962   1  4.084723  2.934346 88.834540
6041   1  5.785759  0.583287 88.854521
10298  1  7.333820  1.762757 90.849825
16436  1  6.562195  2.934345 88.834540
22772  1  4.856348  1.762757 90.849825
8317   1  4.536098  1.700930  9.933014
20792  1  7.013570  1.700929  9.933013
6140   1  5.593658  0.585563 92.861405
16535  1  6.369753  2.918267 92.857903
10396  1  4.522701  5.183192 11.964903
22871  1  7.000173  5.183192 11.964903
112    1  6.137117  6.337763 13.994692
6338   1  7.697232  4.004506 13.988057
10495  1  4.378380  5.168704 16.020163
18811  1  5.219759  4.004506 13.988057
22970  1  6.855853  5.168704 16.020163
211    1  6.029115  6.334046 18.052851
6437   1  7.575484  4.012030 18.054530
10594  1  4.288850  5.177532 20.084669
18910  1  5.098011  4.012031 18.054530
23069  1  6.766323  5.177532 20.084668
310    1  5.964354  6.342414 22.115555
6536   1  7.508437  4.023518 22.118397
10693  1  4.242739  5.186407 24.146248
19009  1  5.030964  4.023518 22.118398
23168  1  6.720211  5.186407 24.146248
409    1  5.938278  6.348006 26.176518
6635   1  7.481544  4.029433 26.175054
10792  1  4.234742  5.188754 28.204492
19108  1  5.004071  4.029433 26.175054
23267  1  6.712215  5.188754 28.204491
508    1  5.951882  6.345740 30.237504
6734   1  7.490397  4.028546 30.230384
19207  1  5.012925  4.028546 30.230385
607    1  6.013371  6.337110 34.300553
6833   1  7.550011  4.018474 34.293623
10891  1  4.269731  5.182370 32.265779
19306  1  5.072538  4.018474 34.293623
23366  1  6.747203  5.182370 32.265779
706    1  6.138745  6.343132 38.356205
6932   1  7.702368  4.011229 38.362220
10990  1  4.366560  5.172100 36.331445
19405  1  5.224895  4.011229 38.362220
23465  1  6.844033  5.172100 36.331444
805    1  6.343736  6.401586 42.396111
11089  1  4.559329  5.200162 40.382632
19504  1  5.525388  4.079174 42.402650
23564  1  7.036801  5.200161 40.382632
13377  1  4.040691  6.424108 46.427591
904    1  6.518164  6.424108 46.427591
11188  1  4.804495  5.257208 44.415203
19603  1  5.743150  4.089076 46.420662
23663  1  7.281967  5.257208 44.415203
13476  1  4.148392  6.416676 50.451842
1003   1  6.625864  6.416676 50.451842
11287  1  4.948073  5.252221 48.435350
19702  1  5.841535  4.076267 50.439554
23762  1  7.425546  5.252220 48.435350
11387  1  7.504434  5.243706 52.461343
23861  1  5.026962  5.243707 52.461343
1102   1  4.216918  6.412900 54.482366
7328   1  5.890276  4.072699 54.475401
11486  1  7.550888  5.243264 56.498528
13576  1  6.694390  6.412899 54.482366
23960  1  5.073415  5.243264 56.498528
1201   1  4.261263  6.415316 58.520468
7427   1  5.918203  4.073970 58.518165
11585  1  7.579001  5.246127 60.540951
13675  1  6.738735  6.415316 58.520468
24059  1  5.101529  5.246127 60.540951
1300   1  4.287812  6.419065 62.562743
7526   1  5.933354  4.076390 62.563633
11684  1  7.593349  5.249111 64.585956
13774  1  6.765285  6.419064 62.562743
24158  1  5.115877  5.249111 64.585956
1399   1  4.299519  6.422239 66.607559
7625   1  5.938419  4.078727 66.610513
11783  1  7.596096  5.251906 68.632424
13873  1  6.776992  6.422239 66.607559
24257  1  5.118623  5.251906 68.632424
1498   1  4.298247  6.425572 70.653669
7724   1  5.934537  4.081377 70.657969
11882  1  7.588054  5.255448 72.679066
13972  1  6.775719  6.425572 70.653669
24356  1  5.110582  5.255449 72.679066
1597   1  4.284232  6.430290 74.699273
7823   1  5.921403  4.085116 74.704608
14071  1  6.761705  6.430290 74.699273
1696   1  4.255345  6.436942 78.742058
7922   1  5.896584  4.090461 78.748376
11981  1  7.568130  5.260581 76.723943
14170  1  6.732817  6.436942 78.742057
24455  1  5.090658  5.260581 76.723943
1795   1  4.206006  6.444824 82.779675
8021   1  5.854275  4.097305 82.786987
12080  1  7.532474  5.267440 80.764722
14269  1  6.683478  6.444823 82.779675
24554  1  5.055001  5.267440 80.764722
1894   1  4.126241  6.449950 86.812211
8120   1  5.780828  4.104913 86.817249
12179  1  7.472364  5.275141 84.798903
14368  1  6.603713  6.449950 86.812211
24653  1  4.994892  5.275141 84.798903
8219   1  5.648366  4.102837 90.842991
12278  1  7.371960  5.277920 88.827919
14467  1  6.478565  6.437352 90.846544
24752  1  4.894488  5.277921 88.827919
13     1  6.298653  6.380485  9.949044
18712  1  5.419857  4.041924  9.939285
12377  1  7.206228  5.249043 92.862376
24851  1  4.728756  5.249043 92.862376
2092   1  6.304700  9.859044 11.990265
4171   1  7.895811  7.521873 11.976475
16644  1  5.418339  7.521874 11.976475
2191   1  6.192662  9.830781 16.038837
4270   1  7.771083  7.498186 16.026811
8427   1  4.559439  8.673169 14.006703
16743  1  5.293611  7.498186 16.026811
20902  1  7.036911  8.673169 14.006704
6349   1  7.925390 11.008678 14.021154
18822  1  5.447918 11.008679 14.021154
2290   1  6.118896  9.826620 20.093598
4369   1  7.690016  7.499683 20.085893
8526   1  4.462891  8.661558 18.060069
16842  1  5.212543  7.499683 20.085893
21001  1  6.940364  8.661558 18.060069
6448   1  7.836307 10.992663 18.071710
18921  1  5.358834 10.992663 18.071710
2389   1  6.079198  9.830546 24.151955
4468   1  7.646626  7.506393 24.147411
8625   1  4.403940  8.665222 22.119112
16941  1  5.169154  7.506394 24.147411
21100  1  6.881412  8.665221 22.119112
6547   1  7.781835 10.992802 22.126494
19020  1  5.304362 10.992802 22.126494
2488   1  6.073053  9.832291 28.211022
4567   1  7.640581  7.508077 28.208680
8724   1  4.380098  8.669421 26.179780
17040  1  5.163109  7.508077 28.208681
21199  1  6.857571  8.669420 26.179779
6646   1  7.759122 10.996024 26.183243
19119  1  5.281649 10.996025 26.183243
8823   1  4.392921  8.667993 30.240204
21298  1  6.870394  8.667993 30.240204
6745   1  7.768448 10.996647 30.239011
19218  1  5.290976 10.996648 30.239011
2587   1  6.102269  9.830601 32.267802
4666   1  7.675464  7.502822 32.270133
8922   1  4.445945  8.664878 34.297368
17139  1  5.197991  7.502822 32.270133
21397  1  6.923418  8.664878 34.297368
6844   1  7.812085 10.998461 34.290029
19317  1  5.334613 10.998461 34.290030
2686   1  6.171117  9.835487 36.317866
4765   1  7.758651  7.501101 36.327140
9021   1  4.547433  8.678513 38.345368
17238  1  5.281179  7.501101 36.327141
21496  1  7.024905  8.678513 38.345368
6943   1  7.895546 11.014890 38.333634
19416  1  5.418073 11.014891 38.333634
2785   1  6.287268  9.865994 40.359621
4864   1  7.905064  7.533123 40.371731
9120   1  4.700897  8.726377 42.385562
17337  1  5.427591  7.533123 40.371731
21595  1  7.178370  8.726377 42.385562
19515  1  5.539839 11.053299 42.373719
2884   1  6.427822  9.907049 44.400066
9219   1  4.843255  8.752823 46.423694
17436  1  5.606952  7.582649 44.410004
21694  1  7.320728  8.752823 46.423694
19614  1  5.660281 11.078918 46.414575
2983   1  6.543431  9.919068 48.437520
9318   1  4.948115  8.753000 50.455403
17535  1  5.736672  7.588234 48.440975
21793  1  7.425588  8.752999 50.455403
19713  1  5.760431 11.085212 50.451758
3082   1  4.157766  9.920021 52.470597
5161   1  5.825785  7.583296 52.469147
15556  1  6.635238  9.920020 52.470597
3181   1  4.231508  9.924469 56.504039
5260   1  5.888342  7.584104 56.502562
9418   1  7.504849  8.752554 54.486679
15655  1  6.708981  9.924469 56.504039
21892  1  5.027377  8.752555 54.486679
7339   1  5.846010 11.090127 54.486177
3280   1  4.285117  9.930925 60.540529
5359   1  5.929900  7.588443 60.541323
9517   1  7.563048  8.757034 58.521911
15754  1  6.762590  9.930925 60.540529
21991  1  5.085576  8.757035 58.521911
7438   1  5.915559 11.098366 58.521022
3379   1  4.317276  9.935437 64.580881
5458   1  5.953202  7.592332 64.583740
9616   1  7.600576  8.762018 62.561334
15853  1  6.794749  9.935436 64.580881
22090  1  5.123104  8.762019 62.561334
7537   1  5.963414 11.104824 62.558736
3478   1  4.330018  9.938609 68.624693
5557   1  5.960703  7.595597 68.628629
9715   1  7.619174  8.765579 66.604254
15952  1  6.807491  9.938609 68.624693
22189  1  5.141702  8.765579 66.604254
7636   1  5.989127 11.108267 66.600465
3577   1  4.325338  9.942809 72.670401
5656   1  5.953874  7.599740 72.674393
9814   1  7.621149  8.769121 70.649446
16051  1  6.802810  9.942808 72.670401
22288  1  5.143677  8.769121 70.649446
7735   1  5.995124 11.111360 70.645547
9913   1  7.607359  8.774411 74.694895
22387  1  5.129886  8.774411 74.694895
7834   1  5.982799 11.116612 74.692013
3676   1  4.303335  9.949441 76.715682
5755   1  5.932151  7.605875 76.718805
10012  1  7.576355  8.781923 78.738182
16150  1  6.780807  9.949441 76.715682
22486  1  5.098883  8.781923 78.738182
7933   1  5.951594 11.124342 78.737560
3775   1  4.261923  9.957570 80.758471
5854   1  5.892250  7.613764 80.759482
10111  1  7.524142  8.789660 82.777742
16249  1  6.739395  9.957570 80.758471
22585  1  5.046669  8.789660 82.777742
8032   1  5.899092 11.131286 82.780960
3874   1  4.196889  9.962262 84.798710
5953   1  5.827705  7.620462 84.795571
10210  1  7.444254  8.790791 86.815166
16348  1  6.674361  9.962261 84.798710
22684  1  4.966782  8.790792 86.815166
8131   1  5.820765 11.128921 86.823368
3973   1  4.101742  9.952409 88.839460
6052   1  5.728906  7.616359 88.830908
10309  1  7.327870  8.770548 90.855415
16447  1  6.579214  9.952409 88.839459
22783  1  4.850398  8.770548 90.855415
8230   1  5.710525 11.103880 90.867370
8328   1  4.698098  8.717064  9.961144
20803  1  7.175570  8.717063  9.961144
6151   1  5.584447  7.580893 92.871464
16546  1  6.448556  9.913640 92.883347
18723  1  5.573365 11.052349  9.974944
10407  1  4.706951 12.194791 12.005279
22882  1  7.184423 12.194790 12.005279
4182   1  8.058095 14.529432 12.020658
16655  1  5.580622 14.529433 12.020659
123    1  6.327238 13.343831 14.036436
10506  1  4.602027 12.164843 16.053041
22981  1  7.079499 12.164843 16.053041
4281   1  7.955486 14.499946 16.067408
16754  1  5.478013 14.499947 16.067408
222    1  6.241773 13.326428 18.084651
10605  1  4.532600 12.157675 20.104097
23080  1  7.010072 12.157675 20.104097
4380   1  7.887439 14.492462 20.114625
16853  1  5.409967 14.492462 20.114625
321    1  6.189257 13.325150 22.134779
10704  1  4.494818 12.159982 24.157658
23179  1  6.972290 12.159981 24.157658
4479   1  7.849654 14.494668 24.162781
16952  1  5.372182 14.494668 24.162781
420    1  6.166061 13.328366 26.186022
10803  1  4.486986 12.162520 28.211563
23278  1  6.964458 12.162520 28.211563
4578   1  7.839499 14.498291 28.211018
17051  1  5.362026 14.498291 28.211018
519    1  6.171463 13.331013 30.236086
618    1  6.207245 13.335930 34.281971
10902  1  4.509984 12.164183 32.262577
23377  1  6.987457 12.164182 32.262577
4677   1  7.857183 14.502222 32.256920
17150  1  5.379711 14.502223 32.256921
717    1  6.277284 13.352124 38.322662
11001  1  4.567205 12.172649 36.307659
23476  1  7.044677 12.172648 36.307659
4776   1  7.905400 14.511840 36.298458
17249  1  5.427928 14.511841 36.298458
816    1  6.378200 13.382171 42.362038
11100  1  4.662509 12.199304 40.347694
23575  1  7.139982 12.199304 40.347694
4875   1  7.985896 14.533669 40.336995
17348  1  5.508423 14.533670 40.336995
915    1  6.483909 13.404468 46.403432
11199  1  4.778428 12.232285 44.388483
23674  1  7.255901 12.232284 44.388483
4974   1  8.085586 14.559034 44.376989
17447  1  5.608113 14.559034 44.376989
1014   1  6.580933 13.414407 50.443706
11298  1  4.883529 12.246850 48.429062
23773  1  7.361002 12.246850 48.429062
17546  1  5.706413 14.573203 48.418434
11398  1  7.454019 12.253482 52.466424
23872  1  4.976547 12.253482 52.466424
5172   1  5.801912 14.584165 52.458576
1113   1  4.194826 13.425178 54.481316
11497  1  7.536755 12.263362 56.501771
13587  1  6.672299 13.425178 54.481316
23971  1  5.059283 12.263362 56.501771
5271   1  5.894241 14.600468 56.496140
1212   1  4.275055 13.438662 58.517191
11596  1  7.601303 12.272981 60.537712
13686  1  6.752528 13.438661 58.517191
24070  1  5.123830 12.272981 60.537712
5370   1  5.969901 14.614124 60.532648
1311   1  4.332906 13.446931 62.554532
11695  1  7.642187 12.277912 64.577051
13785  1  6.810379 13.446931 62.554533
24169  1  5.164714 12.277912 64.577051
5469   1  6.019671 14.619158 64.572181
1410   1  4.366035 13.449678 66.596136
11794  1  7.660732 12.280302 68.620672
13884  1  6.843508 13.449678 66.596136
24268  1  5.183260 12.280302 68.620672
5568   1  6.044711 14.619948 68.616691
1509   1  4.376937 13.451514 70.642117
11893  1  7.659254 12.283832 72.667371
13983  1  6.854410 13.451514 70.642117
24367  1  5.181782 12.283832 72.667371
5667   1  6.047529 14.621980 72.665365
1608   1  4.367305 13.455996 74.690752
14082  1  6.844777 13.455996 74.690752
1707   1  4.337201 13.463459 78.739855
11992  1  7.638431 12.290315 76.714941
14181  1  6.814673 13.463459 78.739854
24466  1  5.160959 12.290315 76.714941
5766   1  6.028998 14.627726 76.716198
1806   1  4.285259 13.469791 82.787921
12091  1  7.597266 12.298199 80.761439
14280  1  6.762731 13.469791 82.787921
24565  1  5.119794 12.298199 80.761439
5865   1  5.988723 14.635373 80.767191
1905   1  4.207931 13.465469 86.834805
12190  1  7.532968 12.301182 84.806443
14379  1  6.685404 13.465468 86.834805
24664  1  5.055496 12.301183 84.806444
5964   1  5.924752 14.637813 84.816994
12289  1  7.440410 12.287637 88.851313
14478  1  6.577752 13.437834 90.881237
24763  1  4.962937 12.287637 88.851313
6063   1  5.832561 14.622830 88.865120
24     1  6.446741 13.386787  9.989791
12388  1  7.317015 12.247007 92.897076
24862  1  4.839543 12.247007 92.897076
6162   1  5.710448 14.580911 92.911870
2103   1  6.447717 16.863289 12.035563
8339   1  4.840154 15.720650 10.004947
18734  1  5.707537 18.054054 10.019662
20814  1  7.317627 15.720649 10.004947
2202   1  6.343104 16.836294 16.080418
6360   1  8.058484 18.013931 14.064785
8438   1  4.720253 15.678768 14.051348
18833  1  5.581012 18.013931 14.064785
20913  1  7.197726 15.678768 14.051348
2301   1  6.274191 16.830850 20.123258
6459   1  7.970852 18.001595 18.106330
8537   1  4.635036 15.662658 18.096751
18932  1  5.493379 18.001595 18.106331
21012  1  7.112509 15.662658 18.096751
2400   1  6.235395 16.834063 24.166216
6558   1  7.917051 18.002980 22.146540
8636   1  4.582360 15.661997 22.141930
19031  1  5.439578 18.002980 22.146540
21111  1  7.059832 15.661997 22.141930
2499   1  6.223083 16.838633 28.209755
6657   1  7.891253 18.007760 26.187903
8735   1  4.557783 15.665917 26.187687
19130  1  5.413781 18.007760 26.187903
21210  1  7.035255 15.665916 26.187687
6756   1  7.890560 18.012597 30.229746
8834   1  4.559705 15.670035 30.232787
19229  1  5.413087 18.012597 30.229746
21309  1  7.037177 15.670035 30.232787
2598   1  6.236551 16.843683 32.252077
6855   1  7.915119 18.019037 34.269903
8933   1  4.589277 15.676337 34.274957
19328  1  5.437647 18.019037 34.269903
21408  1  7.066749 15.676337 34.274957
2697   1  6.277632 16.852861 36.291414
6954   1  7.966771 18.030527 38.307429
9032   1  4.649146 15.690568 38.313598
19427  1  5.489298 18.030527 38.307429
21507  1  7.126619 15.690568 38.313598
2796   1  6.347151 16.869608 40.328634
7053   1  8.043013 18.046191 42.344138
9131   1  4.735787 15.713056 42.351741
19526  1  5.565540 18.046191 42.344138
21606  1  7.213260 15.713056 42.351741
2895   1  6.435879 16.887704 44.367009
7152   1  8.132831 18.057988 46.382544
9230   1  4.831817 15.730573 46.392220
19625  1  5.655359 18.057988 46.382545
21705  1  7.309290 15.730573 46.392220
2994   1  6.530540 16.899206 48.407597
9329   1  4.928173 15.741660 50.433582
19724  1  5.753618 18.067797 50.423176
21804  1  7.405646 15.741659 50.433581
15567  1  6.630950 16.912684 52.448926
3192   1  4.258240 16.935976 56.488246
7350   1  5.863533 18.088677 54.464299
9429   1  7.504613 15.757907 54.473521
15666  1  6.735713 16.935975 56.488246
21903  1  5.027141 15.757908 54.473521
3291   1  4.346761 16.954144 60.525806
7449   1  5.971706 18.115770 58.502787
9528   1  7.597009 15.777731 58.510806
15765  1  6.824234 16.954144 60.525806
22002  1  5.119536 15.777731 58.510806
3390   1  4.406162 16.958586 64.566668
7548   1  6.052207 18.127188 62.542254
9627   1  7.665394 15.787846 62.548814
15864  1  6.883634 16.958586 64.566668
22101  1  5.187922 15.787846 62.548814
3489   1  4.438543 16.956838 68.613142
7647   1  6.102178 18.125957 66.587180
9726   1  7.706498 15.789133 66.591477
15963  1  6.916015 16.956837 68.613142
22200  1  5.229025 15.789133 66.591477
3588   1  4.446673 16.956583 72.664350
7746   1  6.125731 18.122670 70.637542
9825   1  7.723270 15.788819 70.639317
16062  1  6.924145 16.956583 72.664350
22299  1  5.245798 15.788820 70.639317
7845   1  6.124450 18.123634 74.691735
9924   1  7.717394 15.791820 74.690813
22398  1  5.239921 15.791820 74.690813
3687   1  4.431206 16.961140 76.718582
7944   1  6.098191 18.129995 78.748492
10023  1  7.689034 15.798789 78.743993
16161  1  6.908678 16.961140 76.718582
22497  1  5.211562 15.798790 78.743993
3786   1  4.391787 16.968867 80.774101
8043   1  6.046045 18.137591 82.806165
10122  1  7.637358 15.805279 82.796959
16260  1  6.869260 16.968867 80.774101
22596  1  5.159885 15.805279 82.796959
3885   1  4.326897 16.972369 84.828690
8142   1  5.965329 18.135772 86.861538
10221  1  7.559408 15.801046 86.847994
16359  1  6.804369 16.972369 84.828690
22695  1  5.081936 15.801046 86.847994
8241   1  5.850538 18.108677 90.911357
10320  1  7.450401 15.772675 90.896155
16458  1  6.709733 16.958375 88.879837
22794  1  4.972929 15.772675 90.896155
16557  1  6.582781 16.915457 92.926987
35     1  6.569605 20.386933 10.033192
4193   1  8.153643 21.530046 12.060199
10418  1  4.829119 19.196660 12.049121
16666  1  5.676171 21.530046 12.060199
22893  1  7.306592 19.196660 12.049121
134    1  6.429682 20.350127 14.075417
4292   1  8.034412 21.515727 16.095971
10517  1  4.718629 19.174519 16.090590
16765  1  5.556939 21.515727 16.095971
22992  1  7.196102 19.174519 16.090589
233    1  6.338263 20.343775 18.111693
4391   1  7.963256 21.518445 20.128943
10616  1  4.647877 19.172859 20.128456
16864  1  5.485783 21.518446 20.128943
23091  1  7.125349 19.172859 20.128456
332    1  6.284237 20.347627 22.147616
4490   1  7.925645 21.523688 24.165611
10715  1  4.608504 19.177404 24.167221
16963  1  5.448172 21.523689 24.165611
23190  1  7.085976 19.177404 24.167221
431    1  6.258674 20.352781 26.186551
4589   1  7.912605 21.528346 28.205697
10814  1  4.595010 19.182391 28.207915
17062  1  5.435132 21.528347 28.205697
23289  1  7.072483 19.182391 28.207915
530    1  6.256501 20.357551 30.227232
629    1  6.276723 20.363353 34.267196
4688   1  7.920400 21.533009 32.246641
10913  1  4.605240 19.187603 32.248602
17161  1  5.442927 21.533009 32.246641
23388  1  7.082713 19.187602 32.248602
728    1  6.320841 20.372041 38.304912
4787   1  7.949393 21.539326 36.286245
11012  1  4.640171 19.195503 36.287256
17260  1  5.471920 21.539326 36.286245
23487  1  7.117644 19.195503 36.287256
827    1  6.388263 20.381865 42.340646
4886   1  8.001120 21.547327 40.323311
11111  1  4.700688 19.207473 40.323757
17359  1  5.523648 21.547327 40.323312
23586  1  7.178161 19.207472 40.323757
926    1  6.473681 20.387507 46.376135
4985   1  8.074433 21.552711 44.357912
11210  1  4.781417 19.218748 44.360066
17458  1  5.596961 21.552711 44.357912
23685  1  7.258889 19.218748 44.360066
1025   1  6.576188 20.393571 50.414053
5084   1  8.167826 21.553836 48.392131
11309  1  4.874867 19.225737 48.398210
17557  1  5.690354 21.553836 48.392131
23784  1  7.352340 19.225737 48.398209
5183   1  5.810186 21.565083 52.430210
11409  1  7.460713 19.239526 52.439021
23883  1  4.983240 19.239526 52.439021
5282   1  5.957886 21.604007 56.470427
11508  1  7.582917 19.270315 56.479315
13598  1  6.701879 20.417747 54.454954
23982  1  5.105444 19.270316 56.479315
1223   1  4.354527 20.453167 58.494211
5381   1  6.084389 21.630601 60.510890
11607  1  7.687705 19.293015 60.518126
13697  1  6.831999 20.453166 58.494211
24081  1  5.210232 19.293015 60.518127
1322   1  4.449774 20.464506 62.536089
5480   1  6.167572 21.629327 64.558468
11706  1  7.758094 19.295587 64.561517
13796  1  6.927247 20.464505 62.536089
24180  1  5.280622 19.295587 64.561517
1421   1  4.509660 20.459443 66.584601
5579   1  6.216590 21.619997 68.611476
11805  1  7.798664 19.290351 68.610910
13895  1  6.987133 20.459443 66.584601
24279  1  5.321191 19.290351 68.610910
1520   1  4.540417 20.452739 70.637631
5678   1  6.236473 21.614346 72.666245
11904  1  7.812807 19.287305 72.664481
13994  1  7.017889 20.452738 70.637631
24378  1  5.335334 19.287305 72.664481
1619   1  4.544130 20.451483 74.693200
14093  1  7.021602 20.451483 74.693200
1718   1  4.520577 20.456984 78.751638
5777   1  6.228785 21.615756 76.722673
12003  1  7.801006 19.290350 76.721040
14192  1  6.998050 20.456984 78.751638
24477  1  5.323534 19.290350 76.721040
1817   1  4.467839 20.466165 82.813122
5876   1  6.192267 21.623594 80.782989
12102  1  7.762453 19.298367 80.780151
14291  1  6.945311 20.466165 82.813122
24576  1  5.284980 19.298368 80.780151
1916   1  4.382235 20.469110 86.873677
5975   1  6.122631 21.633240 84.847027
12201  1  7.695277 19.304537 84.839603
14390  1  6.859707 20.469110 86.873676
24675  1  5.217805 19.304537 84.839604
6074   1  6.013041 21.630171 88.907440
12300  1  7.594923 19.294335 88.894414
14489  1  6.733849 20.446115 90.926111
24774  1  5.117450 19.294335 88.894415
6173   1  5.852622 21.587711 92.955576
12399  1  7.456022 19.250907 92.941747
24873  1  4.978550 19.250907 92.941747
2114   1  6.503261 23.864909 12.066598
6272   1  8.255581 25.050128 10.052158
8350   1  4.944994 22.719021 10.044645
18745  1  5.778109 25.050128 10.052158
20825  1  7.422466 22.719021 10.044644
10429  1  4.813944 26.205463 12.063357
22904  1  7.291417 26.205463 12.063357
2213   1  6.376581 23.861351 16.093895
6371   1  8.067666 25.033010 14.077662
8449   1  4.783952 22.688917 14.081033
18844  1  5.590193 25.033010 14.077662
20924  1  7.261424 22.688917 14.081033
10528  1  4.697509 26.211723 16.083116
23003  1  7.174982 26.211723 16.083116
2312   1  6.311051 23.866969 20.124550
6470   1  7.982422 25.039205 18.104025
8548   1  4.690606 22.689760 18.111057
18943  1  5.504949 25.039205 18.104025
21023  1  7.168078 22.689760 18.111057
10627  1  4.649211 26.216667 20.118229
23102  1  7.126684 26.216667 20.118229
2411   1  6.279201 23.871672 24.162178
6569   1  7.942020 25.044019 22.140233
8647   1  4.640105 22.695099 22.144998
19042  1  5.464547 25.044020 22.140233
21122  1  7.117578 22.695098 22.144998
10726  1  4.626524 26.220341 24.158230
23201  1  7.103996 26.220340 24.158230
2510   1  6.268357 23.875397 28.203467
6668   1  7.924449 25.047610 26.181029
8746   1  4.617301 22.699754 26.184005
19141  1  5.446976 25.047611 26.181030
21221  1  7.094773 22.699754 26.184005
10825  1  4.619471 26.222695 28.201757
23300  1  7.096943 26.222695 28.201757
6767   1  7.922775 25.050460 30.224332
8845   1  4.614832 22.703806 30.225383
19240  1  5.445303 25.050460 30.224332
21320  1  7.092304 22.703806 30.225383
2609   1  6.274379 23.878996 32.246083
6866   1  7.935132 25.053726 34.268088
8944   1  4.631036 22.708505 34.266751
19339  1  5.457659 25.053726 34.268088
21419  1  7.108508 22.708505 34.266751
10924  1  4.624254 26.224868 32.246694
23399  1  7.101727 26.224868 32.246694
2708   1  6.297228 23.883634 36.288003
6965   1  7.962674 25.057848 38.310685
9043   1  4.667258 22.714746 38.306256
19438  1  5.485201 25.057848 38.310685
21518  1  7.144731 22.714745 38.306256
11023  1  4.640722 26.227690 36.291566
23498  1  7.118195 26.227690 36.291566
2807   1  6.338961 23.888730 40.327497
7064   1  8.008380 25.060592 42.350024
9142   1  4.725144 22.720176 42.342522
19537  1  5.530907 25.060593 42.350025
21617  1  7.202617 22.720175 42.342521
11122  1  4.670897 26.230591 40.334943
23597  1  7.148370 26.230590 40.334943
2906   1  6.402549 23.889992 44.362305
7163   1  8.079108 25.056877 46.382214
9241   1  4.805514 22.720133 46.375169
19636  1  5.601636 25.056877 46.382215
21716  1  7.282987 22.720133 46.375169
11221  1  4.719670 26.230125 44.373754
23696  1  7.197142 26.230124 44.373753
3005   1  6.494193 23.885047 48.391999
7262   1  8.190679 25.049162 50.408068
9340   1  4.913636 22.720033 50.408034
19735  1  5.713206 25.049162 50.408068
21815  1  7.391108 22.720033 50.408033
11320  1  4.801802 26.221402 48.401601
23795  1  7.279274 26.221401 48.401601
15578  1  6.628777 23.889975 52.424058
11420  1  7.427981 26.215959 52.423347
23894  1  4.950509 26.215959 52.423347
7361   1  5.893957 25.070597 54.440496
9440   1  7.539450 22.745144 54.446596
15677  1  6.815740 23.937587 56.462497
21914  1  5.061978 22.745144 54.446596
11519  1  7.680723 26.271448 56.456676
23993  1  5.203250 26.271448 56.456676
3302   1  4.495246 23.966094 60.505980
7460   1  6.108132 25.126836 58.480175
9539   1  7.701900 22.790260 58.486188
15776  1  6.972719 23.966093 60.505979
22013  1  5.224427 22.790260 58.486188
11618  1  7.883616 26.296775 60.507099
24092  1  5.406144 26.296775 60.507099
3401   1  4.592802 23.958454 64.560230
7559   1  6.245221 25.128266 62.534114
9638   1  7.815652 22.798881 62.532273
15875  1  7.070275 23.958454 64.560230
22112  1  5.338180 22.798881 62.532273
11717  1  7.993720 26.281186 64.570390
24191  1  5.516248 26.281186 64.570391
3500   1  4.648405 23.945589 68.616558
7658   1  6.323623 25.113144 66.593308
9737   1  7.885947 22.788758 66.585832
15974  1  7.125877 23.945589 68.616558
22211  1  5.408475 22.788759 66.585832
11816  1  8.048671 26.267985 68.626499
24290  1  5.571198 26.267985 68.626499
3599   1  4.671708 23.938653 72.670078
7757   1  6.362154 25.102800 70.647301
9836   1  7.922796 22.779145 70.640724
16073  1  7.149181 23.938652 72.670078
22310  1  5.445324 22.779146 70.640724
11915  1  8.070845 26.261830 72.675571
24389  1  5.593373 26.261831 72.675571
7856   1  6.372465 25.099309 74.697839
9935   1  7.930842 22.776191 74.695202
22409  1  5.453370 22.776192 74.695202
3698   1  4.668135 23.938669 76.723299
7955   1  6.358757 25.101592 78.750005
10034  1  7.911362 22.780290 78.752061
16172  1  7.145607 23.938669 76.723298
22508  1  5.433889 22.780291 78.752061
12014  1  8.070895 26.260924 76.723533
24488  1  5.593423 26.260924 76.723533
3797   1  4.636961 23.944924 80.780892
8054   1  6.315961 25.109343 82.808927
10133  1  7.860380 22.790110 82.814787
16271  1  7.114433 23.944924 80.780892
22607  1  5.382907 22.790111 82.814787
12113  1  8.049168 26.264511 80.775206
24587  1  5.571695 26.264511 80.775206
3896   1  4.568927 23.956487 84.846961
8153   1  6.225804 25.122782 86.879649
10232  1  7.769320 22.799347 86.881530
16370  1  7.046399 23.956486 84.846961
22706  1  5.291848 22.799347 86.881530
12212  1  7.994368 26.273169 84.835937
24686  1  5.516896 26.273169 84.835937
3995   1  4.448036 23.963824 88.916135
8252   1  6.057255 25.124150 90.949487
10331  1  7.625707 22.785026 90.939524
16469  1  6.925508 23.963824 88.916134
22805  1  5.148234 22.785026 90.939524
12311  1  7.871349 26.289168 88.913136
24785  1  5.393877 26.289168 88.913136
16568  1  6.728062 23.926580 92.967881
12410  1  7.608489 26.267973 92.977355
24884  1  5.131017 26.267974 92.977355
46     1  6.550545 27.383176 10.052467
4204   1  8.008899 28.559702 12.041229
16677  1  5.531427 28.559702 12.041229
8361   1  4.575948 29.741524 10.052647
20836  1  7.053421 29.741523 10.052647
145    1  6.362390 27.384727 14.061616
4303   1  7.960851 28.562002 16.076179
16776  1  5.483378 28.562002 16.076179
8460   1  4.643716 29.734782 14.061392
20935  1  7.121188 29.734781 14.061391
244    1  6.308409 27.389402 18.096479
4402   1  7.935253 28.567029 20.112580
16875  1  5.457780 28.567029 20.112580
8559   1  4.625761 29.741022 18.091084
21034  1  7.103233 29.741022 18.091084
343    1  6.282597 27.393501 22.135279
4501   1  7.924980 28.568983 24.155394
16974  1  5.447507 28.568983 24.155394
8658   1  4.619530 29.742913 22.132454
21133  1  7.097003 29.742913 22.132454
442    1  6.272514 27.395566 26.178662
4600   1  7.922891 28.569743 28.201150
17073  1  5.445418 28.569743 28.201150
8757   1  4.618485 29.743230 26.177909
21232  1  7.095957 29.743230 26.177909
541    1  6.272489 27.396919 30.224232
8856   1  4.620624 29.742940 30.225218
21331  1  7.098096 29.742939 30.225218
640    1  6.281144 27.398476 34.270532
4699   1  7.926811 28.570254 32.248215
17172  1  5.449338 28.570254 32.248215
8955   1  4.625699 29.742566 34.273442
21430  1  7.103172 29.742566 34.273442
739    1  6.299405 27.400496 38.316581
4798   1  7.936806 28.571036 36.295757
17271  1  5.459333 28.571036 36.295757
9054   1  4.634428 29.742261 38.322175
21529  1  7.111900 29.742261 38.322175
838    1  6.330179 27.401522 42.360793
4897   1  7.954417 28.571798 40.343071
17370  1  5.476944 28.571799 40.343071
9153   1  4.648749 29.741497 42.370760
21628  1  7.126221 29.741496 42.370759
937    1  6.382015 27.397664 46.398547
4996   1  7.983805 28.570715 44.388119
17469  1  5.506333 28.570715 44.388120
9252   1  4.674358 29.738728 46.416581
21727  1  7.151831 29.738728 46.416581
1036   1  6.484588 27.384541 50.419379
5095   1  8.039486 28.564011 48.424222
17568  1  5.562014 28.564012 48.424222
9351   1  4.734628 29.730531 50.450239
21826  1  7.212101 29.730531 50.450239
5194   1  5.704747 28.548262 52.433499
17668  1  8.182219 28.548262 52.433499
5293   1  6.085374 28.604083 56.455120
13609  1  6.708623 27.393708 54.438952
9451   1  7.455999 29.717671 54.442309
21925  1  4.978526 29.717671 54.442309
1234   1  4.540526 27.460393 58.479672
5392   1  6.359324 28.615805 60.523222
13708  1  7.017999 27.460393 58.479672
9550   1  7.995802 29.779707 58.499592
22024  1  5.518330 29.779708 58.499592
1333   1  4.703209 27.449039 62.547193
5491   1  6.462975 28.598163 64.589308
13807  1  7.180681 27.449039 62.547193
9649   1  8.152509 29.760982 62.572673
22123  1  5.675037 29.760982 62.572673
1432   1  4.778149 27.433416 66.607254
5590   1  6.503839 28.589642 68.638182
13906  1  7.255621 27.433416 66.607254
9748   1  8.199452 29.753332 66.621687
22222  1  5.721980 29.753333 66.621687
1531   1  4.810468 27.425535 70.655911
5689   1  6.520494 28.585360 72.681487
14005  1  7.287940 27.425535 70.655910
9847   1  8.218769 29.748924 70.663870
22321  1  5.741297 29.748924 70.663871
1630   1  4.820575 27.422435 74.701022
14104  1  7.298048 27.422435 74.701022
9946   1  8.226886 29.746440 74.704464
22420  1  5.749413 29.746441 74.704464
1729   1  4.813958 27.422947 78.747383
5788   1  6.523591 28.583883 76.724316
14203  1  7.291431 27.422947 78.747383
10045  1  8.228062 29.745447 78.746501
22519  1  5.750590 29.745447 78.746501
1828   1  4.786811 27.426931 82.798926
5887   1  6.514419 28.584810 80.769939
14302  1  7.264283 27.426931 82.798926
10144  1  8.221676 29.746023 82.792086
22618  1  5.744204 29.746023 82.792086
1927   1  4.718954 27.435882 86.861478
5986   1  6.485696 28.588351 84.821265
14401  1  7.196427 27.435882 86.861478
10243  1  8.199307 29.748201 86.842756
22717  1  5.721835 29.748202 86.842756
2026   1  4.536121 27.455697 90.946775
6085   1  6.404130 28.596585 88.884657
14500  1  7.013594 27.455697 90.946775
10342  1  8.119628 29.758953 90.902891
22816  1  5.642156 29.758953 90.902891
6184   1  6.054117 28.602236 92.974094
2125   1  6.250418 30.913088 12.065386
6283   1  7.917129 32.079650 10.052128
18756  1  5.439656 32.079650 10.052128
22915  1  6.969977 33.266316 12.041911
2224   1  6.257514 30.916220 16.072977
6382   1  7.864860 32.095062 14.061882
18855  1  5.387388 32.095062 14.061882
23014  1  7.031831 33.270482 16.077182
2323   1  6.262786 30.917465 20.110709
6481   1  7.894956 32.093081 18.091683
18954  1  5.417484 32.093082 18.091683
23113  1  7.068138 33.267819 20.114091
2422   1  6.266917 30.917330 24.155065
6580   1  7.910491 32.092112 22.133409
19053  1  5.433018 32.092112 22.133409
23212  1  7.086747 33.265482 24.157787
2521   1  6.270391 30.916409 28.202086
6679   1  7.919042 32.090583 26.179382
19152  1  5.441569 32.090584 26.179383
23311  1  7.095813 33.262798 28.204706
6778   1  7.923521 32.088568 30.227341
19251  1  5.446049 32.088568 30.227341
2620   1  6.273639 30.915116 32.250430
6877   1  7.925043 32.086138 34.276365
19350  1  5.447570 32.086138 34.276365
23410  1  7.098367 33.259643 32.253185
2719   1  6.277148 30.913643 36.299591
6976   1  7.924127 32.083309 38.326182
19449  1  5.446654 32.083309 38.326182
23509  1  7.095299 33.255845 36.302505
2818   1  6.281797 30.911984 40.349380
7075   1  7.921443 32.080369 42.376550
19548  1  5.443970 32.080370 42.376550
23608  1  7.086764 33.251612 40.352404
2917   1  6.289661 30.909909 44.398961
7174   1  7.918046 32.077946 46.426068
19647  1  5.440573 32.077946 46.426068
23707  1  7.072457 33.248173 44.402058
3016   1  6.306993 30.906644 48.445116
7273   1  7.914967 32.076371 50.470092
19746  1  5.437494 32.076371 50.470092
23806  1  7.048339 33.247467 48.448237
15589  1  6.366714 30.899085 52.474181
23905  1  6.983165 33.252882 52.477011
19845  1  5.435429 32.075982 54.470903
3214   1  4.588850 30.910445 56.483246
7372   1  7.912901 32.075982 54.470903
15688  1  7.066322 30.910445 56.483246
24004  1  6.274484 33.242406 56.487542
3313   1  4.902716 30.919952 60.557394
7471   1  6.671608 32.076516 58.541976
11629  1  8.437930 33.232185 60.560555
15787  1  7.380189 30.919952 60.557394
24103  1  5.960458 33.232185 60.560555
3412   1  4.947872 30.915710 64.605432
7570   1  6.670176 32.075690 62.587095
11728  1  8.392676 33.234960 64.608339
15886  1  7.425344 30.915710 64.605432
24202  1  5.915204 33.234961 64.608339
3511   1  4.964016 30.912356 68.647045
7669   1  6.671010 32.074782 66.629456
11827  1  8.379969 33.235958 68.649868
15985  1  7.441489 30.912355 68.647045
24301  1  5.902496 33.235958 68.649868
3610   1  4.972456 30.909834 72.686402
7768   1  6.673751 32.073302 70.668756
11926  1  8.379274 33.234881 72.689317
16084  1  7.449929 30.909834 72.686402
24400  1  5.901801 33.234882 72.689317
7867   1  6.679006 32.071229 74.707769
3709   1  4.978182 30.907844 76.726353
7966   1  6.688094 32.068776 78.748785
12025  1  8.387346 33.232208 76.729740
16183  1  7.455655 30.907844 76.726353
24499  1  5.909873 33.232208 76.729740
3808   1  4.983081 30.906491 80.768945
8065   1  6.704257 32.066339 82.793679
12124  1  8.406226 33.228429 80.773716
16282  1  7.460554 30.906491 80.768945
24598  1  5.928753 33.228429 80.773716
3907   1  4.988152 30.906117 84.815541
8164   1  6.737296 32.064566 86.843896
12223  1  8.445097 33.223992 84.823934
16381  1  7.465624 30.906117 84.815541
24697  1  5.967625 33.223992 84.823934
4006   1  4.993494 30.906765 88.865265
8263   1  6.826225 32.056318 90.902225
16480  1  7.470966 30.906764 88.865264
24796  1  6.060372 33.217657 88.886185
4105   1  4.999979 30.910621 92.937452
16579  1  7.477452 30.910620 92.937452
24895  1  6.430740 33.218911 92.975182
57     1  5.942170 34.439271 10.054682
4215   1  7.686730 35.621141 12.065507
16688  1  5.209258 35.621141 12.065507
20847  1  6.713060 36.772935 10.055409
12531  1  8.419643 34.439270 10.054682
156    1  6.146463 34.445166 14.062853
4314   1  7.818397 35.620815 16.085094
16787  1  5.340924 35.620816 16.085094
20946  1  6.918865 36.797288 14.080148
255    1  6.212885 34.444658 18.098294
4413   1  7.877781 35.617931 20.121277
16886  1  5.400308 35.617931 20.121277
21045  1  7.017606 36.794748 18.107086
354    1  6.248212 34.441241 22.138151
4512   1  7.909010 35.613542 24.163013
16985  1  5.431537 35.613543 24.163013
21144  1  7.067883 36.790152 22.145041
453    1  6.265895 34.437769 26.183067
4611   1  7.923102 35.609032 28.208800
17084  1  5.445629 35.609033 28.208800
21243  1  7.093214 36.784783 26.188332
552    1  6.272541 34.433981 30.230533
21342  1  7.101447 36.779287 30.234614
651    1  6.270359 34.429518 34.279104
4710   1  7.924681 35.604076 32.256396
17183  1  5.447208 35.604076 32.256396
21441  1  7.095186 36.773015 34.281734
750    1  6.259583 34.424200 38.328109
4809   1  7.914762 35.598110 36.304441
17282  1  5.437290 35.598110 36.304441
21540  1  7.074186 36.765506 38.328313
849    1  6.239601 34.419100 42.376863
4908   1  7.892736 35.591503 40.352060
17381  1  5.415264 35.591504 40.352061
21639  1  7.036839 36.758661 42.372784
948    1  6.206892 34.417074 46.422780
5007   1  7.856285 35.587117 44.397280
17480  1  5.378812 35.587117 44.397280
21738  1  6.976984 36.757871 46.410631
1047   1  6.140066 34.422346 50.456323
5106   1  7.793204 35.590053 48.433396
17579  1  5.315732 35.590053 48.433397
21837  1  6.866995 36.768412 50.431314
5205   1  7.644193 35.604018 52.442469
17678  1  5.166721 35.604018 52.442469
17777  1  4.779087 35.548816 56.464680
1146   1  5.890679 34.434553 54.448391
5304   1  7.256560 35.548816 56.464680
13620  1  8.368151 34.434553 54.448391
21936  1  6.636212 36.758821 54.450899
1245   1  5.345111 34.373570 58.506326
5403   1  6.979891 35.536959 60.532297
13719  1  7.822584 34.373570 58.506326
22035  1  6.321688 36.692945 58.491422
1344   1  5.187098 34.390717 62.578604
5502   1  6.875957 35.553105 64.597785
13818  1  7.664571 34.390716 62.578604
22134  1  6.156799 36.703489 62.558464
1443   1  5.141672 34.396532 66.627331
5601   1  6.838186 35.559250 68.646456
13917  1  7.619144 34.396532 66.627331
22233  1  6.082819 36.717328 66.618132
9759   1  8.560292 36.717328 66.618132
1542   1  5.127677 34.397941 70.669496
5700   1  6.828926 35.559805 72.689963
9858   1  8.532746 36.722164 70.666746
14016  1  7.605149 34.397941 70.669496
22332  1  6.055274 36.722164 70.666746
1641   1  5.129880 34.396147 74.710526
9957   1  8.532262 36.720732 74.712394
14115  1  7.607352 34.396147 74.710526
22431  1  6.054789 36.720733 74.712394
1740   1  5.146409 34.391918 78.754059
5799   1  6.839035 35.556260 76.733862
10056  1  8.554989 36.714427 78.760580
14214  1  7.623881 34.391918 78.754060
22530  1  6.077516 36.714427 78.760579
1839   1  5.183240 34.385785 82.803616
5898   1  6.870135 35.549454 80.782520
14313  1  7.660713 34.385784 82.803616
22629  1  6.129749 36.704040 82.816460
1938   1  5.261948 34.377134 86.864761
5997   1  6.935078 35.539510 84.841128
14412  1  7.739420 34.377134 86.864761
22728  1  6.231222 36.690222 86.885310
2037   1  5.458967 34.360197 90.949406
6096   1  7.070651 35.524853 88.917253
14511  1  7.936440 34.360197 90.949406
22827  1  6.414759 36.691918 90.954086
18668  1  4.874349 35.552137 92.980484
6195   1  7.351821 35.552136 92.980484
2136   1  5.997257 37.962284 12.069916
6294   1  7.545595 39.104553 10.049161
18767  1  5.068123 39.104553 10.049161
22926  1  6.824976 40.297886 12.064574
68     1  5.920765 41.437156 10.038628
14610  1  8.474730 37.962284 12.069916
2235   1  6.140448 37.971414 16.097111
6393   1  7.726045 39.141903 14.084651
18866  1  5.248572 39.141904 14.084651
23025  1  6.962120 40.317331 16.100304
14709  1  8.617920 37.971414 16.097111
2334   1  6.217834 37.967202 20.129164
6492   1  7.833950 39.144089 18.115468
18965  1  5.356477 39.144089 18.115468
23124  1  7.045966 40.315104 20.135188
2433   1  6.258525 37.961239 24.169358
6591   1  7.894892 39.138193 22.151779
19064  1  5.417419 39.138193 22.151779
23223  1  7.092794 40.307834 24.175239
2532   1  6.276439 37.955027 28.213880
6690   1  7.925621 39.131249 26.194177
19163  1  5.448149 39.131249 26.194177
23322  1  7.112795 40.300349 28.219361
6789   1  7.934407 39.124359 30.239358
19262  1  5.456935 39.124360 30.239358
563    1  6.295963 41.468744 30.244587
2631   1  6.276447 37.948528 32.260069
6888   1  7.923462 39.116728 34.284594
19361  1  5.445989 39.116728 34.284594
23421  1  7.110299 40.292845 32.264320
662    1  6.279525 41.460435 34.288221
2730   1  6.259238 37.940768 36.305841
6987   1  7.891901 39.107425 38.327926
19460  1  5.414428 39.107425 38.327927
23520  1  7.085286 40.283808 36.307561
761    1  6.237256 41.449596 38.328540
2829   1  6.223515 37.932153 40.349635
7086   1  7.837996 39.098945 42.367465
19559  1  5.360523 39.098945 42.367465
23619  1  7.036137 40.273247 40.347430
860    1  6.168699 41.438544 42.364734
2928   1  6.166396 37.927228 44.388584
7185   1  7.757704 39.098210 46.399585
19658  1  5.280231 39.098210 46.399585
23718  1  6.962172 40.266688 44.382155
959    1  6.076556 41.434390 46.396951
3027   1  6.075730 37.932482 48.416346
7284   1  7.637419 39.103810 50.425071
15501  1  8.553202 37.932482 48.416346
19757  1  5.159947 39.103810 50.425071
23817  1  6.860344 40.268562 48.411461
1058   1  5.958077 41.433009 50.428983
3126   1  5.919549 37.936591 52.437786
15600  1  8.397021 37.936591 52.437786
23916  1  6.716992 40.262906 52.442749
3225   1  5.660295 37.881638 56.470713
7383   1  7.449145 39.082315 54.456874
15699  1  8.137768 37.881638 56.470713
19856  1  4.971673 39.082315 54.456874
24015  1  6.522824 40.216052 56.480332
1157   1  5.801099 41.408343 54.466418
13631  1  8.278572 41.408343 54.466418
3324   1  5.453337 37.856650 60.520842
7482   1  7.229231 39.026917 58.496018
15798  1  7.930809 37.856650 60.520842
24114  1  6.360716 40.188243 60.523398
1256   1  5.631886 41.364322 58.505198
13730  1  8.109358 41.364322 58.505197
3423   1  5.342030 37.871175 64.583759
7581   1  7.088834 39.025340 62.549692
15897  1  7.819503 37.871174 64.583759
24213  1  6.260745 40.195364 64.577499
1355   1  5.513662 41.356056 62.551054
13829  1  7.991134 41.356055 62.551054
3522   1  5.289386 37.882085 68.639659
7680   1  7.010344 39.039010 66.608664
15996  1  7.766859 37.882085 68.639659
24312  1  6.206158 40.206269 68.633748
1454   1  5.441844 41.365230 66.604652
13928  1  7.919316 41.365229 66.604652
3621   1  5.273740 37.884435 72.688858
7779   1  6.975506 39.046427 70.662579
16095  1  7.751213 37.884435 72.688858
24411  1  6.187805 40.209624 72.687118
1553   1  5.406975 41.372358 70.659465
14027  1  7.884448 41.372358 70.659465
11937  1  8.665277 40.209624 72.687118
7878   1  6.973353 39.045350 74.713232
1652   1  5.404691 41.371246 74.713229
14126  1  7.882163 41.371245 74.713229
3720   1  5.285447 37.880003 76.737605
7977   1  7.000219 39.037204 78.765837
16194  1  7.762919 37.880003 76.737605
24510  1  6.200602 40.204498 76.739878
1751   1  5.433259 41.362156 78.767934
14225  1  7.910732 41.362155 78.767934
3819   1  5.325262 37.870142 80.791319
8076   1  7.060141 39.024171 82.824849
16293  1  7.802735 37.870142 80.791319
24609  1  6.244486 40.192855 80.796045
1850   1  5.493976 41.349317 82.825307
14324  1  7.971448 41.349317 82.825307
3918   1  5.403449 37.856582 84.854550
8175   1  7.162688 39.013789 86.889062
16392  1  7.880922 37.856582 84.854550
24708  1  6.323986 40.180448 84.856586
1949   1  5.591114 41.344301 86.882634
14423  1  8.068587 41.344301 86.882634
20747  1  4.844576 39.031060 90.945552
4017   1  5.537456 37.850135 88.922116
8274   1  7.322049 39.031060 90.945552
16491  1  8.014928 37.850135 88.922116
24807  1  6.447217 40.183738 88.914783
2048   1  5.733910 41.369782 90.933126
14522  1  8.211383 41.369781 90.933126
4116   1  5.753059 37.893225 92.972505
16590  1  8.230532 37.893224 92.972505
24906  1  6.626896 40.231973 92.961405
4226   1  7.673477 42.632175 12.054166
16699  1  5.196005 42.632176 12.054166
20858  1  6.782934 43.770575 10.025535
2147   1  6.057405 44.966670 12.040766
12542  1  8.398237 41.437156 10.038627
14621  1  8.534877 44.966670 12.040766
167    1  6.082243 41.481389 14.079930
4325   1  7.803731 42.658840 16.095823
16798  1  5.326258 42.658840 16.095824
20957  1  6.934154 43.818429 14.069813
2246   1  6.184346 44.997212 16.086342
12641  1  8.559716 41.481389 14.079930
14720  1  8.661819 44.997211 16.086341
266    1  6.189415 41.489855 18.117381
4424   1  7.888100 42.659722 20.136386
16897  1  5.410628 42.659722 20.136386
21056  1  7.039007 43.831530 18.113246
2345   1  6.267965 45.000150 20.133124
12740  1  8.666888 41.489855 18.117381
14819  1  8.745437 45.000150 20.133124
365    1  6.254493 41.484411 22.156474
4523   1  7.937011 42.652244 24.179472
16996  1  5.459538 42.652245 24.179472
21155  1  7.104488 43.827252 22.157720
2444   1  6.316422 44.993078 24.181498
464    1  6.288067 41.476384 26.199633
4622   1  7.957053 42.644211 28.224777
17095  1  5.479581 42.644212 28.224778
21254  1  7.138112 43.819092 26.204087
2543   1  6.334287 44.985577 28.229888
21353  1  7.143367 43.811681 30.250218
4721   1  7.950808 42.636554 32.269359
17194  1  5.473336 42.636554 32.269359
21452  1  7.120413 43.803612 34.293164
2642   1  6.322740 44.978937 32.275351
4820   1  7.917442 42.626823 36.310621
17293  1  5.439970 42.626823 36.310621
21551  1  7.067318 43.791287 38.331551
2741   1  6.280279 44.969200 36.315759
15215  1  8.757751 44.969200 36.315759
4919   1  7.855542 42.613767 40.347796
13334  1  8.646172 41.438544 42.364734
17392  1  5.378069 42.613767 40.347796
21650  1  6.985755 43.775942 42.366699
2840   1  6.205802 44.952756 40.351839
15314  1  8.683274 44.952755 40.351839
5018   1  7.768971 42.603163 44.381881
13433  1  8.554028 41.434390 46.396951
17491  1  5.291498 42.603163 44.381881
21749  1  6.885656 43.766420 46.401215
2939   1  6.107957 44.936261 44.387005
15413  1  8.585429 44.936261 44.387004
5117   1  7.663247 42.599516 48.415215
13532  1  8.435550 41.433009 50.428982
17590  1  5.185774 42.599516 48.415215
21848  1  6.770851 43.759683 50.437686
3038   1  5.999563 44.927477 48.423601
15512  1  8.477035 44.927477 48.423601
5216   1  7.533144 42.588271 52.451980
17689  1  5.055671 42.588271 52.451980
3137   1  5.879218 44.914569 52.462400
15611  1  8.356690 44.914568 52.462400
5315   1  7.377087 42.550509 56.490929
17788  1  4.899614 42.550509 56.490929
21947  1  6.635137 43.736601 54.476915
3236   1  5.747417 44.885414 56.500957
15710  1  8.224889 44.885414 56.500957
5414   1  7.244348 42.524942 60.530824
22046  1  6.497115 43.702591 58.515059
3335   1  5.635334 44.863976 60.539126
15809  1  8.112806 44.863976 60.539126
5513   1  7.157412 42.526184 64.578462
22145  1  6.396224 43.691967 62.556783
3434   1  5.559878 44.861744 64.582918
15908  1  8.037350 44.861744 64.582917
5612   1  7.107633 42.534132 68.631653
22244  1  6.333212 43.696609 66.605693
3533   1  5.516519 44.866299 68.632943
16007  1  7.993991 44.866299 68.632943
5711   1  7.090324 42.536913 72.685964
22343  1  6.302126 43.701632 70.658812
3632   1  5.501949 44.867648 72.686075
16106  1  7.979422 44.867648 72.686075
22442  1  6.300970 43.699959 74.712919
5810   1  7.103769 42.531392 76.740270
22541  1  6.329406 43.690912 78.766893
3731   1  5.515653 44.862026 76.739475
16205  1  7.993126 44.862026 76.739475
5909   1  7.147814 42.519735 80.795430
22640  1  6.388075 43.679460 82.820278
3830   1  5.558126 44.851241 80.791560
16304  1  8.035599 44.851241 80.791560
6008   1  7.224250 42.510045 84.850789
22739  1  6.480207 43.678093 86.871615
3929   1  5.631258 44.843551 84.841449
16403  1  8.108730 44.843551 84.841449
18580  1  4.861397 42.519469 88.902702
6107   1  7.338869 42.519468 88.902702
22838  1  6.613556 43.706797 90.918935
4028   1  5.740840 44.855303 88.888755
16502  1  8.218313 44.855303 88.888755
18679  1  5.021741 42.568620 92.948282
6206   1  7.499213 42.568620 92.948281
4127   1  5.892560 44.903726 92.933788
16601  1  8.370032 44.903726 92.933788
6305   1  7.650686 46.104626 10.010747
18778  1  5.173213 46.104627 10.010747
22937  1  6.928596 47.301969 12.025458
178    1  6.201104 48.490166 14.041393
6404   1  7.800028 46.154498 14.056476
18877  1  5.322556 46.154499 14.056476
23036  1  7.057246 47.333194 16.074016
12652  1  8.678576 48.490165 14.041392
277    1  6.308389 48.503193 18.095140
6503   1  7.904396 46.169338 18.105071
18976  1  5.426923 46.169339 18.105071
23135  1  7.141288 47.335902 20.127153
12751  1  8.785861 48.503193 18.095140
376    1  6.373302 48.498603 22.152946
6602   1  7.969318 46.165599 22.156023
19075  1  5.491846 46.165599 22.156024
23234  1  7.188294 47.329162 24.181857
12850  1  8.850774 48.498603 22.152946
475    1  6.401472 48.492381 26.209745
6701   1  8.000946 46.158110 26.207378
19174  1  5.523474 46.158111 26.207379
23333  1  7.201950 47.323340 28.234546
574    1  6.395292 48.489474 30.261978
6800   1  8.001551 46.152234 30.256158
19273  1  5.524079 46.152235 30.256158
673    1  6.354851 48.485776 34.307336
6899   1  7.970734 46.145597 34.299666
13147  1  8.832323 48.485776 34.307336
19372  1  5.493262 46.145597 34.299666
23432  1  7.183212 47.319188 32.282141
772    1  6.277140 48.471267 38.345675
6998   1  7.906172 46.131889 38.337447
13246  1  8.754612 48.471267 38.345675
19471  1  5.428699 46.131889 38.337447
23531  1  7.130423 47.310432 36.323013
871    1  6.165566 48.442960 42.381637
7097   1  7.811136 46.110694 42.372837
13345  1  8.643038 48.442960 42.381637
19570  1  5.333664 46.110694 42.372837
23630  1  7.042006 47.289937 40.359070
970    1  6.046605 48.422489 46.419575
7196   1  7.702967 46.095406 46.409571
13444  1  8.524078 48.422489 46.419574
19669  1  5.225494 46.095406 46.409571
23729  1  6.931109 47.266444 44.395528
1069   1  5.933394 48.413096 50.457527
7295   1  7.590211 46.085957 50.447932
13543  1  8.410866 48.413096 50.457527
19768  1  5.112739 46.085957 50.447932
23828  1  6.818429 47.254148 48.433689
23927  1  6.704295 47.242573 52.472071
1168   1  5.821814 48.399319 54.494306
7394   1  7.468844 46.066890 54.486692
13642  1  8.299287 48.399318 54.494306
19867  1  4.991372 46.066890 54.486692
24026  1  6.588916 47.221302 56.509178
1267   1  5.720026 48.381125 58.530217
7493   1  7.351766 46.041448 58.523824
13741  1  8.197499 48.381125 58.530216
24125  1  6.492377 47.204417 60.546236
1366   1  5.644462 48.371800 62.568903
7592   1  7.264625 46.030919 62.563394
13840  1  8.121935 48.371800 62.568903
24224  1  6.426838 47.200502 64.588090
1465   1  5.597280 48.370911 66.613378
7691   1  7.209935 46.032206 66.609291
13939  1  8.074753 48.370911 66.613378
24323  1  6.389621 47.202283 68.635946
1564   1  5.574928 48.371592 70.662747
7790   1  7.183438 46.034824 70.660246
14038  1  8.052400 48.371592 70.662747
24422  1  6.377796 47.202227 72.687358
1663   1  5.575842 48.368919 74.713823
7889   1  7.183615 46.032498 74.712975
14137  1  8.053315 48.368919 74.713823
1762   1  5.601075 48.361548 78.762915
7988   1  7.210930 46.024081 78.764552
14236  1  8.078547 48.361548 78.762915
24521  1  6.391128 47.196855 76.738802
1861   1  5.654030 48.352428 82.807356
8087   1  7.267000 46.013930 82.813270
14335  1  8.131503 48.352428 82.807356
24620  1  6.431231 47.187230 80.787298
1960   1  5.741050 48.351062 86.847841
8186   1  7.355945 46.013687 86.859205
14434  1  8.218523 48.351061 86.847841
24719  1  6.501636 47.180248 84.831859
20758  1  5.008157 46.042101 90.903939
2059   1  5.872002 48.376054 90.889068
8285   1  7.485629 46.042100 90.903939
14533  1  8.349475 48.376053 90.889068
24818  1  6.609357 47.190928 88.874647
79     1  6.044787 48.439382  9.994952
24917  1  6.761119 47.237601 92.918510
12553  1  8.522260 48.439382  9.994952
2158   1  6.223203 51.976140 11.992869
4237   1  7.809013 49.638429 12.009113
16710  1  5.331541 49.638429 12.009113
14632  1  8.700675 51.976140 11.992869
2257   1  6.375455 51.996173 16.050511
4336   1  7.945553 49.666659 16.060992
16809  1  5.468081 49.666659 16.060992
20968  1  7.093731 50.825141 14.026240
14731  1  8.852928 51.996172 16.050510
2356   1  6.466216 51.990574 20.117457
4435   1  8.032254 49.666325 20.120886
16908  1  5.554781 49.666326 20.120886
21067  1  7.208176 50.832244 18.086425
2455   1  6.507434 51.984497 24.181224
4534   1  8.077277 49.659672 24.181560
17007  1  5.599804 49.659673 24.181560
21166  1  7.273511 50.825619 22.150484
2554   1  6.506825 51.984984 28.239852
4633   1  8.084737 49.656630 28.238320
17106  1  5.607264 49.656631 28.238320
21265  1  7.296528 50.821335 26.211101
21364  1  7.281526 50.822600 30.266459
2653   1  6.467952 51.990067 32.293775
4732   1  8.056732 49.656526 32.288891
17205  1  5.579259 49.656526 32.288891
21463  1  7.229490 50.823554 34.314973
2752   1  6.388373 51.988433 36.340180
4831   1  7.991731 49.650258 36.331620
15226  1  8.865845 51.988433 36.340180
17304  1  5.514259 49.650258 36.331620
21562  1  7.135769 50.809653 38.355108
2851   1  6.259945 51.960075 40.378069
4930   1  7.886093 49.625548 40.368262
15325  1  8.737417 51.960075 40.378069
17403  1  5.408620 49.625549 40.368262
21661  1  7.001606 50.773020 42.391477
2950   1  6.105649 51.920458 44.415050
5029   1  7.757517 49.594323 44.405466
15424  1  8.583121 51.920458 44.415050
17502  1  5.280044 49.594323 44.405466
21760  1  6.867148 50.748704 46.429168
3049   1  5.975038 51.908790 48.450095
5128   1  7.637657 49.580822 48.443255
15523  1  8.452511 51.908790 48.450095
17601  1  5.160184 49.580822 48.443255
21859  1  6.750997 50.742135 50.464447
3148   1  5.866214 51.906018 52.482085
5227   1  7.526922 49.572854 52.479264
15622  1  8.343687 51.906018 52.482085
17700  1  5.049450 49.572854 52.479265
3247   1  5.773626 51.897639 56.515398
5326   1  7.423645 49.558637 56.514346
15721  1  8.251099 51.897639 56.515398
21958  1  6.646698 50.734162 54.498238
3346   1  5.702094 51.888203 60.552589
5425   1  7.339965 49.545928 60.550912
15820  1  8.179566 51.888203 60.552588
22057  1  6.557619 50.721805 58.533272
3445   1  5.654366 51.883530 64.594884
5524   1  7.283440 49.541376 64.592329
15919  1  8.131838 51.883530 64.594884
22156  1  6.492759 50.713915 62.572282
3544   1  5.627622 51.882224 68.641903
5623   1  7.251719 49.541226 68.639229
16018  1  8.105094 51.882224 68.641903
22255  1  6.452571 50.711739 66.616708
3643   1  5.619086 51.880826 72.691556
5722   1  7.241940 49.540228 72.689368
16117  1  8.096559 51.880826 72.691555
22354  1  6.433655 50.711162 70.665405
9880   1  8.911128 50.711161 70.665405
22453  1  6.434402 50.708567 74.715429
9979   1  8.911875 50.708567 74.715429
3742   1  5.628606 51.877089 76.740626
5821   1  7.253924 49.535511 76.739171
16216  1  8.106078 51.877089 76.740626
22552  1  6.456178 50.702643 78.763100
3841   1  5.659375 51.870853 80.785559
5920   1  7.290412 49.527350 80.784957
16315  1  8.136847 51.870852 80.785559
22651  1  6.504112 50.694829 82.804897
3940   1  5.719958 51.864259 84.822929
6019   1  7.357520 49.520314 84.824839
16414  1  8.197431 51.864259 84.822929
22750  1  6.588276 50.691195 86.840143
4039   1  5.826652 51.865277 88.853772
6118   1  7.465353 49.527022 88.862116
16513  1  8.304124 51.865277 88.853772
22849  1  6.724262 50.709370 90.875666
18690  1  5.148103 49.570350 92.903224
20869  1  6.919351 50.775230  9.978855
4138   1  6.004294 51.901912 92.889061
6217   1  7.625575 49.570349 92.903224
16612  1  8.481766 51.901912 92.889061
22948  1  7.134188 54.313951 11.979261
189    1  6.477439 55.481331 14.013217
6415   1  8.006285 53.157522 14.014191
18888  1  5.528812 53.157522 14.014191
23047  1  7.310550 54.318269 16.048580
12663  1  8.954912 55.481330 14.013217
288    1  6.604135 55.470014 18.090003
6514   1  8.131035 53.154753 18.083346
18987  1  5.653562 53.154754 18.083346
23146  1  7.400126 54.308840 20.119535
387    1  6.654218 55.465002 22.151344
6613   1  8.193846 53.146902 22.150235
19086  1  5.716373 53.146902 22.150235
23245  1  7.432766 54.305075 24.180208
486    1  6.660688 55.465765 26.206121
6712   1  8.209340 53.145285 26.210334
19185  1  5.731868 53.145285 26.210334
23344  1  7.423993 54.308469 28.236937
585    1  6.629704 55.473597 30.261436
6811   1  8.184794 53.150856 30.267272
19284  1  5.707322 53.150856 30.267272
684    1  6.553383 55.486871 34.319978
6910   1  8.119781 53.157955 34.320409
19383  1  5.642308 53.157956 34.320409
23443  1  7.374947 54.318462 32.293730
783    1  6.414212 55.484145 38.371758
7009   1  8.005960 53.147349 38.364385
13257  1  8.891684 55.484145 38.371757
19482  1  5.528488 53.147349 38.364386
23542  1  7.278656 54.324108 36.346536
882    1  6.194083 55.426649 42.408259
7108   1  7.838681 53.100980 42.400883
13356  1  8.671556 55.426649 42.408259
19581  1  5.361208 53.100980 42.400883
23641  1  7.118373 54.294074 40.387252
981    1  6.004863 55.404402 46.437401
7207   1  7.681771 53.075303 46.436176
13455  1  8.482336 55.404402 46.437400
19680  1  5.204299 53.075303 46.436176
23740  1  6.924451 54.245608 44.422372
17513  1  5.247550 56.571634 44.424413
1080   1  5.881645 55.410419 50.460429
7306   1  7.561116 53.074211 50.466319
13554  1  8.359117 55.410418 50.460429
19779  1  5.083643 53.074211 50.466319
23839  1  6.779653 54.239744 48.451339
23938  1  6.674122 54.242522 52.478657
1179   1  5.796375 55.411096 54.490622
7405   1  7.464236 53.071574 54.497122
13653  1  8.273848 55.411095 54.490622
24037  1  6.593944 54.238025 56.512047
1278   1  5.734911 55.405113 58.529062
7504   1  7.387910 53.063333 58.532647
13752  1  8.212384 55.405112 58.529062
24136  1  6.535341 54.230755 60.551522
5436   1  7.364090 56.573037 60.548684
1377   1  5.692305 55.399459 62.572446
7603   1  7.333907 53.056653 62.573317
13851  1  8.169778 55.399458 62.572446
24235  1  6.496554 54.226281 64.595691
5535   1  7.334357 56.569135 64.595110
11761  1  8.974026 54.226281 64.595691
1476   1  5.665594 55.396604 66.619419
7702   1  7.300507 53.053853 66.618741
13950  1  8.143067 55.396604 66.619419
24334  1  6.474434 54.224481 68.643539
5634   1  7.316600 56.567413 68.644002
11860  1  8.951907 54.224481 68.643539
1575   1  5.651897 55.395330 70.668834
7801   1  7.284423 53.052658 70.667577
14049  1  8.129370 55.395330 70.668834
24433  1  6.466482 54.223142 72.693342
5733   1  7.308766 56.566478 72.694190
11959  1  8.943954 54.223142 72.693342
1674   1  5.649816 55.393897 74.718856
7900   1  7.284109 53.050518 74.717344
14148  1  8.127288 55.393896 74.718856
1773   1  5.660393 55.391353 78.766972
7999   1  7.300963 53.046247 78.764816
14247  1  8.137865 55.391353 78.766972
24532  1  6.472486 54.220589 76.742531
5832   1  7.310462 56.565168 76.743840
12058  1  8.949958 54.220589 76.742531
1872   1  5.688376 55.387685 82.810223
8098   1  7.340375 53.040507 82.806735
14346  1  8.165849 55.387685 82.810223
24631  1  6.495485 54.216385 80.788000
5931   1  7.323785 56.563055 80.790548
12157  1  8.972957 54.216384 80.788000
1971   1  5.744591 55.384754 86.846877
8197   1  7.416172 53.035605 86.839283
14445  1  8.222063 55.384753 86.846876
24730  1  6.543448 54.211788 84.827007
6030   1  7.355187 56.560153 84.831327
20769  1  5.079203 53.043779 90.866238
2070   1  5.872413 55.383799 90.866027
8296   1  7.556675 53.043779 90.866237
14544  1  8.349885 55.383799 90.866027
24829  1  6.639482 54.208626 88.853950
6129   1  7.417629 56.559627 88.866740
90     1  6.202546 55.452829  9.950202
6316   1  7.796747 53.112899  9.963396
18789  1  5.319274 53.112899  9.963396
24928  1  6.841272 54.232342 92.878190
6228   1  7.616968 56.564998 92.873931
12564  1  8.680018 55.452828  9.950202
2169   1  6.731887 58.946747 12.018693
4248   1  8.094671 56.644156 11.978194
16721  1  5.617199 56.644157 11.978194
2268   1  6.816168 58.940828 16.076313
4347   1  8.285047 56.629788 16.062369
16820  1  5.807574 56.629788 16.062369
20979  1  7.492945 57.787223 14.037659
6426   1  8.566186 60.096829 14.052440
18899  1  6.088714 60.096830 14.052440
2367   1  6.840042 58.941894 20.126011
4446   1  8.352922 56.624746 20.124477
16919  1  5.875450 56.624746 20.124477
21078  1  7.578121 57.783609 18.099669
6525   1  8.565181 60.099818 18.100609
18998  1  6.087708 60.099818 18.100610
2466   1  6.841283 58.943466 24.171970
4545   1  8.371594 56.624065 24.177343
17018  1  5.894121 56.624065 24.177343
21177  1  7.603996 57.783038 22.150936
6624   1  8.560035 60.102210 22.146525
19097  1  6.082562 60.102210 22.146525
2565   1  6.825028 58.947196 28.217030
4644   1  8.357385 56.628337 28.228507
17117  1  5.879912 56.628337 28.228507
21276  1  7.601198 57.785136 26.198734
6723   1  8.548518 60.104954 26.189942
19196  1  6.071045 60.104954 26.189942
21375  1  7.570920 57.791833 30.248294
6822   1  8.525475 60.109299 30.233544
19295  1  6.048002 60.109299 30.233544
2664   1  6.782288 58.955174 32.266203
4743   1  8.304890 56.639922 32.284724
17216  1  5.827418 56.639922 32.284724
21474  1  7.494785 57.806616 34.307757
6921   1  8.474076 60.117025 34.282534
19394  1  5.996603 60.117025 34.282534
2763   1  6.674747 58.972660 36.331271
4842   1  8.193393 56.654499 36.346659
17315  1  5.715920 56.654499 36.346660
21573  1  7.327708 57.817534 38.373470
7020   1  8.311017 60.136251 38.354095
19493  1  5.833545 60.136251 38.354095
2862   1  6.392797 58.960120 40.397264
4941   1  7.985255 56.627957 40.394391
15336  1  8.870270 58.960119 40.397264
17414  1  5.507782 56.627957 40.394391
21672  1  7.010585 57.749723 42.411151
7119   1  7.759314 60.073681 42.409572
19592  1  5.281841 60.073681 42.409573
2961   1  6.003947 58.903881 44.415679
5040   1  7.725023 56.571634 44.424412
15435  1  8.481419 58.903881 44.415679
21771  1  6.778195 57.739685 46.427470
7218   1  7.508356 60.085622 46.397927
3060   1  5.851766 58.918190 48.421784
5139   1  7.566520 56.575814 48.443034
15534  1  8.329238 58.918190 48.421784
21870  1  6.664645 57.750740 50.445406
7317   1  7.437665 60.091410 50.428843
3159   1  5.784518 58.921926 52.455398
5238   1  7.471769 56.581951 52.468385
15633  1  8.261991 58.921926 52.455398
3258   1  5.742452 58.919038 56.498715
5337   1  7.408607 56.578831 56.505628
15732  1  8.219925 58.919038 56.498715
21969  1  6.599886 57.751184 54.481071
7416   1  7.400325 60.090415 54.472521
3357   1  5.712618 58.914722 60.545325
15831  1  8.190091 58.914722 60.545325
22068  1  6.555542 57.746440 58.524145
7515   1  7.374143 60.086986 58.519698
9594   1  9.033015 57.746439 58.524145
3456   1  5.691861 58.911846 64.593649
15930  1  8.169333 58.911845 64.593649
22167  1  6.524650 57.741953 62.570456
7614   1  7.354916 60.084036 62.568148
9693   1  9.002123 57.741952 62.570456
3555   1  5.678247 58.910678 68.643325
16029  1  8.155720 58.910678 68.643325
22266  1  6.504486 57.739582 66.618935
7713   1  7.341117 60.082611 66.617569
9792   1  8.981959 57.739582 66.618935
3654   1  5.670254 58.910401 72.693700
16128  1  8.147726 58.910401 72.693700
22365  1  6.492870 57.738662 70.668922
7812   1  7.331386 60.082380 70.667744
9891   1  8.970342 57.738662 70.668922
22464  1  6.488567 57.738077 74.719214
7911   1  7.324646 60.082743 74.717882
9990   1  8.966039 57.738077 74.719214
3753   1  5.667190 58.910314 76.743520
16227  1  8.144663 58.910314 76.743519
22563  1  6.491892 57.737192 78.768024
8010   1  7.320268 60.083405 78.766631
10089  1  8.969365 57.737192 78.768024
3852   1  5.669561 58.910203 80.791011
16326  1  8.147033 58.910203 80.791010
22662  1  6.505597 57.735884 82.812979
8109   1  7.318018 60.084517 82.812044
10188  1  8.983070 57.735884 82.812979
3951   1  5.679848 58.910118 84.833455
16425  1  8.157320 58.910118 84.833455
22761  1  6.537440 57.733682 86.850281
8208   1  7.317837 60.086603 86.849942
10287  1  9.014913 57.733681 86.850280
4050   1  5.704982 58.908608 88.863192
16524  1  8.182454 58.908607 88.863191
22860  1  6.594410 57.737813 90.885097
8307   1  7.319267 60.090151 90.857087
10386  1  9.071883 57.737813 90.885097
20880  1  7.129733 57.784704  9.950025
4149   1  5.646261 58.923719 92.871906
16623  1  8.123734 58.923718 92.871905
6327   1  8.565282 60.092528  9.982024
18800  1  6.087809 60.092529  9.982024
10484  1  5.444695 61.243137 12.013498
22959  1  7.922167 61.243136 12.013498
10583  1  5.361195 61.256097 16.070926
101    1  7.162120 62.406604 14.027495
23058  1  7.838668 61.256097 16.070926
10682  1  5.331771 61.260225 20.119874
200    1  7.075627 62.416196 18.088433
23157  1  7.809244 61.260225 20.119874
10781  1  5.314798 61.263537 24.164461
299    1  7.040064 62.421552 22.137767
23256  1  7.792271 61.263537 24.164461
10880  1  5.299012 61.266651 28.206747
398    1  7.021000 62.425139 26.182007
23355  1  7.776485 61.266651 28.206747
497    1  7.008881 62.427708 30.224282
10979  1  5.276665 61.270501 32.249619
596    1  7.000435 62.429739 34.267716
23454  1  7.754138 61.270501 32.249619
695    1  6.997765 62.433102 38.312194
23553  1  7.703124 61.275507 36.297405
13267  1  5.744913 62.431749 42.380355
794    1  8.222386 62.431749 42.380355
23652  1  7.378707 61.264741 40.369522
13366  1  5.737151 62.431330 46.379249
893    1  8.214623 62.431329 46.379249
23751  1  6.669078 61.254791 44.376026
11277  1  9.146550 61.254791 44.376026
13465  1  5.730055 62.430280 50.420989
992    1  8.207527 62.430279 50.420989
23850  1  6.599879 61.260600 48.402326
11376  1  9.077351 61.260600 48.402326
23949  1  6.571699 61.260602 52.446122
11475  1  9.049172 61.260601 52.446122
1091   1  5.722400 62.428683 54.468304
13565  1  8.199872 62.428683 54.468304
24048  1  6.552370 61.258342 56.493800
11574  1  9.029843 61.258341 56.493800
1190   1  5.714471 62.426973 58.517026
13664  1  8.191944 62.426972 58.517025
24147  1  6.537220 61.255852 60.542514
11673  1  9.014693 61.255852 60.542514
1289   1  5.706732 62.425870 62.566112
13763  1  8.184204 62.425869 62.566112
24246  1  6.525258 61.254402 64.591777
11772  1  9.002730 61.254402 64.591777
1388   1  5.699166 62.425695 66.615588
13862  1  8.176638 62.425695 66.615588
24345  1  6.515634 61.254141 68.641636
11871  1  8.993106 61.254141 68.641636
1487   1  5.691246 62.426381 70.665364
13961  1  8.168719 62.426381 70.665364
24444  1  6.507360 61.254719 72.691705
11970  1  8.984832 61.254719 72.691705
1586   1  5.682059 62.427801 74.714724
14060  1  8.159531 62.427801 74.714724
1685   1  5.670046 62.429994 78.762313
14159  1  8.147519 62.429994 78.762313
24543  1  6.499413 61.255861 76.740965
12069  1  8.976885 61.255861 76.740965
1784   1  5.651997 62.433417 82.806084
14258  1  8.129469 62.433417 82.806084
24642  1  6.490464 61.257636 80.787838
12168  1  8.967936 61.257636 80.787838
1883   1  5.620094 62.439645 86.842402
14357  1  8.097567 62.439645 86.842402
24741  1  6.477821 61.260727 84.829727
12267  1  8.955294 61.260727 84.829727
1982   1  5.566772 62.442618 90.876471
14456  1  8.044244 62.442618 90.876471
24840  1  6.454308 61.267796 88.859006
12366  1  8.931781 61.267795 88.859006
2      1  7.519824 62.401226  9.940518
24939  1  6.516518 61.261260 92.867204
12465  1  8.993991 61.261260 92.867204
2082   1 11.041854  2.844212 11.957648
14555  1  8.564382  2.844213 11.957648
16634  1 10.080806  0.512798 11.964083
2181   1 10.870607  2.846070 16.024614
8417   1  9.223454  1.679644 13.994301
14654  1  8.393135  2.846070 16.024614
16733  1  9.893348  0.533908 16.046871
2280   1 10.778902  2.860011 20.092696
8516   1  9.097239  1.696566 18.068836
14753  1  8.301429  2.860011 20.092696
16832  1  9.821047  0.544028 20.106867
20991  1 11.574712  1.696566 18.068836
2379   1 10.735794  2.868234 24.149491
8615   1  9.039433  1.706142 22.127024
14852  1  8.258321  2.868234 24.149491
16931  1  9.788287  0.549655 24.156251
21090  1 11.516906  1.706142 22.127024
2478   1 10.724817  2.871124 28.200886
8714   1  9.014916  1.711045 26.176760
14951  1  8.247344  2.871124 28.200886
17030  1  9.774471  0.552644 28.201057
21189  1 11.492389  1.711045 26.176760
8813   1  9.014367  1.712095 30.223973
21288  1 11.491839  1.712094 30.223973
2577   1 10.748158  2.868091 32.253943
8912   1  9.048741  1.708712 34.275093
15050  1  8.270686  2.868091 32.253944
17129  1  9.776733  0.553349 32.245398
21387  1 11.526213  1.708711 34.275093
2676   1 10.840503  2.855037 36.321383
9011   1  9.197416  1.693907 38.347991
15149  1  8.363031  2.855037 36.321383
17228  1  9.813801  0.552547 36.293863
21486  1 11.674889  1.693907 38.347991
2775   1 11.105053  2.868485 40.389555
9110   1  9.728289  1.755782 42.404209
15248  1  8.627581  2.868485 40.389555
17327  1 10.117122  0.563273 40.366848
4952   1  8.334809  0.574720 44.373656
2874   1 11.478637  2.925347 44.409736
9209   1  9.966589  1.743308 46.394329
15347  1  9.001165  2.925347 44.409736
17426  1 10.812282  0.574720 44.373655
2973   1 11.616416  2.909882 48.417076
5051   1  8.389924  0.567539 48.400777
9308   1 10.022583  1.735565 50.425919
15446  1  9.138943  2.909882 48.417076
17525  1 10.867397  0.567539 48.400777
3072   1  9.190886  2.903623 52.451114
5151   1 10.880775  0.564888 52.444691
15546  1 11.668358  2.903623 52.451115
17624  1  8.403303  0.564889 52.444691
3171   1  9.216869  2.902999 56.494337
5250   1 10.884344  0.563654 56.492323
15645  1 11.694342  2.902999 56.494337
17723  1  8.406872  0.563654 56.492323
21882  1 10.044426  1.733386 54.469648
3270   1  9.230726  2.904369 60.540505
5349   1 10.883728  0.563184 60.540877
15744  1 11.708198  2.904369 60.540505
17822  1  8.406256  0.563184 60.540877
21981  1 10.054612  1.733382 58.516634
3369   1  9.236192  2.906091 64.587898
5448   1 10.880455  0.563356 64.589816
15843  1 11.713665  2.906091 64.587898
17921  1  8.402982  0.563357 64.589815
22080  1 10.058294  1.734162 62.564627
3468   1  9.234589  2.908012 68.635976
5547   1 10.874782  0.564191 68.639116
15942  1 11.712062  2.908012 68.635976
18020  1  8.397310  0.564191 68.639116
22179  1 10.056965  1.735320 66.613196
3567   1  9.226070  2.910628 72.683913
5646   1 10.866266  0.565765 72.688316
16041  1 11.703542  2.910628 72.683914
18119  1  8.388794  0.565765 72.688316
22278  1 10.050933  1.737022 70.661995
22377  1 10.039517  1.739598 74.710062
3666   1  9.209292  2.914457 76.730180
5745   1 10.853624  0.568215 76.736261
16140  1 11.686764  2.914457 76.730180
18218  1  8.376151  0.568215 76.736261
22476  1 10.020489  1.743385 78.755719
3765   1  9.180470  2.919860 80.772613
5844   1 10.833951  0.571851 80.781124
16239  1 11.657943  2.919860 80.772613
18317  1  8.356479  0.571851 80.781124
22575  1  9.988664  1.748815 82.796669
3864   1  9.131507  2.926576 84.809143
5943   1 10.800628  0.577480 84.820306
16338  1 11.608979  2.926576 84.809143
18416  1  8.323155  0.577480 84.820306
22674  1  9.933297  1.755310 86.831561
3963   1  9.039668  2.934345 88.834540
6042   1 10.740704  0.583287 88.854521
16437  1 11.517140  2.934345 88.834540
18515  1  8.263232  0.583287 88.854521
22773  1  9.811293  1.762756 90.849825
8318   1  9.491043  1.700929  9.933013
4062   1  8.847225  2.918267 92.857903
6141   1 10.548603  0.585563 92.861405
16536  1 11.324698  2.918267 92.857904
18614  1  8.071131  0.585563 92.861405
10397  1  9.477646  5.183192 11.964903
113    1 11.092061  6.337763 13.994692
10496  1  9.333325  5.168704 16.020163
12586  1  8.614589  6.337763 13.994692
18812  1 10.174704  4.004505 13.988057
212    1 10.984059  6.334045 18.052851
10595  1  9.243795  5.177532 20.084669
12685  1  8.506587  6.334046 18.052851
18911  1 10.052956  4.012030 18.054530
23070  1 11.721268  5.177531 20.084669
311    1 10.919300  6.342414 22.115555
10694  1  9.197684  5.186407 24.146248
12784  1  8.441827  6.342414 22.115555
19010  1  9.985910  4.023518 22.118397
23169  1 11.675157  5.186407 24.146248
410    1 10.893223  6.348006 26.176518
10793  1  9.189687  5.188754 28.204491
12883  1  8.415751  6.348006 26.176518
19109  1  9.959016  4.029432 26.175054
23268  1 11.667160  5.188754 28.204491
509    1 10.906827  6.345740 30.237504
12982  1  8.429355  6.345740 30.237504
19208  1  9.967870  4.028546 30.230384
608    1 10.968316  6.337110 34.300553
10892  1  9.224675  5.182370 32.265779
13081  1  8.490843  6.337110 34.300553
19307  1 10.027483  4.018474 34.293623
23367  1 11.702148  5.182370 32.265779
707    1 11.093690  6.343132 38.356205
10991  1  9.321505  5.172100 36.331444
13180  1  8.616217  6.343132 38.356205
19406  1 10.179840  4.011229 38.362220
7031   1  8.002860  4.079174 42.402650
806    1 11.298681  6.401586 42.396111
11090  1  9.514274  5.200161 40.382632
13279  1  8.821209  6.401586 42.396111
19505  1 10.480333  4.079173 42.402650
7130   1  8.220622  4.089075 46.420661
905    1 11.473108  6.424108 46.427591
11189  1  9.759440  5.257208 44.415203
13378  1  8.995636  6.424108 46.427591
19604  1 10.698095  4.089075 46.420661
1004   1 11.580809  6.416675 50.451842
7229   1  8.319008  4.076267 50.439554
11288  1  9.903018  5.252220 48.435350
13477  1  9.103337  6.416675 50.451842
19703  1 10.796480  4.076267 50.439554
23862  1  9.981907  5.243706 52.461344
1103   1  9.171863  6.412899 54.482366
7329   1 10.845220  4.072699 54.475401
13577  1 11.649335  6.412899 54.482367
19802  1  8.367748  4.072699 54.475400
23961  1 10.028360  5.243263 56.498528
1202   1  9.216207  6.415315 58.520468
7428   1 10.873148  4.073970 58.518165
13676  1 11.693680  6.415315 58.520468
19901  1  8.395675  4.073970 58.518165
24060  1 10.056474  5.246127 60.540952
1301   1  9.242757  6.419064 62.562744
7527   1 10.888299  4.076390 62.563633
13775  1 11.720230  6.419064 62.562744
20000  1  8.410826  4.076390 62.563633
24159  1 10.070822  5.249111 64.585956
1400   1  9.254464  6.422239 66.607560
7626   1 10.893364  4.078727 66.610514
13874  1 11.731937  6.422239 66.607560
20099  1  8.415891  4.078727 66.610513
24258  1 10.073568  5.251906 68.632424
1499   1  9.253192  6.425572 70.653669
7725   1 10.889482  4.081377 70.657969
13973  1 11.730664  6.425571 70.653669
20198  1  8.412010  4.081377 70.657969
24357  1 10.065527  5.255448 72.679066
1598   1  9.239177  6.430290 74.699273
7824   1 10.876348  4.085115 74.704608
14072  1 11.716650  6.430290 74.699273
20297  1  8.398876  4.085115 74.704608
1697   1  9.210290  6.436942 78.742058
7923   1 10.851529  4.090461 78.748376
14171  1 11.687763  6.436942 78.742058
20396  1  8.374056  4.090461 78.748376
24456  1 10.045603  5.260581 76.723943
1796   1  9.160951  6.444823 82.779675
8022   1 10.809219  4.097305 82.786987
14270  1 11.638423  6.444823 82.779675
20495  1  8.331747  4.097305 82.786987
24555  1 10.009946  5.267440 80.764722
1895   1  9.081186  6.449950 86.812211
8121   1 10.735773  4.104913 86.817249
14369  1 11.558658  6.449950 86.812211
20594  1  8.258301  4.104913 86.817249
24654  1  9.949836  5.275141 84.798903
1994   1  8.956037  6.437352 90.846545
8220   1 10.603311  4.102836 90.842991
14468  1 11.433510  6.437352 90.846545
20693  1  8.125838  4.102836 90.842991
24753  1  9.849433  5.277920 88.827919
6239   1  7.897329  4.041924  9.939285
14     1 11.253598  6.380485  9.949044
12487  1  8.776125  6.380485  9.949044
18713  1 10.374801  4.041924  9.939286
24852  1  9.683701  5.249042 92.862376
2093   1 11.259645  9.859043 11.990265
14566  1  8.782172  9.859043 11.990265
16645  1 10.373284  7.521873 11.976475
2192   1 11.147606  9.830780 16.038837
8428   1  9.514384  8.673168 14.006704
14665  1  8.670134  9.830780 16.038837
16744  1 10.248555  7.498186 16.026812
18823  1 10.402863 11.008678 14.021154
2291   1 11.073841  9.826620 20.093598
8527   1  9.417836  8.661557 18.060069
14764  1  8.596369  9.826620 20.093598
16843  1 10.167488  7.499682 20.085893
18922  1 10.313779 10.992663 18.071710
2390   1 11.034143  9.830546 24.151955
8626   1  9.358884  8.665221 22.119112
14863  1  8.556670  9.830546 24.151955
16942  1 10.124099  7.506393 24.147411
21101  1 11.836357  8.665221 22.119112
19021  1 10.259308 10.992802 22.126494
2489   1 11.027998  9.832291 28.211022
8725   1  9.335043  8.669420 26.179779
14962  1  8.550526  9.832291 28.211022
17041  1 10.118053  7.508077 28.208680
21200  1 11.812516  8.669420 26.179779
19120  1 10.236594 10.996024 26.183243
8824   1  9.347866  8.667993 30.240204
21299  1 11.825338  8.667993 30.240203
19219  1 10.245920 10.996647 30.239011
2588   1 11.057214  9.830601 32.267802
8923   1  9.400890  8.664878 34.297368
15061  1  8.579741  9.830601 32.267802
17140  1 10.152936  7.502822 32.270132
19318  1 10.289558 10.998460 34.290029
2687   1 11.126062  9.835486 36.317866
9022   1  9.502378  8.678513 38.345368
15160  1  8.648590  9.835486 36.317866
17239  1 10.236124  7.501101 36.327140
19417  1 10.373018 11.014890 38.333634
7042   1  8.017312 11.053298 42.373719
2786   1 11.242213  9.865994 40.359620
9121   1  9.655842  8.726376 42.385562
15259  1  8.764741  9.865994 40.359621
17338  1 10.382537  7.533122 40.371731
19516  1 10.494784 11.053298 42.373719
4963   1  8.084425  7.582649 44.410004
7141   1  8.137754 11.078917 46.414575
2885   1 11.382767  9.907048 44.400066
9220   1  9.798200  8.752822 46.423694
15358  1  8.905294  9.907048 44.400066
17437  1 10.561897  7.582649 44.410004
19615  1 10.615227 11.078917 46.414575
5062   1  8.214145  7.588233 48.440975
2984   1 11.498376  9.919067 48.437520
9319   1  9.903060  8.752999 50.455403
15457  1  9.020904  9.919067 48.437520
17536  1 10.691617  7.588233 48.440975
7240   1  8.237904 11.085212 50.451758
19714  1 10.715376 11.085211 50.451758
3083   1  9.112711  9.920020 52.470597
5162   1 10.780730  7.583295 52.469147
15557  1 11.590183  9.920019 52.470597
17635  1  8.303258  7.583296 52.469147
3182   1  9.186453  9.924469 56.504039
5261   1 10.843287  7.584104 56.502562
15656  1 11.663926  9.924468 56.504039
17734  1  8.365814  7.584104 56.502562
21893  1  9.982322  8.752554 54.486679
7340   1 10.800955 11.090126 54.486177
19813  1  8.323483 11.090126 54.486177
3281   1  9.240062  9.930925 60.540529
5360   1 10.884845  7.588443 60.541324
15755  1 11.717535  9.930925 60.540529
17833  1  8.407373  7.588443 60.541323
21992  1 10.040521  8.757034 58.521911
7439   1 10.870504 11.098365 58.521022
19912  1  8.393031 11.098366 58.521022
3380   1  9.272222  9.935436 64.580881
5459   1 10.908147  7.592332 64.583740
15854  1 11.749694  9.935436 64.580881
17932  1  8.430674  7.592332 64.583740
22091  1 10.078049  8.762018 62.561334
20011  1  8.440887 11.104824 62.558736
3479   1  9.284964  9.938609 68.624693
5558   1 10.915648  7.595596 68.628629
15953  1 11.762436  9.938609 68.624693
18031  1  8.438175  7.595596 68.628629
22190  1 10.096647  8.765579 66.604254
20110  1  8.466600 11.108267 66.600465
3578   1  9.280283  9.942808 72.670401
5657   1 10.908819  7.599740 72.674393
16052  1 11.757755  9.942808 72.670401
18130  1  8.431346  7.599740 72.674393
22289  1 10.098622  8.769121 70.649446
20209  1  8.472596 11.111360 70.645547
22388  1 10.084831  8.774411 74.694895
20308  1  8.460272 11.116612 74.692013
3677   1  9.258280  9.949441 76.715682
5756   1 10.887097  7.605875 76.718805
16151  1 11.735752  9.949441 76.715682
18229  1  8.409624  7.605875 76.718805
22487  1 10.053828  8.781923 78.738182
20407  1  8.429067 11.124342 78.737560
3776   1  9.216868  9.957570 80.758471
5855   1 10.847195  7.613763 80.759482
16250  1 11.694340  9.957570 80.758471
18328  1  8.369723  7.613763 80.759482
22586  1 10.001614  8.789660 82.777742
20506  1  8.376565 11.131286 82.780960
3875   1  9.151834  9.962261 84.798710
5954   1 10.782650  7.620462 84.795571
16349  1 11.629306  9.962261 84.798710
18427  1  8.305177  7.620462 84.795571
22685  1  9.921727  8.790791 86.815166
20605  1  8.298237 11.128921 86.823368
3974   1  9.056687  9.952409 88.839459
6053   1 10.683852  7.616359 88.830908
16448  1 11.534159  9.952409 88.839460
18526  1  8.206379  7.616359 88.830908
22784  1  9.805343  8.770548 90.855415
8231   1 10.665470 11.103880 90.867370
20704  1  8.187997 11.103880 90.867370
6250   1  8.050838 11.052349  9.974944
8329   1  9.653043  8.717063  9.961144
4073   1  8.926028  9.913640 92.883347
6152   1 10.539392  7.580892 92.871464
16547  1 11.403501  9.913639 92.883347
18625  1  8.061920  7.580893 92.871464
18724  1 10.528310 11.052349  9.974944
10408  1  9.661896 12.194790 12.005279
16656  1 10.535568 14.529432 12.020658
124    1 11.282183 13.343831 14.036436
10507  1  9.556972 12.164843 16.053041
12597  1  8.804711 13.343831 14.036436
16755  1 10.432958 14.499946 16.067408
223    1 11.196718 13.326427 18.084651
10606  1  9.487545 12.157674 20.104097
12696  1  8.719245 13.326428 18.084651
16854  1 10.364912 14.492462 20.114625
322    1 11.144202 13.325149 22.134779
10705  1  9.449763 12.159981 24.157658
12795  1  8.666729 13.325149 22.134779
23180  1 11.927235 12.159981 24.157658
16953  1 10.327127 14.494668 24.162780
421    1 11.121006 13.328366 26.186022
10804  1  9.441931 12.162520 28.211563
12894  1  8.643534 13.328366 26.186022
23279  1 11.919403 12.162520 28.211563
17052  1 10.316971 14.498291 28.211017
520    1 11.126408 13.331013 30.236085
12993  1  8.648936 13.331013 30.236085
619    1 11.162190 13.335930 34.281971
10903  1  9.464929 12.164182 32.262577
13092  1  8.684717 13.335930 34.281971
17151  1 10.334656 14.502222 32.256920
718    1 11.232229 13.352124 38.322662
11002  1  9.522150 12.172648 36.307659
13191  1  8.754756 13.352124 38.322662
17250  1 10.382872 14.511840 36.298458
817    1 11.333145 13.382170 42.362038
11101  1  9.617455 12.199304 40.347694
13290  1  8.855673 13.382170 42.362038
17349  1 10.463368 14.533669 40.336995
916    1 11.438854 13.404467 46.403431
11200  1  9.733374 12.232284 44.388483
13389  1  8.961381 13.404467 46.403431
17448  1 10.563058 14.559033 44.376989
5073   1  8.183885 14.573203 48.418434
1015   1 11.535878 13.414407 50.443706
11299  1  9.838474 12.246850 48.429062
13488  1  9.058405 13.414407 50.443706
17547  1 10.661358 14.573202 48.418434
23873  1  9.931492 12.253481 52.466424
5173   1 10.756857 14.584164 52.458576
17646  1  8.279384 14.584164 52.458576
1114   1  9.149771 13.425177 54.481316
13588  1 11.627243 13.425177 54.481316
23972  1 10.014227 12.263361 56.501771
5272   1 10.849185 14.600467 56.496140
17745  1  8.371713 14.600468 56.496140
1213   1  9.230000 13.438661 58.517191
13687  1 11.707473 13.438661 58.517191
24071  1 10.078776 12.272981 60.537712
5371   1 10.924846 14.614123 60.532648
17844  1  8.447373 14.614123 60.532648
1312   1  9.287851 13.446931 62.554533
7538   1 10.918359 11.104824 62.558736
13786  1 11.765324 13.446930 62.554533
24170  1 10.119659 12.277911 64.577051
5470   1 10.974617 14.619158 64.572181
17943  1  8.497144 14.619158 64.572181
1411   1  9.320980 13.449678 66.596136
7637   1 10.944072 11.108267 66.600465
13885  1 11.798453 13.449678 66.596136
24269  1 10.138205 12.280302 68.620672
5569   1 10.999656 14.619948 68.616691
18042  1  8.522184 14.619948 68.616691
1510   1  9.331882 13.451514 70.642117
7736   1 10.950069 11.111360 70.645547
13984  1 11.809355 13.451514 70.642116
24368  1 10.136727 12.283832 72.667371
5668   1 11.002474 14.621980 72.665364
18141  1  8.525001 14.621980 72.665364
1609   1  9.322250 13.455996 74.690751
7835   1 10.937744 11.116612 74.692013
14083  1 11.799723 13.455996 74.690751
1708   1  9.292146 13.463459 78.739854
7934   1 10.906539 11.124342 78.737560
14182  1 11.769618 13.463459 78.739854
24467  1 10.115904 12.290315 76.714941
5767   1 10.983943 14.627726 76.716197
18240  1  8.506471 14.627726 76.716198
1807   1  9.240204 13.469790 82.787921
8033   1 10.854037 11.131286 82.780959
14281  1 11.717676 13.469790 82.787921
24566  1 10.074739 12.298199 80.761439
5866   1 10.943668 14.635373 80.767190
18339  1  8.466196 14.635373 80.767191
1906   1  9.162876 13.465468 86.834805
8132   1 10.775710 11.128921 86.823368
14380  1 11.640348 13.465468 86.834805
24665  1 10.010441 12.301182 84.806443
5965   1 10.879697 14.637812 84.816993
18438  1  8.402225 14.637812 84.816993
2005   1  9.055225 13.437834 90.881237
14479  1 11.532697 13.437834 90.881237
24764  1  9.917882 12.287636 88.851313
6064   1 10.787506 14.622829 88.865120
18537  1  8.310034 14.622829 88.865120
25     1 11.401686 13.386787  9.989791
12498  1  8.924214 13.386787  9.989791
24863  1  9.794488 12.247007 92.897076
6163   1 10.665394 14.580911 92.911870
18636  1  8.187921 14.580911 92.911870
6261   1  8.185009 18.054054 10.019662
2104   1 11.402662 16.863289 12.035563
8340   1  9.795099 15.720649 10.004947
14577  1  8.925190 16.863289 12.035563
18735  1 10.662482 18.054054 10.019662
2203   1 11.298049 16.836293 16.080418
8439   1  9.675198 15.678767 14.051348
14676  1  8.820577 16.836294 16.080418
18834  1 10.535957 18.013930 14.064784
2302   1 11.229137 16.830850 20.123258
8538   1  9.589981 15.662658 18.096751
14775  1  8.751664 16.830850 20.123258
18933  1 10.448324 18.001594 18.106330
2401   1 11.190341 16.834063 24.166216
8637   1  9.537305 15.661996 22.141930
14874  1  8.712868 16.834063 24.166216
19032  1 10.394523 18.002980 22.146540
2500   1 11.178028 16.838633 28.209754
8736   1  9.512728 15.665916 26.187687
14973  1  8.700556 16.838633 28.209755
19131  1 10.368726 18.007759 26.187903
21211  1 11.990200 15.665915 26.187687
8835   1  9.514650 15.670034 30.232787
19230  1 10.368032 18.012596 30.229746
21310  1 11.992122 15.670034 30.232787
2599   1 11.191496 16.843682 32.252077
8934   1  9.544222 15.676337 34.274956
15072  1  8.714023 16.843683 32.252077
19329  1 10.392592 18.019036 34.269902
2698   1 11.232577 16.852861 36.291414
9033   1  9.604091 15.690568 38.313598
15171  1  8.755105 16.852861 36.291414
19428  1 10.444243 18.030527 38.307428
2797   1 11.302096 16.869608 40.328634
9132   1  9.690732 15.713055 42.351741
15270  1  8.824624 16.869608 40.328634
19527  1 10.520485 18.046191 42.344138
2896   1 11.390824 16.887703 44.367008
9231   1  9.786762 15.730573 46.392220
15369  1  8.913351 16.887704 44.367009
19626  1 10.610304 18.057988 46.382544
7251   1  8.231090 18.067797 50.423175
2995   1 11.485485 16.899206 48.407596
9330   1  9.883118 15.741659 50.433581
15468  1  9.008013 16.899206 48.407597
19725  1 10.708563 18.067797 50.423175
3094   1  9.108423 16.912684 52.448926
15568  1 11.585895 16.912683 52.448925
3193   1  9.213185 16.935975 56.488246
7351   1 10.818478 18.088676 54.464299
15667  1 11.690657 16.935975 56.488246
19824  1  8.341006 18.088676 54.464299
21904  1  9.982086 15.757907 54.473521
3292   1  9.301707 16.954144 60.525806
7450   1 10.926651 18.115770 58.502787
15766  1 11.779179 16.954143 60.525805
19923  1  8.449179 18.115770 58.502787
22003  1 10.074481 15.777731 58.510806
3391   1  9.361107 16.958586 64.566668
7549   1 11.007152 18.127187 62.542254
15865  1 11.838580 16.958586 64.566668
20022  1  8.529679 18.127187 62.542254
22102  1 10.142867 15.787846 62.548813
3490   1  9.393488 16.956837 68.613141
7648   1 11.057123 18.125957 66.587180
15964  1 11.870960 16.956837 68.613141
20121  1  8.579651 18.125957 66.587180
22201  1 10.183971 15.789132 66.591476
3589   1  9.401618 16.956583 72.664350
7747   1 11.080676 18.122670 70.637542
16063  1 11.879091 16.956583 72.664350
20220  1  8.603203 18.122670 70.637542
22300  1 10.200743 15.788819 70.639316
7846   1 11.079395 18.123634 74.691735
20319  1  8.601923 18.123634 74.691735
22399  1 10.194866 15.791819 74.690813
3688   1  9.386151 16.961140 76.718582
7945   1 11.053136 18.129995 78.748491
16162  1 11.863623 16.961140 76.718581
20418  1  8.575663 18.129995 78.748492
22498  1 10.166507 15.798789 78.743993
3787   1  9.346732 16.968867 80.774101
8044   1 11.000990 18.137591 82.806165
16261  1 11.824205 16.968867 80.774101
20517  1  8.523517 18.137591 82.806165
22597  1 10.114831 15.805279 82.796959
3886   1  9.281842 16.972369 84.828690
8143   1 10.920274 18.135772 86.861538
16360  1 11.759315 16.972369 84.828690
20616  1  8.442802 18.135772 86.861538
22696  1 10.036881 15.801046 86.847994
3985   1  9.187206 16.958375 88.879837
8242   1 10.805483 18.108677 90.911357
16459  1 11.664678 16.958374 88.879837
20715  1  8.328010 18.108677 90.911357
22795  1  9.927874 15.772675 90.896155
4084   1  9.060254 16.915457 92.926987
16558  1 11.537726 16.915457 92.926987
36     1 11.524549 20.386933 10.033192
10419  1  9.784064 19.196660 12.049121
12509  1  9.047077 20.386933 10.033192
16667  1 10.631116 21.530046 12.060199
135    1 11.384627 20.350127 14.075416
10518  1  9.673575 19.174519 16.090589
12608  1  8.907155 20.350127 14.075416
16766  1 10.511884 21.515727 16.095971
234    1 11.293208 20.343775 18.111693
10617  1  9.602822 19.172858 20.128456
12707  1  8.815736 20.343775 18.111693
16865  1 10.440728 21.518445 20.128943
23092  1 12.080294 19.172858 20.128456
333    1 11.239182 20.347627 22.147615
10716  1  9.563449 19.177404 24.167221
12806  1  8.761710 20.347627 22.147615
16964  1 10.403117 21.523688 24.165611
23191  1 12.040921 19.177403 24.167220
432    1 11.213618 20.352780 26.186551
10815  1  9.549955 19.182391 28.207914
12905  1  8.736146 20.352781 26.186551
17063  1 10.390077 21.528346 28.205697
23290  1 12.027428 19.182390 28.207914
531    1 11.211446 20.357550 30.227231
13004  1  8.733973 20.357550 30.227231
630    1 11.231668 20.363353 34.267195
10914  1  9.560185 19.187602 32.248602
13103  1  8.754196 20.363353 34.267196
17162  1 10.397872 21.533009 32.246640
23389  1 12.037658 19.187602 32.248602
729    1 11.275786 20.372041 38.304912
11013  1  9.595116 19.195503 36.287255
13202  1  8.798313 20.372041 38.304912
17261  1 10.426865 21.539326 36.286245
23488  1 12.072589 19.195503 36.287255
828    1 11.343208 20.381864 42.340645
11112  1  9.655633 19.207472 40.323757
13301  1  8.865736 20.381865 42.340645
17360  1 10.478593 21.547327 40.323311
927    1 11.428626 20.387506 46.376134
11211  1  9.736362 19.218747 44.360065
13400  1  8.951153 20.387506 46.376134
17459  1 10.551906 21.552711 44.357912
1026   1 11.531133 20.393570 50.414052
11310  1  9.829812 19.225737 48.398209
13499  1  9.053660 20.393571 50.414052
17558  1 10.645299 21.553836 48.392131
5184   1 10.765130 21.565082 52.430209
17657  1  8.287658 21.565083 52.430210
23884  1  9.938185 19.239525 52.439021
1125   1  9.179352 20.417746 54.454953
5283   1 10.912831 21.604006 56.470427
13599  1 11.656824 20.417746 54.454953
17756  1  8.435358 21.604007 56.470427
23983  1 10.060389 19.270315 56.479314
1224   1  9.309472 20.453166 58.494211
5382   1 11.039334 21.630601 60.510890
13698  1 11.786944 20.453166 58.494211
17855  1  8.561862 21.630601 60.510890
24082  1 10.165177 19.293015 60.518126
1323   1  9.404719 20.464505 62.536088
5481   1 11.122517 21.629326 64.558468
13797  1 11.882192 20.464505 62.536088
17954  1  8.645044 21.629326 64.558468
24181  1 10.235567 19.295587 64.561517
1422   1  9.464605 20.459443 66.584601
5580   1 11.171535 21.619996 68.611475
13896  1 11.942078 20.459443 66.584601
18053  1  8.694063 21.619997 68.611476
24280  1 10.276136 19.290351 68.610909
1521   1  9.495362 20.452738 70.637631
5679   1 11.191418 21.614345 72.666244
13995  1 11.972834 20.452738 70.637630
18152  1  8.713946 21.614345 72.666245
24379  1 10.290279 19.287305 72.664481
1620   1  9.499075 20.451482 74.693200
14094  1 11.976547 20.451482 74.693200
1719   1  9.475522 20.456984 78.751638
5778   1 11.183730 21.615756 76.722673
14193  1 11.952994 20.456984 78.751638
18251  1  8.706257 21.615756 76.722673
24478  1 10.278479 19.290350 76.721040
1818   1  9.422784 20.466165 82.813122
5877   1 11.147212 21.623593 80.782989
14292  1 11.900256 20.466165 82.813121
18350  1  8.669740 21.623593 80.782989
24577  1 10.239925 19.298367 80.780150
1917   1  9.337180 20.469110 86.873676
5976   1 11.077576 21.633240 84.847027
14391  1 11.814652 20.469110 86.873676
18449  1  8.600104 21.633240 84.847027
24676  1 10.172750 19.304536 84.839603
2016   1  9.211322 20.446115 90.926111
6075   1 10.967986 21.630170 88.907440
14490  1 11.688794 20.446115 90.926111
18548  1  8.490514 21.630170 88.907440
24775  1 10.072395 19.294335 88.894414
6174   1 10.807567 21.587710 92.955575
18647  1  8.330094 21.587710 92.955576
24874  1  9.933495 19.250906 92.941747
2115   1 11.458205 23.864909 12.066598
8351   1  9.899939 22.719021 10.044644
14588  1  8.980733 23.864909 12.066598
18746  1 10.733054 25.050128 10.052157
10430  1  9.768889 26.205463 12.063357
2214   1 11.331526 23.861350 16.093895
8450   1  9.738896 22.688917 14.081033
14687  1  8.854053 23.861350 16.093895
18845  1 10.545138 25.033009 14.077662
10529  1  9.652454 26.211723 16.083115
2313   1 11.265996 23.866969 20.124549
8549   1  9.645551 22.689760 18.111057
14786  1  8.788524 23.866969 20.124549
18944  1 10.459894 25.039205 18.104025
21024  1 12.123023 22.689760 18.111057
10628  1  9.604156 26.216667 20.118229
2412   1 11.234146 23.871671 24.162178
8648   1  9.595050 22.695098 22.144998
14885  1  8.756673 23.871671 24.162178
19043  1 10.419493 25.044019 22.140233
21123  1 12.072523 22.695098 22.144998
10727  1  9.581469 26.220340 24.158230
2511   1 11.223301 23.875397 28.203466
8747   1  9.572246 22.699754 26.184005
14984  1  8.745829 23.875397 28.203467
19142  1 10.401921 25.047610 26.181029
21222  1 12.049718 22.699753 26.184004
10826  1  9.574415 26.222694 28.201756
8846   1  9.569777 22.703805 30.225383
19241  1 10.400248 25.050460 30.224332
21321  1 12.047249 22.703805 30.225382
2610   1 11.229324 23.878995 32.246083
8945   1  9.585981 22.708504 34.266750
15083  1  8.751851 23.878996 32.246083
19340  1 10.412604 25.053726 34.268088
21420  1 12.063453 22.708504 34.266750
10925  1  9.579199 26.224867 32.246694
2709   1 11.252173 23.883633 36.288002
9044   1  9.622203 22.714745 38.306255
15182  1  8.774700 23.883633 36.288003
19439  1 10.440146 25.057848 38.310684
21519  1 12.099676 22.714745 38.306255
11024  1  9.595667 26.227690 36.291565
2808   1 11.293906 23.888729 40.327496
9143   1  9.680089 22.720175 42.342521
15281  1  8.816433 23.888730 40.327496
19538  1 10.485853 25.060592 42.350024
21618  1 12.157562 22.720175 42.342521
11123  1  9.625842 26.230590 40.334943
2907   1 11.357494 23.889991 44.362304
9242   1  9.760459 22.720132 46.375169
15380  1  8.880021 23.889991 44.362304
19637  1 10.556580 25.056877 46.382214
11222  1  9.674615 26.230124 44.373753
3006   1 11.449138 23.885047 48.391998
9341   1  9.868581 22.720032 50.408033
15479  1  8.971666 23.885047 48.391998
19736  1 10.668151 25.049162 50.408067
11321  1  9.756747 26.221401 48.401601
3105   1  9.106249 23.889975 52.424058
15579  1 11.583721 23.889975 52.424057
23895  1  9.905454 26.215959 52.423347
3204   1  9.293212 23.937586 56.462496
7362   1 10.848902 25.070596 54.440495
15678  1 11.770685 23.937586 56.462496
19835  1  8.371429 25.070597 54.440496
21915  1 10.016923 22.745144 54.446595
3303   1  9.450191 23.966093 60.505979
7461   1 11.063077 25.126835 58.480175
15777  1 11.927664 23.966093 60.505979
19934  1  8.585604 25.126835 58.480175
22014  1 10.179372 22.790260 58.486187
3402   1  9.547747 23.958454 64.560230
7560   1 11.200166 25.128266 62.534113
15876  1 12.025219 23.958454 64.560229
20033  1  8.722693 25.128266 62.534114
22113  1 10.293125 22.798881 62.532273
3501   1  9.603350 23.945589 68.616557
7659   1 11.278568 25.113143 66.593308
15975  1 12.080822 23.945589 68.616557
20132  1  8.801095 25.113143 66.593308
22212  1 10.363420 22.788758 66.585831
3600   1  9.626653 23.938652 72.670077
7758   1 11.317099 25.102800 70.647301
16074  1 12.104125 23.938652 72.670077
20231  1  8.839627 25.102800 70.647301
22311  1 10.400269 22.779145 70.640724
7857   1 11.327410 25.099309 74.697839
20330  1  8.849937 25.099309 74.697839
22410  1 10.408315 22.776191 74.695202
3699   1  9.623080 23.938669 76.723298
7956   1 11.313702 25.101592 78.750005
16173  1 12.100552 23.938669 76.723298
20429  1  8.836229 25.101592 78.750005
22509  1 10.388834 22.780290 78.752061
3798   1  9.591905 23.944924 80.780892
8055   1 11.270906 25.109343 82.808927
16272  1 12.069378 23.944924 80.780892
20528  1  8.793434 25.109343 82.808927
22608  1 10.337852 22.790110 82.814787
3897   1  9.523871 23.956486 84.846961
8154   1 11.180748 25.122781 86.879649
20627  1  8.703276 25.122781 86.879649
22707  1 10.246793 22.799347 86.881529
16371  1 12.001344 23.956486 84.846961
3996   1  9.402981 23.963823 88.916134
8253   1 11.012200 25.124149 90.949486
20726  1  8.534727 25.124149 90.949486
22806  1 10.103179 22.785025 90.939524
16470  1 11.880453 23.963823 88.916134
4095   1  9.205534 23.926580 92.967880
16569  1 11.683006 23.926580 92.967880
47     1 11.505490 27.383176 10.052467
12520  1  9.028017 27.383176 10.052467
16678  1 10.486372 28.559702 12.041229
22905  1 12.246362 26.205463 12.063357
8362   1  9.530894 29.741523 10.052647
20837  1 12.008366 29.741523 10.052647
146    1 11.317335 27.384727 14.061615
12619  1  8.839863 27.384727 14.061615
16777  1 10.438323 28.562001 16.076179
23004  1 12.129927 26.211723 16.083115
8461   1  9.598661 29.734781 14.061391
20936  1 12.076133 29.734781 14.061391
245    1 11.263354 27.389402 18.096479
12718  1  8.785882 27.389402 18.096479
16876  1 10.412725 28.567028 20.112579
23103  1 12.081629 26.216666 20.118229
8560   1  9.580706 29.741022 18.091084
21035  1 12.058178 29.741021 18.091084
344    1 11.237542 27.393500 22.135279
12817  1  8.760070 27.393500 22.135279
16975  1 10.402452 28.568983 24.155394
23202  1 12.058941 26.220340 24.158230
8659   1  9.574476 29.742912 22.132454
21134  1 12.051948 29.742912 22.132454
443    1 11.227459 27.395566 26.178661
12916  1  8.749987 27.395566 26.178661
17074  1 10.400363 28.569743 28.201150
23301  1 12.051888 26.222694 28.201756
8758   1  9.573430 29.743230 26.177909
21233  1 12.050902 29.743229 26.177909
542    1 11.227433 27.396918 30.224232
13015  1  8.749961 27.396918 30.224232
8857   1  9.575569 29.742939 30.225218
21332  1 12.053041 29.742939 30.225217
641    1 11.236089 27.398476 34.270532
13114  1  8.758617 27.398476 34.270532
17173  1 10.404283 28.570254 32.248215
23400  1 12.056672 26.224867 32.246694
8956   1  9.580644 29.742566 34.273441
21431  1 12.058117 29.742566 34.273441
740    1 11.254350 27.400495 38.316581
13213  1  8.776878 27.400496 38.316581
17272  1 10.414278 28.571036 36.295757
23499  1 12.073140 26.227690 36.291565
9055   1  9.589373 29.742261 38.322175
21530  1 12.066845 29.742261 38.322174
839    1 11.285124 27.401521 42.360792
13312  1  8.807652 27.401521 42.360793
17371  1 10.431889 28.571798 40.343071
23598  1 12.103315 26.230590 40.334943
9154   1  9.603694 29.741496 42.370759
21629  1 12.081166 29.741496 42.370759
938    1 11.336960 27.397663 46.398546
13411  1  8.859488 27.397663 46.398547
17470  1 10.461278 28.570715 44.388119
23697  1 12.152087 26.230124 44.373753
9253   1  9.629303 29.738727 46.416581
21728  1 12.106776 29.738727 46.416581
1037   1 11.439533 27.384541 50.419379
13510  1  8.962060 27.384541 50.419379
17569  1 10.516959 28.564011 48.424222
9352   1  9.689573 29.730530 50.450239
21827  1 12.167046 29.730530 50.450239
23796  1 12.234219 26.221401 48.401601
5195   1 10.659692 28.548262 52.433499
1136   1  9.186095 27.393707 54.438952
5294   1 11.040319 28.604083 56.455120
13610  1 11.663568 27.393707 54.438952
17767  1  8.562846 28.604083 56.455120
23994  1 10.158195 26.271448 56.456675
21926  1  9.933471 29.717671 54.442309
1235   1  9.495471 27.460393 58.479672
5393   1 11.314268 28.615805 60.523221
13709  1 11.972944 27.460392 58.479672
17866  1  8.836796 28.615805 60.523221
24093  1 10.361089 26.296775 60.507098
22025  1 10.473274 29.779707 58.499592
1334   1  9.658154 27.449039 62.547193
5492   1 11.417920 28.598163 64.589308
13808  1 12.135626 27.449039 62.547192
17965  1  8.940448 28.598163 64.589308
24192  1 10.471193 26.281185 64.570390
22124  1 10.629981 29.760982 62.572673
1433   1  9.733094 27.433416 66.607254
5591   1 11.458784 28.589642 68.638182
13907  1 12.210566 27.433416 66.607253
18064  1  8.981311 28.589642 68.638182
24291  1 10.526143 26.267985 68.626499
22223  1 10.676925 29.753332 66.621687
1532   1  9.765413 27.425535 70.655910
5690   1 11.475439 28.585360 72.681486
18163  1  8.997966 28.585360 72.681487
24390  1 10.548318 26.261830 72.675571
22322  1 10.696242 29.748924 70.663870
14006  1 12.242885 27.425535 70.655910
1631   1  9.775520 27.422435 74.701022
22421  1 10.704358 29.746440 74.704464
14105  1 12.252993 27.422435 74.701022
1730   1  9.768903 27.422947 78.747383
5789   1 11.478536 28.583883 76.724316
18262  1  9.001063 28.583883 76.724316
24489  1 10.548368 26.260924 76.723533
22520  1 10.705535 29.745447 78.746501
14204  1 12.246376 27.422947 78.747383
1829   1  9.741756 27.426931 82.798926
5888   1 11.469364 28.584809 80.769938
18361  1  8.991891 28.584809 80.769939
24588  1 10.526640 26.264510 80.775206
22619  1 10.699149 29.746023 82.792086
14303  1 12.219228 27.426931 82.798926
1928   1  9.673899 27.435882 86.861478
5987   1 11.440641 28.588351 84.821265
18460  1  8.963168 28.588351 84.821265
24687  1 10.471840 26.273169 84.835937
22718  1 10.676780 29.748201 86.842756
14402  1 12.151371 27.435881 86.861478
2027   1  9.491066 27.455697 90.946775
6086   1 11.359074 28.596584 88.884657
18559  1  8.881602 28.596585 88.884657
24786  1 10.348821 26.289168 88.913136
22817  1 10.597101 29.758952 90.902891
14501  1 11.968538 27.455697 90.946775
6185   1 11.009062 28.602235 92.974094
18658  1  8.531589 28.602236 92.974094
24885  1 10.085961 26.267973 92.977355
2126   1 11.205363 30.913088 12.065385
10441  1  9.447450 33.266316 12.041911
14599  1  8.727890 30.913088 12.065386
18757  1 10.394602 32.079650 10.052128
22916  1 11.924922 33.266316 12.041911
2225   1 11.212459 30.916220 16.072977
10540  1  9.509304 33.270481 16.077182
14698  1  8.734986 30.916220 16.072977
18856  1 10.342333 32.095062 14.061882
23015  1 11.986776 33.270481 16.077182
2324   1 11.217731 30.917464 20.110709
10639  1  9.545610 33.267818 20.114091
14797  1  8.740258 30.917465 20.110709
18955  1 10.372429 32.093081 18.091683
23114  1 12.023083 33.267818 20.114091
2423   1 11.221862 30.917330 24.155064
10738  1  9.564220 33.265482 24.157786
14896  1  8.744389 30.917330 24.155064
19054  1 10.387963 32.092112 22.133408
23213  1 12.041692 33.265482 24.157786
2522   1 11.225336 30.916409 28.202086
10837  1  9.573286 33.262798 28.204706
14995  1  8.747864 30.916409 28.202086
19153  1 10.396514 32.090583 26.179382
23312  1 12.050758 33.262798 28.204706
19252  1 10.400994 32.088568 30.227341
2621   1 11.228584 30.915116 32.250430
10936  1  9.575840 33.259643 32.253185
15094  1  8.751111 30.915116 32.250430
19351  1 10.402515 32.086138 34.276364
23411  1 12.053312 33.259643 32.253185
2720   1 11.232093 30.913643 36.299591
11035  1  9.572772 33.255845 36.302505
15193  1  8.754621 30.913643 36.299591
19450  1 10.401599 32.083308 38.326182
23510  1 12.050244 33.255845 36.302505
2819   1 11.236741 30.911983 40.349379
11134  1  9.564236 33.251612 40.352404
15292  1  8.759269 30.911983 40.349379
19549  1 10.398915 32.080369 42.376549
23609  1 12.041709 33.251612 40.352404
2918   1 11.244605 30.909908 44.398961
11233  1  9.549930 33.248173 44.402058
15391  1  8.767133 30.909908 44.398961
19648  1 10.395518 32.077945 46.426068
23708  1 12.027402 33.248173 44.402058
3017   1 11.261938 30.906644 48.445115
11332  1  9.525812 33.247467 48.448237
15490  1  8.784466 30.906644 48.445115
19747  1 10.392439 32.076371 50.470092
23807  1 12.003284 33.247467 48.448237
3116   1  8.844186 30.899085 52.474181
11431  1  9.460637 33.252881 52.477011
15590  1 11.321659 30.899085 52.474181
23906  1 11.938110 33.252881 52.477011
3215   1  9.543795 30.910445 56.483246
11530  1  8.751957 33.242406 56.487541
19846  1 10.390374 32.075982 54.470903
24005  1 11.229429 33.242406 56.487541
15689  1 12.021267 30.910444 56.483245
3314   1  9.857661 30.919952 60.557394
7472   1 11.626553 32.076515 58.541975
19945  1  9.149081 32.076516 58.541976
24104  1 10.915403 33.232185 60.560554
15788  1 12.335134 30.919952 60.557394
3413   1  9.902817 30.915710 64.605432
7571   1 11.625121 32.075690 62.587094
20044  1  9.147649 32.075690 62.587094
24203  1 10.870149 33.234960 64.608338
3512   1  9.918961 30.912355 68.647045
7670   1 11.625955 32.074782 66.629456
20143  1  9.148483 32.074782 66.629456
24302  1 10.857442 33.235957 68.649868
3611   1  9.927402 30.909833 72.686402
7769   1 11.628696 32.073302 70.668756
20242  1  9.151224 32.073302 70.668756
24401  1 10.856746 33.234881 72.689317
7868   1 11.633951 32.071229 74.707769
20341  1  9.156479 32.071229 74.707769
3710   1  9.933127 30.907844 76.726353
7967   1 11.643039 32.068776 78.748786
20440  1  9.165567 32.068776 78.748785
24500  1 10.864819 33.232208 76.729740
3809   1  9.938026 30.906491 80.768945
8066   1 11.659202 32.066338 82.793679
20539  1  9.181730 32.066338 82.793679
24599  1 10.883698 33.228428 80.773716
3908   1  9.943097 30.906117 84.815541
8165   1 11.692241 32.064565 86.843896
20638  1  9.214768 32.064565 86.843896
24698  1 10.922570 33.223991 84.823934
12322  1  8.537845 33.217656 88.886185
4007   1  9.948439 30.906764 88.865264
8264   1 11.781170 32.056318 90.902225
20737  1  9.303697 32.056318 90.902225
24797  1 11.015317 33.217656 88.886185
12421  1  8.908212 33.218911 92.975181
4106   1  9.954924 30.910620 92.937452
24896  1 11.385685 33.218911 92.975181
58     1 10.897115 34.439270 10.054682
8373   1  9.190533 36.772935 10.055409
16689  1 10.164203 35.621140 12.065507
20848  1 11.668006 36.772934 10.055409
157    1 11.101408 34.445165 14.062853
8472   1  9.396338 36.797288 14.080148
12630  1  8.623935 34.445165 14.062853
16788  1 10.295870 35.620815 16.085094
20947  1 11.873810 36.797288 14.080147
256    1 11.167830 34.444657 18.098294
8571   1  9.495079 36.794748 18.107086
12729  1  8.690358 34.444658 18.098294
16887  1 10.355253 35.617931 20.121277
21046  1 11.972551 36.794748 18.107086
355    1 11.203157 34.441240 22.138151
8670   1  9.545356 36.790152 22.145041
12828  1  8.725685 34.441241 22.138151
16986  1 10.386482 35.613542 24.163013
21145  1 12.022829 36.790151 22.145040
454    1 11.220840 34.437769 26.183067
8769   1  9.570686 36.784783 26.188331
12927  1  8.743368 34.437769 26.183067
17085  1 10.400574 35.609032 28.208800
21244  1 12.048158 36.784782 26.188331
553    1 11.227486 34.433980 30.230533
8868   1  9.578920 36.779287 30.234614
13026  1  8.750014 34.433980 30.230533
21343  1 12.056392 36.779287 30.234614
652    1 11.225304 34.429518 34.279104
8967   1  9.572658 36.773014 34.281734
13125  1  8.747832 34.429518 34.279104
17184  1 10.402153 35.604076 32.256396
21442  1 12.050131 36.773014 34.281734
751    1 11.214528 34.424200 38.328109
9066   1  9.551659 36.765506 38.328313
13224  1  8.737055 34.424200 38.328109
17283  1 10.392235 35.598109 36.304441
21541  1 12.029131 36.765506 38.328313
850    1 11.194546 34.419100 42.376862
9165   1  9.514311 36.758661 42.372784
13323  1  8.717073 34.419100 42.376862
17382  1 10.370209 35.591503 40.352060
21640  1 11.991784 36.758661 42.372784
949    1 11.161837 34.417074 46.422779
9264   1  9.454456 36.757870 46.410631
13422  1  8.684365 34.417074 46.422779
17481  1 10.333757 35.587116 44.397280
21739  1 11.931929 36.757870 46.410630
13521  1  8.617538 34.422346 50.456323
1048   1 11.095011 34.422346 50.456322
9363   1  9.344468 36.768412 50.431314
17580  1 10.270677 35.590053 48.433396
21838  1 11.821940 36.768411 50.431314
17679  1 10.121666 35.604018 52.442469
1147   1 10.845623 34.434553 54.448391
5305   1 12.211505 35.548815 56.464680
9462   1  9.113685 36.758821 54.450899
17778  1  9.734032 35.548816 56.464680
21937  1 11.591157 36.758821 54.450899
1246   1 10.300056 34.373570 58.506325
5404   1 11.934836 35.536959 60.532297
9561   1  8.799161 36.692945 58.491422
17877  1  9.457364 35.536959 60.532297
22036  1 11.276633 36.692945 58.491422
1345   1 10.142043 34.390716 62.578604
5503   1 11.830902 35.553104 64.597785
9660   1  8.634271 36.703489 62.558464
17976  1  9.353430 35.553105 64.597785
22135  1 11.111744 36.703488 62.558464
1444   1 10.096617 34.396531 66.627331
5602   1 11.793131 35.559249 68.646455
18075  1  9.315658 35.559249 68.646456
22234  1 11.037764 36.717328 66.618131
1543   1 10.082622 34.397941 70.669496
5701   1 11.783871 35.559804 72.689963
18174  1  9.306398 35.559804 72.689963
22333  1 11.010219 36.722164 70.666746
1642   1 10.084825 34.396147 74.710526
22432  1 11.009734 36.720732 74.712394
1741   1 10.101354 34.391918 78.754060
5800   1 11.793980 35.556259 76.733862
18273  1  9.316508 35.556259 76.733862
22531  1 11.032461 36.714427 78.760580
10155  1  8.607221 36.704040 82.816460
1840   1 10.138185 34.385784 82.803616
5899   1 11.825080 35.549454 80.782520
18372  1  9.347607 35.549454 80.782520
22630  1 11.084694 36.704040 82.816461
10254  1  8.708694 36.690222 86.885310
1939   1 10.216893 34.377134 86.864761
5998   1 11.890023 35.539509 84.841128
18471  1  9.412551 35.539509 84.841128
22729  1 11.186167 36.690221 86.885310
10353  1  8.892231 36.691918 90.954086
2038   1 10.413912 34.360197 90.949406
6097   1 12.025596 35.524852 88.917253
18570  1  9.548124 35.524853 88.917253
22828  1 11.369704 36.691918 90.954085
6196   1 12.306767 35.552136 92.980483
18669  1  9.829294 35.552136 92.980484
2137   1 10.952203 37.962284 12.069916
10452  1  9.302449 40.297885 12.064574
18768  1 10.023068 39.104552 10.049161
22927  1 11.779922 40.297885 12.064574
6295   1 12.500541 39.104552 10.049161
2236   1 11.095393 37.971414 16.097111
10551  1  9.439593 40.317331 16.100304
18867  1 10.203517 39.141903 14.084651
23026  1 11.917066 40.317330 16.100304
2335   1 11.172779 37.967201 20.129164
10650  1  9.523439 40.315104 20.135188
14808  1  8.695306 37.967201 20.129164
18966  1 10.311422 39.144089 18.115468
23125  1 12.000911 40.315104 20.135187
2434   1 11.213470 37.961238 24.169357
10749  1  9.570267 40.307834 24.175239
14907  1  8.735998 37.961239 24.169358
19065  1 10.372364 39.138193 22.151778
23224  1 12.047739 40.307834 24.175238
2533   1 11.231384 37.955026 28.213880
10848  1  9.590268 40.300348 28.219361
15006  1  8.753912 37.955027 28.213880
19164  1 10.403094 39.131249 26.194177
23323  1 12.067740 40.300348 28.219361
19263  1 10.411880 39.124359 30.239358
2632   1 11.231392 37.948528 32.260068
10947  1  9.587771 40.292845 32.264320
15105  1  8.753919 37.948528 32.260069
19362  1 10.400935 39.116728 34.284594
23422  1 12.065244 40.292845 32.264320
2731   1 11.214184 37.940768 36.305840
11046  1  9.562759 40.283808 36.307561
15204  1  8.736711 37.940768 36.305841
19461  1 10.369374 39.107424 38.327926
23521  1 12.040232 40.283808 36.307561
2830   1 11.178460 37.932152 40.349635
11145  1  9.513609 40.273247 40.347430
15303  1  8.700988 37.932153 40.349635
19560  1 10.315468 39.098945 42.367465
23620  1 11.991082 40.273247 40.347430
15402  1  8.643869 37.927228 44.388584
2929   1 11.121341 37.927228 44.388584
11244  1  9.439645 40.266687 44.382155
19659  1 10.235176 39.098210 46.399585
23719  1 11.917117 40.266687 44.382155
3028   1 11.030675 37.932482 48.416346
11343  1  9.337817 40.268562 48.411461
19758  1 10.114892 39.103809 50.425070
23818  1 11.815290 40.268562 48.411461
3127   1 10.874494 37.936591 52.437786
11442  1  9.194465 40.262905 52.442749
23917  1 11.671937 40.262905 52.442749
3226   1 10.615240 37.881638 56.470713
7384   1 12.404090 39.082315 54.456873
11541  1  9.000296 40.216052 56.480331
19857  1  9.926618 39.082315 54.456873
24016  1 11.477769 40.216052 56.480331
3325   1 10.408282 37.856650 60.520842
7483   1 12.184176 39.026917 58.496017
11640  1  8.838188 40.188243 60.523398
19956  1  9.706704 39.026917 58.496017
24115  1 11.315661 40.188243 60.523397
1257   1 10.586831 41.364322 58.505197
3424   1 10.296975 37.871174 64.583759
7582   1 12.043779 39.025340 62.549691
11739  1  8.738217 40.195363 64.577499
20055  1  9.566307 39.025340 62.549692
24214  1 11.215690 40.195363 64.577499
1356   1 10.468607 41.356055 62.551053
3523   1 10.244332 37.882085 68.639659
7681   1 11.965289 39.039009 66.608663
11838  1  8.683630 40.206269 68.633748
20154  1  9.487817 39.039009 66.608663
24313  1 11.161103 40.206268 68.633748
1455   1 10.396789 41.365229 66.604652
3622   1 10.228686 37.884435 72.688858
7780   1 11.930451 39.046427 70.662579
20253  1  9.452978 39.046427 70.662579
24412  1 11.142750 40.209624 72.687118
1554   1 10.361920 41.372358 70.659465
7879   1 11.928298 39.045350 74.713232
20352  1  9.450826 39.045350 74.713232
1653   1 10.359636 41.371245 74.713229
12036  1  8.678075 40.204498 76.739878
3721   1 10.240392 37.880003 76.737605
7978   1 11.955164 39.037204 78.765838
20451  1  9.477692 39.037204 78.765838
24511  1 11.155548 40.204498 76.739878
1752   1 10.388204 41.362155 78.767934
12135  1  8.721959 40.192855 80.796045
3820   1 10.280208 37.870141 80.791319
8077   1 12.015086 39.024171 82.824849
20550  1  9.537614 39.024171 82.824849
24610  1 11.199431 40.192854 80.796045
1851   1 10.448921 41.349316 82.825307
12234  1  8.801459 40.180448 84.856586
3919   1 10.358394 37.856582 84.854550
8176   1 12.117633 39.013789 86.889062
20649  1  9.640160 39.013789 86.889062
24709  1 11.278931 40.180448 84.856586
1950   1 10.546059 41.344300 86.882634
12333  1  8.924689 40.183738 88.914783
4018   1 10.492401 37.850135 88.922116
8275   1 12.276994 39.031059 90.945551
20748  1  9.799522 39.031059 90.945552
24808  1 11.402162 40.183738 88.914783
2049   1 10.688855 41.369781 90.933125
12432  1  9.104369 40.231973 92.961404
4117   1 10.708005 37.893224 92.972505
24907  1 11.581841 40.231972 92.961404
69     1 10.875710 41.437156 10.038627
8384   1  9.260406 43.770575 10.025535
16700  1 10.150949 42.632175 12.054166
20859  1 11.737879 43.770575 10.025535
2148   1 11.012350 44.966669 12.040765
168    1 11.037189 41.481388 14.079930
8483   1  9.411627 43.818428 14.069813
16799  1 10.281203 42.658840 16.095823
20958  1 11.889099 43.818428 14.069812
2247   1 11.139291 44.997211 16.086341
267    1 11.144360 41.489855 18.117380
8582   1  9.516479 43.831529 18.113246
16898  1 10.365573 42.659721 20.136386
21057  1 11.993952 43.831529 18.113246
2346   1 11.222910 45.000150 20.133124
366    1 11.209438 41.484410 22.156473
8681   1  9.581960 43.827252 22.157719
12839  1  8.731965 41.484410 22.156474
16997  1 10.414483 42.652244 24.179472
21156  1 12.059433 43.827252 22.157719
2445   1 11.271367 44.993077 24.181497
14918  1  8.793895 44.993077 24.181497
465    1 11.243012 41.476384 26.199633
8780   1  9.615584 43.819092 26.204087
12938  1  8.765539 41.476384 26.199633
17096  1 10.434526 42.644211 28.224777
21255  1 12.093057 43.819092 26.204087
2544   1 11.289231 44.985576 28.229887
15017  1  8.811759 44.985576 28.229887
564    1 11.250908 41.468743 30.244586
8879   1  9.620840 43.811681 30.250218
13037  1  8.773435 41.468743 30.244587
21354  1 12.098312 43.811680 30.250218
663    1 11.234470 41.460435 34.288221
8978   1  9.597886 43.803611 34.293164
13136  1  8.756998 41.460435 34.288221
17195  1 10.428281 42.636553 32.269358
21453  1 12.075358 43.803611 34.293164
2643   1 11.277685 44.978937 32.275350
15116  1  8.800213 44.978937 32.275351
762    1 11.192201 41.449595 38.328540
9077   1  9.544790 43.791286 38.331550
13235  1  8.714728 41.449596 38.328540
17294  1 10.394915 42.626823 36.310621
21552  1 12.022263 43.791286 38.331550
2742   1 11.235224 44.969200 36.315759
861    1 11.123644 41.438544 42.364734
9176   1  9.463228 43.775942 42.366698
17393  1 10.333015 42.613767 40.347796
21651  1 11.940700 43.775941 42.366698
2841   1 11.160747 44.952755 40.351839
960    1 11.031501 41.434389 46.396951
9275   1  9.363129 43.766420 46.401214
17492  1 10.246443 42.603163 44.381881
21750  1 11.840601 43.766420 46.401214
2940   1 11.062902 44.936260 44.387004
1059   1 10.913022 41.433009 50.428982
9374   1  9.248324 43.759683 50.437686
17591  1 10.140720 42.599516 48.415215
21849  1 11.725796 43.759683 50.437686
3039   1 10.954508 44.927477 48.423600
5118   1 12.618192 42.599515 48.415214
5217   1 12.488088 42.588270 52.451980
17690  1 10.010616 42.588271 52.451980
3138   1 10.834163 44.914568 52.462399
1158   1 10.756044 41.408343 54.466418
5316   1 12.332032 42.550509 56.490928
9473   1  9.112609 43.736601 54.476914
17789  1  9.854559 42.550509 56.490929
21948  1 11.590081 43.736601 54.476914
3237   1 10.702361 44.885414 56.500956
5415   1 12.199293 42.524942 60.530824
9572   1  8.974587 43.702591 58.515058
17888  1  9.721820 42.524942 60.530824
22047  1 11.452060 43.702591 58.515058
3336   1 10.590279 44.863976 60.539126
5514   1 12.112357 42.526184 64.578462
9671   1  8.873697 43.691967 62.556783
17987  1  9.634885 42.526184 64.578462
22146  1 11.351169 43.691967 62.556783
3435   1 10.514823 44.861744 64.582917
5613   1 12.062577 42.534131 68.631653
9770   1  8.810685 43.696609 66.605693
18086  1  9.585105 42.534131 68.631653
22245  1 11.288157 43.696609 66.605693
3534   1 10.471464 44.866299 68.632943
5712   1 12.045269 42.536913 72.685964
9869   1  8.779598 43.701632 70.658812
18185  1  9.567796 42.536913 72.685964
22344  1 11.257071 43.701632 70.658812
3633   1 10.456894 44.867648 72.686075
9968   1  8.778442 43.699958 74.712919
22443  1 11.255915 43.699958 74.712919
5811   1 12.058714 42.531392 76.740270
10067  1  8.806878 43.690912 78.766893
18284  1  9.581242 42.531392 76.740270
22542  1 11.284351 43.690912 78.766893
3732   1 10.470598 44.862026 76.739475
5910   1 12.102759 42.519734 80.795430
10166  1  8.865547 43.679460 82.820278
18383  1  9.625286 42.519734 80.795430
22641  1 11.343020 43.679460 82.820278
3831   1 10.513071 44.851241 80.791560
10265  1  8.957679 43.678093 86.871615
6009   1 12.179195 42.510045 84.850788
18482  1  9.701722 42.510045 84.850789
22740  1 11.435152 43.678093 86.871615
3930   1 10.586203 44.843551 84.841448
10364  1  9.091028 43.706797 90.918934
6108   1 12.293814 42.519468 88.902701
18581  1  9.816342 42.519468 88.902701
22839  1 11.568501 43.706797 90.918934
4029   1 10.695785 44.855302 88.888755
6207   1 12.454158 42.568619 92.948281
18680  1  9.976686 42.568620 92.948281
4128   1 10.847505 44.903725 92.933787
10463  1  9.406069 47.301968 12.025458
18779  1 10.128158 46.104626 10.010747
22938  1 11.883541 47.301968 12.025457
6306   1 12.605630 46.104626 10.010747
179    1 11.156049 48.490165 14.041392
10562  1  9.534718 47.333194 16.074016
18878  1 10.277501 46.154498 14.056476
23037  1 12.012191 47.333193 16.074015
278    1 11.263334 48.503192 18.095140
10661  1  9.618761 47.335902 20.127153
18977  1 10.381868 46.169338 18.105070
23136  1 12.096233 47.335902 20.127152
377    1 11.328247 48.498602 22.152945
10760  1  9.665766 47.329162 24.181857
19076  1 10.446791 46.165599 22.156023
23235  1 12.143239 47.329162 24.181857
476    1 11.356417 48.492381 26.209744
10859  1  9.679423 47.323340 28.234546
12949  1  8.878944 48.492381 26.209745
19175  1 10.478419 46.158110 26.207378
23334  1 12.156895 47.323340 28.234546
575    1 11.350237 48.489473 30.261977
13048  1  8.872764 48.489473 30.261977
19274  1 10.479024 46.152234 30.256158
674    1 11.309795 48.485776 34.307336
10958  1  9.660684 47.319188 32.282141
19373  1 10.448207 46.145596 34.299666
23433  1 12.138157 47.319188 32.282141
773    1 11.232085 48.471267 38.345675
11057  1  9.607896 47.310431 36.323013
19472  1 10.383644 46.131889 38.337447
23532  1 12.085368 47.310431 36.323013
872    1 11.120511 48.442960 42.381637
11156  1  9.519478 47.289937 40.359069
19571  1 10.288609 46.110694 42.372836
23631  1 11.996951 47.289937 40.359069
971    1 11.001550 48.422489 46.419574
11255  1  9.408581 47.266444 44.395528
19670  1 10.180439 46.095406 46.409571
23730  1 11.886054 47.266444 44.395527
7197   1 12.657912 46.095405 46.409570
1070   1 10.888339 48.413095 50.457527
7296   1 12.545156 46.085957 50.447931
11354  1  9.295901 47.254147 48.433689
19769  1 10.067684 46.085957 50.447932
23829  1 11.773374 47.254147 48.433689
11453  1  9.181767 47.242573 52.472071
23928  1 11.659240 47.242573 52.472071
1169   1 10.776759 48.399318 54.494306
7395   1 12.423789 46.066889 54.486691
11552  1  9.066388 47.221302 56.509178
19868  1  9.946317 46.066890 54.486691
24027  1 11.543861 47.221301 56.509178
1268   1 10.674971 48.381125 58.530216
7494   1 12.306711 46.041448 58.523824
11651  1  8.969850 47.204417 60.546236
19967  1  9.829238 46.041448 58.523824
24126  1 11.447322 47.204417 60.546236
1367   1 10.599407 48.371800 62.568903
7593   1 12.219570 46.030919 62.563394
11750  1  8.904310 47.200501 64.588090
20066  1  9.742098 46.030919 62.563394
24225  1 11.381783 47.200501 64.588090
1466   1 10.552225 48.370910 66.613378
7692   1 12.164879 46.032205 66.609291
11849  1  8.867093 47.202282 68.635946
20165  1  9.687407 46.032205 66.609291
24324  1 11.344565 47.202282 68.635946
1565   1 10.529873 48.371592 70.662747
7791   1 12.138383 46.034823 70.660246
11948  1  8.855268 47.202227 72.687358
20264  1  9.660910 46.034824 70.660246
24423  1 11.332741 47.202227 72.687358
1664   1 10.530787 48.368919 74.713823
7890   1 12.138560 46.032498 74.712975
20363  1  9.661087 46.032498 74.712975
1763   1 10.556020 48.361548 78.762914
7989   1 12.165875 46.024081 78.764552
12047  1  8.868601 47.196855 76.738802
20462  1  9.688402 46.024081 78.764552
24522  1 11.346073 47.196855 76.738802
1862   1 10.608975 48.352428 82.807356
8088   1 12.221945 46.013930 82.813270
12146  1  8.908704 47.187230 80.787298
20561  1  9.744472 46.013930 82.813270
24621  1 11.386176 47.187230 80.787297
1961   1 10.695995 48.351061 86.847841
8187   1 12.310890 46.013686 86.859205
12245  1  8.979109 47.180248 84.831859
20660  1  9.833417 46.013686 86.859205
24720  1 11.456581 47.180247 84.831858
2060   1 10.826948 48.376053 90.889068
8286   1 12.440574 46.042100 90.903939
12344  1  9.086830 47.190928 88.874646
20759  1  9.963102 46.042100 90.903939
24819  1 11.564302 47.190928 88.874646
80     1 10.999732 48.439381  9.994952
12443  1  9.238592 47.237601 92.918510
24918  1 11.716064 47.237601 92.918510
2159   1 11.178148 51.976139 11.992869
16711  1 10.286485 49.638428 12.009113
4238   1 12.763958 49.638428 12.009113
2258   1 11.330400 51.996172 16.050510
8494   1  9.571203 50.825141 14.026240
16810  1 10.423026 49.666658 16.060992
20969  1 12.048676 50.825140 14.026240
2357   1 11.421161 51.990573 20.117457
8593   1  9.685648 50.832244 18.086425
14830  1  8.943688 51.990574 20.117457
16909  1 10.509726 49.666325 20.120886
21068  1 12.163121 50.832244 18.086425
2456   1 11.462379 51.984497 24.181224
8692   1  9.750984 50.825619 22.150484
14929  1  8.984906 51.984497 24.181224
17008  1 10.554750 49.659672 24.181560
21167  1 12.228457 50.825619 22.150484
15028  1  8.984298 51.984984 28.239852
2555   1 11.461771 51.984984 28.239852
8791   1  9.774000 50.821335 26.211101
17107  1 10.562209 49.656630 28.238320
21266  1 12.251473 50.821335 26.211101
8890   1  9.758999 50.822600 30.266459
21365  1 12.236471 50.822599 30.266459
15127  1  8.945424 51.990066 32.293775
2654   1 11.422897 51.990066 32.293775
8989   1  9.706963 50.823554 34.314973
17206  1 10.534204 49.656526 32.288891
21464  1 12.184435 50.823553 34.314973
2753   1 11.343318 51.988433 36.340180
9088   1  9.613241 50.809653 38.355108
17305  1 10.469203 49.650258 36.331620
21563  1 12.090713 50.809653 38.355108
2852   1 11.214889 51.960075 40.378068
9187   1  9.479079 50.773019 42.391477
17404  1 10.363565 49.625548 40.368261
21662  1 11.956551 50.773019 42.391476
2951   1 11.060594 51.920458 44.415050
9286   1  9.344620 50.748704 46.429168
17503  1 10.234989 49.594323 44.405466
21761  1 11.822093 50.748704 46.429168
5030   1 12.712462 49.594323 44.405465
3050   1 10.929984 51.908790 48.450095
5129   1 12.592602 49.580822 48.443254
9385   1  9.228469 50.742135 50.464447
17602  1 10.115129 49.580822 48.443254
21860  1 11.705942 50.742134 50.464447
3149   1 10.821159 51.906017 52.482085
5228   1 12.481867 49.572853 52.479264
17701  1 10.004395 49.572853 52.479264
3248   1 10.728571 51.897639 56.515398
5327   1 12.378590 49.558637 56.514346
9484   1  9.124170 50.734162 54.498238
17800  1  9.901118 49.558637 56.514346
21959  1 11.601643 50.734162 54.498238
3347   1 10.657039 51.888203 60.552588
5426   1 12.294910 49.545928 60.550912
9583   1  9.035091 50.721805 58.533272
17899  1  9.817438 49.545928 60.550912
22058  1 11.512564 50.721805 58.533272
3446   1 10.609311 51.883530 64.594884
5525   1 12.238385 49.541375 64.592329
9682   1  8.970231 50.713915 62.572282
17998  1  9.760913 49.541376 64.592329
22157  1 11.447704 50.713915 62.572282
3545   1 10.582566 51.882224 68.641903
5624   1 12.206664 49.541225 68.639229
9781   1  8.930043 50.711739 66.616708
18097  1  9.729192 49.541225 68.639229
22256  1 11.407516 50.711739 66.616708
3644   1 10.574031 51.880826 72.691555
5723   1 12.196885 49.540228 72.689368
18196  1  9.719412 49.540228 72.689368
22355  1 11.388600 50.711161 70.665405
22454  1 11.389347 50.708567 74.715429
3743   1 10.583551 51.877089 76.740626
5822   1 12.208869 49.535511 76.739170
10078  1  8.933651 50.702643 78.763100
18295  1  9.731396 49.535511 76.739171
22553  1 11.411123 50.702643 78.763100
3842   1 10.614320 51.870852 80.785558
5921   1 12.245357 49.527350 80.784956
10177  1  8.981585 50.694828 82.804897
18394  1  9.767884 49.527350 80.784957
22652  1 11.459057 50.694828 82.804897
3941   1 10.674903 51.864259 84.822929
6020   1 12.312464 49.520313 84.824839
10276  1  9.065749 50.691194 86.840143
18493  1  9.834992 49.520313 84.824839
22751  1 11.543221 50.691194 86.840143
4040   1 10.781596 51.865277 88.853772
6119   1 12.420298 49.527022 88.862116
10375  1  9.201735 50.709369 90.875666
18592  1  9.942826 49.527022 88.862116
22850  1 11.679207 50.709369 90.875666
8395   1  9.396823 50.775230  9.978855
20870  1 11.874296 50.775230  9.978855
4139   1 10.959239 51.901911 92.889061
6218   1 12.580520 49.570349 92.903224
18691  1 10.103048 49.570349 92.903224
10474  1  9.611661 54.313950 11.979261
22949  1 12.089133 54.313950 11.979261
190    1 11.432384 55.481330 14.013217
10573  1  9.788022 54.318269 16.048580
18889  1 10.483757 53.157521 14.014191
23048  1 12.265495 54.318268 16.048580
289    1 11.559080 55.470013 18.090003
10672  1  9.877599 54.308839 20.119535
12762  1  9.081608 55.470014 18.090003
18988  1 10.608507 53.154753 18.083346
23147  1 12.355072 54.308839 20.119535
12861  1  9.131690 55.465002 22.151344
388    1 11.609163 55.465002 22.151344
10771  1  9.910238 54.305074 24.180208
19087  1 10.671318 53.146902 22.150235
23246  1 12.387711 54.305074 24.180208
12960  1  9.138161 55.465765 26.206121
487    1 11.615634 55.465765 26.206120
10870  1  9.901465 54.308468 28.236936
19186  1 10.686813 53.145285 26.210334
23345  1 12.378938 54.308468 28.236936
13059  1  9.107176 55.473597 30.261436
586    1 11.584649 55.473596 30.261436
19285  1 10.662267 53.150856 30.267272
13158  1  9.030856 55.486871 34.319977
685    1 11.508328 55.486870 34.319977
10969  1  9.852419 54.318462 32.293730
19384  1 10.597253 53.157955 34.320409
23444  1 12.329892 54.318461 32.293730
784    1 11.369157 55.484144 38.371757
11068  1  9.756128 54.324107 36.346536
19483  1 10.483433 53.147349 38.364385
23543  1 12.233601 54.324107 36.346535
883    1 11.149029 55.426649 42.408259
11167  1  9.595846 54.294073 40.387252
19582  1 10.316153 53.100979 42.400882
23642  1 12.073318 54.294073 40.387251
7109   1 12.793626 53.100979 42.400882
982    1 10.959809 55.404402 46.437400
7208   1 12.636716 53.075303 46.436176
11266  1  9.401923 54.245608 44.422372
19681  1 10.159244 53.075303 46.436176
23741  1 11.879396 54.245608 44.422371
1081   1 10.836590 55.410418 50.460429
7307   1 12.516061 53.074210 50.466319
11365  1  9.257126 54.239744 48.451339
19780  1 10.038588 53.074210 50.466319
23840  1 11.734598 54.239744 48.451339
11464  1  9.151594 54.242522 52.478657
23939  1 11.629067 54.242522 52.478656
1180   1 10.751320 55.411095 54.490622
7406   1 12.419181 53.071573 54.497122
11563  1  9.071416 54.238025 56.512047
19879  1  9.941709 53.071574 54.497122
24038  1 11.548889 54.238025 56.512047
1279   1 10.689856 55.405112 58.529062
7505   1 12.342855 53.063333 58.532647
11662  1  9.012813 54.230755 60.551522
19978  1  9.865383 53.063333 58.532647
24137  1 11.490286 54.230755 60.551522
1378   1 10.647251 55.399458 62.572446
7604   1 12.288852 53.056653 62.573317
20077  1  9.811380 53.056653 62.573317
24236  1 11.451499 54.226281 64.595691
1477   1 10.620539 55.396604 66.619419
7703   1 12.255452 53.053853 66.618741
20176  1  9.777980 53.053853 66.618741
24335  1 11.429379 54.224481 68.643539
1576   1 10.606842 55.395330 70.668834
7802   1 12.239367 53.052658 70.667577
20275  1  9.761895 53.052658 70.667577
24434  1 11.421426 54.223142 72.693342
1675   1 10.604761 55.393896 74.718856
7901   1 12.239053 53.050518 74.717344
20374  1  9.761581 53.050518 74.717344
1774   1 10.615338 55.391353 78.766972
8000   1 12.255908 53.046247 78.764816
20473  1  9.778436 53.046247 78.764816
24533  1 11.427431 54.220588 76.742531
1873   1 10.643321 55.387685 82.810223
8099   1 12.295320 53.040506 82.806735
20572  1  9.817847 53.040507 82.806735
24632  1 11.450430 54.216384 80.788000
1972   1 10.699536 55.384753 86.846876
8198   1 12.371117 53.035605 86.839283
12256  1  9.020921 54.211788 84.827006
20671  1  9.893644 53.035605 86.839283
24731  1 11.498393 54.211787 84.827006
2071   1 10.827358 55.383799 90.866027
8297   1 12.511620 53.043779 90.866237
12355  1  9.116954 54.208626 88.853950
20770  1 10.034148 53.043779 90.866237
24830  1 11.594427 54.208625 88.853950
91     1 11.157491 55.452828  9.950202
18790  1 10.274219 53.112898  9.963396
12454  1  9.318744 54.232342 92.878190
24929  1 11.796217 54.232342 92.878190
6317   1 12.751692 53.112898  9.963396
2170   1 11.686832 58.946746 12.018693
14643  1  9.209360 58.946747 12.018693
16722  1 10.572144 56.644156 11.978194
2269   1 11.771112 58.940828 16.076313
8505   1  9.970417 57.787223 14.037659
14742  1  9.293640 58.940828 16.076313
16821  1 10.762519 56.629787 16.062369
20980  1 12.447890 57.787222 14.037659
18900  1 11.043659 60.096829 14.052440
14841  1  9.317514 58.941893 20.126011
2368   1 11.794987 58.941893 20.126010
8604   1 10.055594 57.783609 18.099668
16920  1 10.830395 56.624746 20.124476
21079  1 12.533066 57.783609 18.099668
18999  1 11.042653 60.099817 18.100609
14940  1  9.318756 58.943466 24.171970
2467   1 11.796229 58.943465 24.171970
8703   1 10.081468 57.783038 22.150935
17019  1 10.849066 56.624065 24.177343
21178  1 12.558941 57.783038 22.150935
19098  1 11.037507 60.102210 22.146525
15039  1  9.302500 58.947196 28.217030
2566   1 11.779973 58.947196 28.217030
8802   1 10.078671 57.785135 26.198734
17118  1 10.834858 56.628337 28.228507
21277  1 12.556144 57.785135 26.198734
19197  1 11.025990 60.104954 26.189941
8901   1 10.048392 57.791833 30.248294
21376  1 12.525865 57.791833 30.248294
19296  1 11.002947 60.109299 30.233543
15138  1  9.259760 58.955173 32.266203
2665   1 11.737233 58.955173 32.266203
9000   1  9.972258 57.806615 34.307757
17217  1 10.782363 56.639921 32.284724
21475  1 12.449730 57.806615 34.307756
19395  1 10.951548 60.117025 34.282534
15237  1  9.152220 58.972660 36.331271
2764   1 11.629692 58.972660 36.331271
9099   1  9.805181 57.817534 38.373470
17316  1 10.670865 56.654499 36.346659
21574  1 12.282654 57.817533 38.373470
19494  1 10.788490 60.136251 38.354094
2863   1 11.347743 58.960119 40.397264
9198   1  9.488057 57.749723 42.411150
17415  1 10.462727 56.627957 40.394391
21673  1 11.965530 57.749723 42.411150
19593  1 10.236787 60.073680 42.409572
4942   1 12.940200 56.627957 40.394390
7120   1 12.714260 60.073680 42.409572
2962   1 10.958892 58.903880 44.415679
9297   1  9.255668 57.739685 46.427470
17514  1 10.202495 56.571634 44.424412
21772  1 11.733140 57.739684 46.427470
7219   1 12.463301 60.085621 46.397927
19692  1  9.985828 60.085621 46.397927
5041   1 12.679968 56.571634 44.424412
3061   1 10.806711 58.918190 48.421783
5140   1 12.521465 56.575813 48.443033
9396   1  9.142117 57.750739 50.445406
17613  1 10.043992 56.575814 48.443033
21871  1 11.619590 57.750739 50.445406
7318   1 12.392610 60.091409 50.428843
19791  1  9.915137 60.091409 50.428843
3160   1 10.739463 58.921926 52.455398
5239   1 12.426715 56.581951 52.468384
17712  1  9.949242 56.581951 52.468384
3259   1 10.697397 58.919038 56.498715
5338   1 12.363552 56.578831 56.505628
9495   1  9.077358 57.751184 54.481071
17811  1  9.886079 56.578831 56.505628
21970  1 11.554831 57.751184 54.481071
7417   1 12.355270 60.090414 54.472521
19890  1  9.877798 60.090414 54.472521
3358   1 10.667563 58.914722 60.545325
5437   1 12.319035 56.573037 60.548684
17910  1  9.841562 56.573037 60.548684
22069  1 11.510488 57.746439 58.524145
7516   1 12.329088 60.086986 58.519698
19989  1  9.851615 60.086986 58.519698
3457   1 10.646806 58.911845 64.593649
5536   1 12.289302 56.569135 64.595110
18009  1  9.811829 56.569135 64.595110
22168  1 11.479595 57.741952 62.570456
7615   1 12.309861 60.084036 62.568148
20088  1  9.832388 60.084036 62.568148
3556   1 10.633192 58.910678 68.643325
5635   1 12.271545 56.567413 68.644002
18108  1  9.794073 56.567413 68.644002
22267  1 11.459432 57.739581 66.618935
7714   1 12.296062 60.082611 66.617569
20187  1  9.818589 60.082611 66.617569
3655   1 10.625199 58.910401 72.693700
5734   1 12.263711 56.566478 72.694190
18207  1  9.786239 56.566478 72.694190
22366  1 11.447815 57.738662 70.668922
7813   1 12.286331 60.082380 70.667744
20286  1  9.808859 60.082380 70.667744
22465  1 11.443512 57.738077 74.719214
7912   1 12.279591 60.082743 74.717882
20385  1  9.802118 60.082743 74.717882
3754   1 10.622135 58.910314 76.743519
5833   1 12.265407 56.565168 76.743841
18306  1  9.787934 56.565168 76.743840
22564  1 11.446837 57.737192 78.768024
8011   1 12.275212 60.083405 78.766631
20484  1  9.797740 60.083405 78.766631
3853   1 10.624506 58.910202 80.791010
5932   1 12.278730 56.563055 80.790548
18405  1  9.801258 56.563055 80.790548
22663  1 11.460542 57.735884 82.812979
8110   1 12.272963 60.084516 82.812044
20583  1  9.795490 60.084516 82.812044
3952   1 10.634793 58.910117 84.833455
6031   1 12.310132 56.560152 84.831327
18504  1  9.832659 56.560152 84.831327
22762  1 11.492385 57.733681 86.850281
8209   1 12.272782 60.086603 86.849942
20682  1  9.795310 60.086603 86.849942
4051   1 10.659927 58.908607 88.863191
6130   1 12.372574 56.559627 88.866740
18603  1  9.895101 56.559627 88.866740
22861  1 11.549356 57.737813 90.885097
8308   1 12.274212 60.090151 90.857086
20781  1  9.796740 60.090151 90.857087
8406   1  9.607205 57.784703  9.950025
20881  1 12.084678 57.784703  9.950025
4150   1 10.601206 58.923718 92.871905
6229   1 12.571913 56.564997 92.873931
18702  1 10.094441 56.564997 92.873931
18801  1 11.042754 60.092528  9.982024
10485  1 10.399640 61.243136 12.013498
22960  1 12.877112 61.243135 12.013498
102    1 12.117065 62.406603 14.027495
10584  1 10.316140 61.256096 16.070926
12575  1  9.639593 62.406604 14.027495
23059  1 12.793612 61.256096 16.070925
201    1 12.030572 62.416195 18.088432
10683  1 10.286717 61.260224 20.119874
12674  1  9.553099 62.416195 18.088433
23158  1 12.764189 61.260224 20.119874
300    1 11.995010 62.421551 22.137766
10782  1 10.269743 61.263536 24.164460
12773  1  9.517537 62.421552 22.137767
23257  1 12.747216 61.263536 24.164460
399    1 11.975946 62.425138 26.182007
10881  1 10.253958 61.266650 28.206747
12872  1  9.498473 62.425139 26.182007
23356  1 12.731430 61.266650 28.206747
498    1 11.963826 62.427708 30.224282
12971  1  9.486354 62.427708 30.224282
597    1 11.955380 62.429739 34.267716
10980  1 10.231610 61.270501 32.249619
13070  1  9.477907 62.429739 34.267716
23455  1 12.709082 61.270501 32.249618
696    1 11.952710 62.433102 38.312193
11079  1 10.180597 61.275507 36.297404
13169  1  9.475238 62.433102 38.312194
23554  1 12.658069 61.275507 36.297404
11178  1  9.856180 61.264741 40.369521
13268  1 10.699858 62.431748 42.380355
23653  1 12.333652 61.264741 40.369521
13367  1 10.692096 62.431329 46.379249
23752  1 11.624023 61.254791 44.376025
13466  1 10.685000 62.430279 50.420989
23851  1 11.554824 61.260599 48.402326
23950  1 11.526644 61.260601 52.446122
1092   1 10.677345 62.428682 54.468304
24049  1 11.507315 61.258341 56.493800
1191   1 10.669416 62.426972 58.517025
24148  1 11.492165 61.255852 60.542514
1290   1 10.661677 62.425869 62.566112
24247  1 11.480203 61.254401 64.591777
1389   1 10.654111 62.425695 66.615588
24346  1 11.470579 61.254141 68.641636
1488   1 10.646191 62.426381 70.665364
24445  1 11.462305 61.254719 72.691705
1587   1 10.637004 62.427801 74.714724
1686   1 10.624991 62.429994 78.762313
24544  1 11.454358 61.255861 76.740965
1785   1 10.606942 62.433417 82.806084
24643  1 11.445408 61.257636 80.787838
1884   1 10.575039 62.439645 86.842403
14358  1 13.052512 62.439645 86.842403
24742  1 11.432766 61.260727 84.829727
1983   1 10.521717 62.442617 90.876471
14457  1 12.999189 62.442617 90.876471
24841  1 11.409254 61.267795 88.859006
3      1 12.474770 62.401225  9.940518
12476  1  9.997297 62.401225  9.940518
24940  1 11.471463 61.261259 92.867204
4161   1 12.558279  0.512798 11.964083
14556  1 13.519326  2.844212 11.957648
16635  1 15.035751  0.512798 11.964083
20892  1 11.700926  1.679643 13.994301
4260   1 12.370820  0.533908 16.046871
8418   1 14.178399  1.679643 13.994301
14655  1 13.348079  2.846070 16.024614
16734  1 14.848293  0.533908 16.046871
4359   1 12.298520  0.544028 20.106867
8517   1 14.052184  1.696566 18.068836
14754  1 13.256374  2.860011 20.092696
16833  1 14.775992  0.544028 20.106867
4458   1 12.265759  0.549655 24.156251
8616   1 13.994378  1.706142 22.127024
14853  1 13.213266  2.868233 24.149491
16932  1 14.743232  0.549655 24.156251
4557   1 12.251944  0.552644 28.201057
8715   1 13.969861  1.711045 26.176760
14952  1 13.202290  2.871124 28.200886
17031  1 14.729416  0.552644 28.201057
8814   1 13.969312  1.712094 30.223973
4656   1 12.254205  0.553348 32.245398
8913   1 14.003686  1.708711 34.275093
15051  1 13.225631  2.868091 32.253943
17130  1 14.731678  0.553348 32.245398
4755   1 12.291273  0.552546 36.293863
9012   1 14.152361  1.693907 38.347990
15150  1 13.317976  2.855037 36.321383
17229  1 14.768746  0.552546 36.293863
4854   1 12.594594  0.563273 40.366848
9111   1 14.683234  1.755782 42.404209
15249  1 13.582525  2.868485 40.389555
17328  1 15.072066  0.563272 40.366848
21585  1 12.205761  1.755782 42.404209
4953   1 13.289754  0.574720 44.373655
9210   1 14.921534  1.743308 46.394329
15348  1 13.956109  2.925346 44.409736
21684  1 12.444061  1.743308 46.394329
5052   1 13.344869  0.567539 48.400777
9309   1 14.977528  1.735565 50.425919
15447  1 14.093888  2.909882 48.417076
21783  1 12.500056  1.735565 50.425919
3073   1 14.145831  2.903623 52.451115
17625  1 13.358248  0.564888 52.444691
3172   1 14.171814  2.902999 56.494337
9408   1 12.521898  1.733386 54.469648
17724  1 13.361817  0.563654 56.492323
21883  1 14.999370  1.733386 54.469648
3271   1 14.185671  2.904369 60.540505
9507   1 12.532084  1.733382 58.516634
17823  1 13.361201  0.563184 60.540877
21982  1 15.009557  1.733382 58.516634
3370   1 14.191137  2.906090 64.587898
9606   1 12.535766  1.734162 62.564627
17922  1 13.357927  0.563356 64.589816
22081  1 15.013239  1.734162 62.564628
3469   1 14.189534  2.908012 68.635976
9705   1 12.534437  1.735319 66.613196
18021  1 13.352255  0.564191 68.639116
22180  1 15.011909  1.735319 66.613196
3568   1 14.181015  2.910628 72.683914
9804   1 12.528406  1.737022 70.661995
18120  1 13.343739  0.565765 72.688316
22279  1 15.005878  1.737022 70.661996
9903   1 12.516990  1.739598 74.710062
22378  1 14.994462  1.739598 74.710062
3667   1 14.164237  2.914457 76.730181
10002  1 12.497961  1.743385 78.755719
18219  1 13.331096  0.568215 76.736261
22477  1 14.975434  1.743385 78.755719
3766   1 14.135415  2.919860 80.772613
10101  1 12.466137  1.748815 82.796669
18318  1 13.311423  0.571851 80.781124
22576  1 14.943609  1.748815 82.796670
3865   1 14.086451  2.926576 84.809143
10200  1 12.410769  1.755310 86.831561
18417  1 13.278100  0.577480 84.820306
22675  1 14.888242  1.755310 86.831561
3964   1 13.994613  2.934345 88.834540
10299  1 12.288765  1.762756 90.849825
18516  1 13.218177  0.583287 88.854521
22774  1 14.766237  1.762757 90.849825
20793  1 11.968515  1.700929  9.933013
8319   1 14.445987  1.700929  9.933013
4063   1 13.802170  2.918267 92.857904
18615  1 13.026076  0.585563 92.861405
6142   1 15.503548  0.585563 92.861405
22872  1 11.955118  5.183192 11.964904
10398  1 14.432590  5.183192 11.964904
22971  1 11.810797  5.168703 16.020163
6339   1 12.652176  4.004505 13.988057
10497  1 14.288270  5.168703 16.020163
12587  1 13.569534  6.337763 13.994692
18813  1 15.129649  4.004505 13.988057
6438   1 12.530429  4.012029 18.054530
10596  1 14.198740  5.177531 20.084669
12686  1 13.461532  6.334045 18.052852
18912  1 15.007901  4.012029 18.054530
6537   1 12.463383  4.023518 22.118398
10695  1 14.152629  5.186407 24.146248
12785  1 13.396772  6.342413 22.115555
19011  1 14.940855  4.023517 22.118398
6636   1 12.436489  4.029432 26.175054
10794  1 14.144632  5.188754 28.204491
12884  1 13.370696  6.348006 26.176518
19110  1 14.913962  4.029432 26.175054
6735   1 12.445342  4.028545 30.230384
12983  1 13.384299  6.345740 30.237504
19209  1 14.922814  4.028545 30.230384
6834   1 12.504955  4.018474 34.293622
10893  1 14.179620  5.182370 32.265779
13082  1 13.445788  6.337109 34.300553
19308  1 14.982428  4.018474 34.293622
6933   1 12.657313  4.011228 38.362220
10992  1 14.276450  5.172099 36.331444
13181  1 13.571162  6.343132 38.356205
19407  1 15.134785  4.011228 38.362219
23466  1 11.798978  5.172099 36.331444
7032   1 12.957805  4.079173 42.402650
11091  1 14.469219  5.200161 40.382631
13280  1 13.776154  6.401586 42.396111
19506  1 15.435277  4.079173 42.402650
23565  1 11.991746  5.200161 40.382631
7131   1 13.175567  4.089075 46.420662
11190  1 14.714384  5.257208 44.415203
13379  1 13.950581  6.424107 46.427591
23664  1 12.236912  5.257208 44.415203
7230   1 13.273952  4.076266 50.439554
11289  1 14.857963  5.252219 48.435351
13478  1 14.058281  6.416675 50.451842
23763  1 12.380490  5.252220 48.435351
11388  1 12.459379  5.243706 52.461344
23863  1 14.936851  5.243705 52.461344
1104   1 14.126807  6.412899 54.482367
11487  1 12.505832  5.243263 56.498529
19803  1 13.322692  4.072698 54.475401
23962  1 14.983304  5.243263 56.498529
1203   1 14.171152  6.415315 58.520469
11586  1 12.533946  5.246127 60.540952
19902  1 13.350620  4.073970 58.518165
24061  1 15.011419  5.246127 60.540952
1302   1 14.197702  6.419064 62.562744
11685  1 12.548294  5.249111 64.585956
20001  1 13.365771  4.076390 62.563633
24160  1 15.025767  5.249111 64.585957
1401   1 14.209409  6.422239 66.607560
11784  1 12.551041  5.251906 68.632424
20100  1 13.370836  4.078727 66.610514
24259  1 15.028513  5.251906 68.632424
1500   1 14.208137  6.425571 70.653669
11883  1 12.542999  5.255448 72.679066
20199  1 13.366955  4.081377 70.657969
24358  1 15.020472  5.255448 72.679066
1599   1 14.194122  6.430290 74.699273
20298  1 13.353821  4.085115 74.704609
1698   1 14.165235  6.436942 78.742058
11982  1 12.523076  5.260581 76.723943
20397  1 13.329001  4.090461 78.748376
24457  1 15.000548  5.260581 76.723944
1797   1 14.115896  6.444823 82.779675
12081  1 12.487419  5.267440 80.764722
20496  1 13.286692  4.097305 82.786987
24556  1 14.964891  5.267439 80.764722
1896   1 14.036130  6.449950 86.812211
12180  1 12.427309  5.275141 84.798903
20595  1 13.213245  4.104913 86.817249
24655  1 14.904781  5.275141 84.798903
1995   1 13.910983  6.437352 90.846545
12279  1 12.326905  5.277920 88.827919
20694  1 13.080783  4.102836 90.842991
24754  1 14.804378  5.277920 88.827919
8221   1 15.558255  4.102836 90.842992
6240   1 12.852274  4.041924  9.939286
12488  1 13.731070  6.380485  9.949044
18714  1 15.329746  4.041924  9.939286
12378  1 12.161173  5.249042 92.862376
24853  1 14.638646  5.249042 92.862376
4172   1 12.850756  7.521873 11.976475
14567  1 13.737117  9.859043 11.990265
16646  1 15.328228  7.521873 11.976475
20903  1 11.991856  8.673168 14.006704
4271   1 12.726028  7.498185 16.026812
8429   1 14.469329  8.673168 14.006704
14666  1 13.625079  9.830780 16.038837
16745  1 15.203500  7.498185 16.026812
6350   1 12.880335 11.008678 14.021154
21002  1 11.895309  8.661557 18.060069
4370   1 12.644961  7.499682 20.085893
8528   1 14.372781  8.661557 18.060069
14765  1 13.551314  9.826620 20.093598
16844  1 15.122433  7.499682 20.085893
6449   1 12.791252 10.992662 18.071710
18923  1 15.268724 10.992662 18.071710
4469   1 12.601571  7.506393 24.147411
8627   1 14.313829  8.665221 22.119112
14864  1 13.511615  9.830546 24.151955
16943  1 15.079044  7.506393 24.147411
6548   1 12.736780 10.992802 22.126494
19022  1 15.214253 10.992802 22.126494
4568   1 12.595526  7.508077 28.208680
8726   1 14.289988  8.669420 26.179779
14963  1 13.505471  9.832291 28.211022
17042  1 15.072998  7.508077 28.208680
6647   1 12.714067 10.996024 26.183243
19121  1 15.191539 10.996024 26.183243
8825   1 14.302811  8.667993 30.240203
6746   1 12.723393 10.996647 30.239011
19220  1 15.200865 10.996647 30.239010
4667   1 12.630408  7.502822 32.270132
8924   1 14.355835  8.664877 34.297368
15062  1 13.534686  9.830601 32.267801
17141  1 15.107881  7.502822 32.270132
21398  1 11.878363  8.664878 34.297368
6845   1 12.767030 10.998460 34.290029
19319  1 15.244503 10.998460 34.290029
4766   1 12.713596  7.501100 36.327140
9023   1 14.457323  8.678512 38.345367
15161  1 13.603535  9.835486 36.317865
17240  1 15.191069  7.501100 36.327140
21497  1 11.979851  8.678512 38.345368
6944   1 12.850491 11.014890 38.333633
4865   1 12.860009  7.533122 40.371731
9122   1 14.610787  8.726376 42.385562
15260  1 13.719686  9.865993 40.359620
17339  1 15.337482  7.533122 40.371731
21596  1 12.133315  8.726376 42.385562
7043   1 12.972257 11.053298 42.373718
4964   1 13.039369  7.582649 44.410004
9221   1 14.753145  8.752822 46.423694
15359  1 13.860240  9.907048 44.400066
17438  1 15.516842  7.582648 44.410004
21695  1 12.275673  8.752822 46.423694
5063   1 13.169090  7.588233 48.440975
9320   1 14.858005  8.752998 50.455403
15458  1 13.975849  9.919067 48.437520
17537  1 15.646562  7.588232 48.440975
21794  1 12.380533  8.752998 50.455403
3084   1 14.067656  9.920019 52.470597
17636  1 13.258203  7.583295 52.469147
3183   1 14.141398  9.924468 56.504039
9419   1 12.459794  8.752553 54.486679
17735  1 13.320759  7.584103 56.502562
21894  1 14.937266  8.752553 54.486679
3282   1 14.195007  9.930924 60.540529
9518   1 12.517993  8.757034 58.521911
17834  1 13.362318  7.588442 60.541324
21993  1 14.995465  8.757034 58.521911
3381   1 14.227167  9.935436 64.580881
9617   1 12.555521  8.762018 62.561334
17933  1 13.385620  7.592332 64.583740
22092  1 15.032994  8.762018 62.561334
3480   1 14.239909  9.938609 68.624693
9716   1 12.574120  8.765579 66.604254
18032  1 13.393120  7.595596 68.628629
22191  1 15.051592  8.765579 66.604254
3579   1 14.235228  9.942808 72.670401
9815   1 12.576094  8.769121 70.649446
18131  1 13.386291  7.599740 72.674393
22290  1 15.053567  8.769121 70.649446
9914   1 12.562304  8.774411 74.694895
22389  1 15.039776  8.774411 74.694895
3678   1 14.213225  9.949441 76.715682
10013  1 12.531301  8.781923 78.738182
18230  1 13.364569  7.605875 76.718805
22488  1 15.008773  8.781923 78.738182
3777   1 14.171813  9.957570 80.758471
10112  1 12.479087  8.789660 82.777742
18329  1 13.324668  7.613763 80.759482
22587  1 14.956559  8.789660 82.777742
3876   1 14.106779  9.962261 84.798710
10211  1 12.399199  8.790791 86.815166
18428  1 13.260122  7.620462 84.795571
22686  1 14.876672  8.790791 86.815166
3975   1 14.011632  9.952409 88.839459
10310  1 12.282815  8.770548 90.855415
18527  1 13.161324  7.616359 88.830908
22785  1 14.760288  8.770548 90.855415
6054   1 15.638797  7.616359 88.830908
20804  1 12.130515  8.717063  9.961144
8330   1 14.607988  8.717063  9.961144
4074   1 13.880973  9.913639 92.883347
18626  1 13.016865  7.580892 92.871464
6251   1 13.005783 11.052349  9.974944
6153   1 15.494337  7.580893 92.871464
22883  1 12.139368 12.194790 12.005279
10409  1 14.616841 12.194790 12.005278
4183   1 13.013040 14.529432 12.020658
16657  1 15.490513 14.529432 12.020658
22982  1 12.034444 12.164842 16.053040
10508  1 14.511917 12.164842 16.053040
12598  1 13.759656 13.343831 14.036436
18824  1 15.357808 11.008678 14.021154
4282   1 12.910431 14.499946 16.067407
16756  1 15.387904 14.499946 16.067407
23081  1 11.965017 12.157674 20.104097
10607  1 14.442489 12.157674 20.104097
12697  1 13.674190 13.326427 18.084651
4381   1 12.842384 14.492461 20.114625
16855  1 15.319857 14.492461 20.114625
10706  1 14.404708 12.159981 24.157658
12796  1 13.621674 13.325149 22.134779
4480   1 12.804599 14.494667 24.162780
16954  1 15.282072 14.494667 24.162780
10805  1 14.396876 12.162520 28.211563
12895  1 13.598479 13.328365 26.186022
4579   1 12.794444 14.498290 28.211017
17053  1 15.271916 14.498290 28.211017
12994  1 13.603881 13.331013 30.236085
23378  1 11.942401 12.164182 32.262577
10904  1 14.419874 12.164182 32.262577
13093  1 13.639662 13.335929 34.281971
4678   1 12.812128 14.502222 32.256920
17152  1 15.289601 14.502222 32.256920
11003  1 14.477095 12.172647 36.307658
13192  1 13.709701 13.352124 38.322662
19418  1 15.327963 11.014890 38.333633
23477  1 11.999622 12.172647 36.307658
4777   1 12.860345 14.511840 36.298458
17251  1 15.337817 14.511839 36.298457
11102  1 14.572400 12.199303 40.347693
13291  1 13.810618 13.382170 42.362038
19517  1 15.449730 11.053298 42.373718
23576  1 12.094927 12.199303 40.347693
4876   1 12.940841 14.533669 40.336994
17350  1 15.418313 14.533669 40.336994
7142   1 13.092699 11.078917 46.414575
11201  1 14.688319 12.232283 44.388483
13390  1 13.916326 13.404467 46.403431
19616  1 15.570172 11.078916 46.414575
23675  1 12.210846 12.232283 44.388483
4975   1 13.040531 14.559033 44.376988
17449  1 15.518003 14.559033 44.376988
7241   1 13.192848 11.085211 50.451758
11300  1 14.793419 12.246849 48.429062
13489  1 14.013350 13.414406 50.443706
19715  1 15.670321 11.085211 50.451758
23774  1 12.315947 12.246849 48.429062
5074   1 13.138830 14.573202 48.418434
17548  1 15.616303 14.573202 48.418433
11399  1 12.408964 12.253481 52.466424
23874  1 14.886437 12.253481 52.466424
5174   1 15.711802 14.584163 52.458575
17647  1 13.234329 14.584164 52.458575
1115   1 14.104716 13.425177 54.481316
7341   1 15.755900 11.090125 54.486177
11498  1 12.491700 12.263361 56.501771
19814  1 13.278428 11.090126 54.486177
23973  1 14.969172 12.263361 56.501771
5273   1 15.804130 14.600467 56.496140
17746  1 13.326658 14.600467 56.496140
1214   1 14.184945 13.438661 58.517191
11597  1 12.556248 12.272981 60.537712
19913  1 13.347976 11.098365 58.521022
24072  1 15.033721 12.272981 60.537712
17845  1 13.402319 14.614123 60.532647
1313   1 14.242796 13.446930 62.554532
11696  1 12.597132 12.277911 64.577051
20012  1 13.395832 11.104824 62.558736
24171  1 15.074604 12.277911 64.577051
17944  1 13.452089 14.619158 64.572180
1412   1 14.275925 13.449678 66.596136
11795  1 12.615678 12.280302 68.620672
20111  1 13.421545 11.108267 66.600465
24270  1 15.093150 12.280302 68.620672
18043  1 13.477129 14.619948 68.616691
1511   1 14.286828 13.451514 70.642116
11894  1 12.614200 12.283832 72.667371
20210  1 13.427542 11.111360 70.645547
24369  1 15.091672 12.283832 72.667371
18142  1 13.479946 14.621980 72.665364
1610   1 14.277195 13.455996 74.690751
20309  1 13.415217 11.116612 74.692013
1709   1 14.247091 13.463459 78.739854
11993  1 12.593376 12.290315 76.714940
20408  1 13.384012 11.124342 78.737560
24468  1 15.070849 12.290316 76.714940
18241  1 13.461416 14.627726 76.716197
1808   1 14.195149 13.469791 82.787921
12092  1 12.552211 12.298199 80.761439
20507  1 13.331510 11.131286 82.780959
24567  1 15.029684 12.298199 80.761439
18340  1 13.421141 14.635373 80.767190
1907   1 14.117821 13.465468 86.834805
12191  1 12.487913 12.301182 84.806443
20606  1 13.253182 11.128921 86.823368
24666  1 14.965385 12.301182 84.806443
18439  1 13.357170 14.637812 84.816993
8133   1 15.730654 11.128921 86.823368
5966   1 15.834642 14.637813 84.816993
2006   1 14.010170 13.437834 90.881237
12290  1 12.395355 12.287636 88.851313
20705  1 13.142942 11.103880 90.867370
24765  1 14.872827 12.287636 88.851313
18538  1 13.264979 14.622829 88.865120
8232   1 15.620415 11.103880 90.867370
6065   1 15.742452 14.622830 88.865120
12499  1 13.879159 13.386787  9.989790
18725  1 15.483255 11.052349  9.974944
12389  1 12.271960 12.247007 92.897076
24864  1 14.749433 12.247007 92.897076
18637  1 13.142866 14.580911 92.911870
6164   1 15.620339 14.580911 92.911870
20815  1 12.272572 15.720649 10.004947
6262   1 13.139954 18.054054 10.019661
8341   1 14.750045 15.720649 10.004947
14578  1 13.880135 16.863289 12.035562
18736  1 15.617427 18.054054 10.019661
20914  1 12.152671 15.678767 14.051348
6361   1 13.013430 18.013930 14.064784
8440   1 14.630144 15.678767 14.051347
14677  1 13.775522 16.836293 16.080418
18835  1 15.490902 18.013930 14.064784
21013  1 12.067454 15.662657 18.096751
6460   1 12.925797 18.001594 18.106330
8539   1 14.544927 15.662657 18.096751
14776  1 13.706609 16.830850 20.123257
18934  1 15.403269 18.001594 18.106330
21112  1 12.014777 15.661996 22.141930
6559   1 12.871996 18.002980 22.146540
8638   1 14.492250 15.661996 22.141930
14875  1 13.667813 16.834063 24.166216
19033  1 15.349469 18.002980 22.146539
6658   1 12.846198 18.007759 26.187903
8737   1 14.467673 15.665915 26.187687
14974  1 13.655501 16.838632 28.209754
19132  1 15.323671 18.007759 26.187903
6757   1 12.845505 18.012596 30.229746
8836   1 14.469595 15.670034 30.232787
19231  1 15.322977 18.012596 30.229746
21409  1 12.021694 15.676337 34.274956
6856   1 12.870064 18.019036 34.269902
8935   1 14.499167 15.676336 34.274956
15073  1 13.668968 16.843682 32.252077
19330  1 15.347536 18.019036 34.269902
21508  1 12.081564 15.690567 38.313598
6955   1 12.921716 18.030527 38.307428
9034   1 14.559036 15.690567 38.313597
15172  1 13.710050 16.852860 36.291414
19429  1 15.399188 18.030526 38.307428
7054   1 12.997958 18.046190 42.344137
9133   1 14.645677 15.713055 42.351740
15271  1 13.779569 16.869607 40.328634
19528  1 15.475430 18.046190 42.344137
21607  1 12.168205 15.713055 42.351740
7153   1 13.087776 18.057987 46.382544
9232   1 14.741707 15.730572 46.392220
15370  1 13.868296 16.887703 44.367008
19627  1 15.565249 18.057987 46.382544
21706  1 12.264234 15.730572 46.392220
7252   1 13.186035 18.067797 50.423175
9331   1 14.838063 15.741659 50.433581
15469  1 13.962958 16.899206 48.407596
19726  1 15.663508 18.067796 50.423175
21805  1 12.360591 15.741659 50.433581
3095   1 14.063367 16.912683 52.448925
3194   1 14.168130 16.935974 56.488246
7352   1 15.773423 18.088675 54.464298
9430   1 12.459558 15.757906 54.473521
19825  1 13.295950 18.088676 54.464298
21905  1 14.937030 15.757906 54.473521
3293   1 14.256652 16.954143 60.525805
7451   1 15.881597 18.115769 58.502786
9529   1 12.551954 15.777730 58.510806
19924  1 13.404124 18.115769 58.502786
22004  1 15.029426 15.777730 58.510806
3392   1 14.316052 16.958585 64.566667
9628   1 12.620340 15.787846 62.548813
20023  1 13.484624 18.127187 62.542254
22103  1 15.097812 15.787846 62.548813
3491   1 14.348433 16.956837 68.613141
9727   1 12.661443 15.789132 66.591476
20122  1 13.534596 18.125957 66.587180
22202  1 15.138916 15.789132 66.591476
3590   1 14.356563 16.956583 72.664350
9826   1 12.678215 15.788819 70.639316
20221  1 13.558148 18.122670 70.637542
22301  1 15.155688 15.788819 70.639316
9925   1 12.672339 15.791819 74.690813
20320  1 13.556868 18.123634 74.691735
22400  1 15.149812 15.791820 74.690813
3689   1 14.341096 16.961140 76.718581
10024  1 12.643979 15.798789 78.743993
20419  1 13.530608 18.129995 78.748491
22499  1 15.121452 15.798790 78.743993
3788   1 14.301677 16.968867 80.774101
10123  1 12.592303 15.805279 82.796959
20518  1 13.478462 18.137591 82.806165
22598  1 15.069775 15.805279 82.796959
8045   1 15.955935 18.137591 82.806165
3887   1 14.236787 16.972369 84.828690
10222  1 12.514353 15.801046 86.847994
20617  1 13.397747 18.135772 86.861538
22697  1 14.991826 15.801046 86.847994
8144   1 15.875219 18.135772 86.861538
3986   1 14.142151 16.958375 88.879837
10321  1 12.405346 15.772675 90.896155
20716  1 13.282955 18.108677 90.911357
22796  1 14.882819 15.772675 90.896155
8243   1 15.760428 18.108677 90.911357
4085   1 14.015199 16.915457 92.926987
22894  1 12.261537 19.196660 12.049120
4194   1 13.108588 21.530046 12.060198
10420  1 14.739009 19.196660 12.049120
12510  1 14.002022 20.386933 10.033192
16668  1 15.586060 21.530046 12.060198
22993  1 12.151047 19.174518 16.090589
4293   1 12.989357 21.515726 16.095971
10519  1 14.628520 19.174518 16.090588
12609  1 13.862099 20.350127 14.075416
16767  1 15.466829 21.515727 16.095971
4392   1 12.918201 21.518445 20.128943
10618  1 14.557767 19.172858 20.128456
12708  1 13.770681 20.343775 18.111693
16866  1 15.395673 21.518445 20.128943
4491   1 12.880590 21.523688 24.165611
10717  1 14.518394 19.177403 24.167220
12807  1 13.716655 20.347627 22.147615
16965  1 15.358062 21.523688 24.165611
4590   1 12.867550 21.528346 28.205697
10816  1 14.504900 19.182390 28.207914
12906  1 13.691091 20.352780 26.186551
17064  1 15.345022 21.528345 28.205697
13005  1 13.688918 20.357550 30.227231
4689   1 12.875344 21.533008 32.246640
10915  1 14.515130 19.187601 32.248602
13104  1 13.709141 20.363353 34.267195
17163  1 15.352817 21.533008 32.246640
4788   1 12.904338 21.539326 36.286245
11014  1 14.550061 19.195502 36.287255
13203  1 13.753258 20.372041 38.304911
17262  1 15.381810 21.539326 36.286245
23587  1 12.133106 19.207472 40.323756
4887   1 12.956065 21.547326 40.323311
11113  1 14.610578 19.207472 40.323756
13302  1 13.820681 20.381864 42.340645
17361  1 15.433538 21.547326 40.323310
4986   1 13.029378 21.552711 44.357912
11212  1 14.691307 19.218747 44.360065
13401  1 13.906098 20.387506 46.376134
17460  1 15.506851 21.552710 44.357911
23686  1 12.213834 19.218747 44.360065
5085   1 13.122771 21.553836 48.392131
11311  1 14.784757 19.225736 48.398208
13500  1 14.008605 20.393570 50.414052
17559  1 15.600243 21.553835 48.392130
23785  1 12.307285 19.225736 48.398209
5185   1 15.720075 21.565082 52.430209
11410  1 12.415658 19.239525 52.439021
17658  1 13.242603 21.565082 52.430209
23885  1 14.893130 19.239525 52.439020
1126   1 14.134296 20.417746 54.454953
5284   1 15.867775 21.604006 56.470427
11509  1 12.537861 19.270315 56.479314
17757  1 13.390303 21.604006 56.470427
23984  1 15.015334 19.270314 56.479314
1225   1 14.264417 20.453166 58.494210
5383   1 15.994279 21.630600 60.510889
11608  1 12.642650 19.293015 60.518126
17856  1 13.516807 21.630601 60.510890
24083  1 15.120122 19.293015 60.518126
1324   1 14.359664 20.464505 62.536088
11707  1 12.713039 19.295587 64.561517
17955  1 13.599989 21.629326 64.558467
24182  1 15.190512 19.295587 64.561516
1423   1 14.419550 20.459443 66.584600
11806  1 12.753609 19.290351 68.610909
18054  1 13.649008 21.619996 68.611475
24281  1 15.231081 19.290351 68.610909
1522   1 14.450307 20.452738 70.637630
11905  1 12.767752 19.287305 72.664481
18153  1 13.668891 21.614345 72.666244
24380  1 15.245224 19.287305 72.664481
1621   1 14.454020 20.451483 74.693200
1720   1 14.430467 20.456984 78.751638
12004  1 12.755952 19.290350 76.721040
18252  1 13.661202 21.615756 76.722673
24479  1 15.233424 19.290350 76.721040
1819   1 14.377729 20.466165 82.813122
12103  1 12.717398 19.298367 80.780150
18351  1 13.624685 21.623593 80.782989
24578  1 15.194870 19.298367 80.780150
1918   1 14.292125 20.469110 86.873676
12202  1 12.650222 19.304536 84.839603
18450  1 13.555048 21.633240 84.847027
24677  1 15.127695 19.304537 84.839603
5977   1 16.032521 21.633240 84.847027
2017   1 14.166266 20.446115 90.926111
12301  1 12.549868 19.294335 88.894414
18549  1 13.445458 21.630170 88.907440
24776  1 15.027340 19.294335 88.894414
6076   1 15.922931 21.630171 88.907440
12400  1 12.410967 19.250906 92.941747
18648  1 13.285039 21.587711 92.955575
24875  1 14.888439 19.250907 92.941747
6175   1 15.762511 21.587711 92.955575
20826  1 12.377411 22.719021 10.044644
6273   1 13.210526 25.050128 10.052157
8352   1 14.854884 22.719021 10.044644
14589  1 13.935678 23.864909 12.066598
18747  1 15.687998 25.050128 10.052158
20925  1 12.216369 22.688916 14.081033
6372   1 13.022611 25.033009 14.077662
8451   1 14.693841 22.688916 14.081033
14688  1 13.808998 23.861350 16.093895
18846  1 15.500083 25.033009 14.077662
6471   1 12.937367 25.039205 18.104025
8550   1 14.600496 22.689760 18.111057
14787  1 13.743469 23.866969 20.124549
18945  1 15.414839 25.039205 18.104025
6570   1 12.896965 25.044019 22.140233
8649   1 14.549996 22.695098 22.144998
14886  1 13.711618 23.871671 24.162178
19044  1 15.374438 25.044019 22.140233
6669   1 12.879393 25.047610 26.181029
8748   1 14.527190 22.699753 26.184004
14985  1 13.700774 23.875396 28.203466
19143  1 15.356866 25.047609 26.181029
6768   1 12.877720 25.050459 30.224331
8847   1 14.524722 22.703805 30.225382
19242  1 15.355192 25.050459 30.224331
6867   1 12.890077 25.053726 34.268088
8946   1 14.540925 22.708504 34.266750
15084  1 13.706796 23.878995 32.246083
19341  1 15.367549 25.053725 34.268088
6966   1 12.917619 25.057847 38.310684
9045   1 14.577148 22.714745 38.306255
15183  1 13.729645 23.883633 36.288002
19440  1 15.395091 25.057847 38.310684
7065   1 12.963325 25.060592 42.350024
9144   1 14.635034 22.720175 42.342521
15282  1 13.771378 23.888729 40.327496
19539  1 15.440797 25.060592 42.350024
7164   1 13.034053 25.056877 46.382214
9243   1 14.715404 22.720132 46.375168
15381  1 13.834966 23.889991 44.362304
19638  1 15.511525 25.056877 46.382214
21717  1 12.237932 22.720132 46.375168
7263   1 13.145623 25.049162 50.408067
9342   1 14.823525 22.720032 50.408033
15480  1 13.926610 23.885047 48.391998
19737  1 15.623096 25.049162 50.408067
21816  1 12.346053 22.720032 50.408033
3106   1 14.061193 23.889974 52.424057
3205   1 14.248157 23.937586 56.462496
7363   1 15.803846 25.070596 54.440495
9441   1 12.494395 22.745143 54.446595
19836  1 13.326374 25.070596 54.440495
21916  1 14.971867 22.745143 54.446595
3304   1 14.405137 23.966093 60.505978
9540   1 12.656845 22.790260 58.486187
19935  1 13.540549 25.126835 58.480175
22015  1 15.134317 22.790260 58.486187
7462   1 16.018022 25.126835 58.480175
3403   1 14.502692 23.958454 64.560229
9639   1 12.770597 22.798881 62.532272
20034  1 13.677638 25.128265 62.534113
22114  1 15.248070 22.798881 62.532272
3502   1 14.558294 23.945589 68.616557
9738   1 12.840892 22.788758 66.585831
20133  1 13.756040 25.113143 66.593308
22213  1 15.318365 22.788758 66.585831
3601   1 14.581598 23.938652 72.670077
9837   1 12.877741 22.779145 70.640724
20232  1 13.794571 25.102800 70.647301
22312  1 15.355213 22.779145 70.640723
9936   1 12.885787 22.776191 74.695202
20331  1 13.804882 25.099309 74.697839
22411  1 15.363260 22.776192 74.695202
3700   1 14.578025 23.938669 76.723298
10035  1 12.866307 22.780290 78.752061
20430  1 13.791175 25.101592 78.750005
22510  1 15.343779 22.780291 78.752061
3799   1 14.546850 23.944924 80.780892
10134  1 12.815325 22.790110 82.814787
20529  1 13.748378 25.109343 82.808927
22609  1 15.292797 22.790111 82.814787
3898   1 14.478816 23.956486 84.846961
10233  1 12.724265 22.799347 86.881529
20628  1 13.658221 25.122781 86.879649
22708  1 15.201737 22.799347 86.881529
3997   1 14.357925 23.963823 88.916134
10332  1 12.580651 22.785025 90.939524
20727  1 13.489672 25.124149 90.949486
22807  1 15.058124 22.785026 90.939524
8254   1 15.967145 25.124150 90.949486
4096   1 14.160479 23.926580 92.967880
4205   1 12.963845 28.559702 12.041229
10431  1 14.723834 26.205463 12.063357
12521  1 13.982962 27.383176 10.052467
16679  1 15.441318 28.559702 12.041230
8363   1 14.485839 29.741523 10.052648
4304   1 12.915796 28.562002 16.076179
10530  1 14.607400 26.211723 16.083115
12620  1 13.794808 27.384727 14.061616
16778  1 15.393268 28.562002 16.076179
8462   1 14.553606 29.734781 14.061392
4403   1 12.890198 28.567028 20.112579
10629  1 14.559101 26.216666 20.118229
12719  1 13.740827 27.389402 18.096479
16877  1 15.367670 28.567029 20.112579
8561   1 14.535651 29.741022 18.091084
4502   1 12.879925 28.568983 24.155394
10728  1 14.536414 26.220340 24.158230
12818  1 13.715015 27.393500 22.135278
16976  1 15.357397 28.568982 24.155394
8660   1 14.529421 29.742912 22.132454
4601   1 12.877836 28.569743 28.201150
10827  1 14.529360 26.222694 28.201756
12917  1 13.704932 27.395566 26.178661
17075  1 15.355308 28.569742 28.201150
8759   1 14.528375 29.743229 26.177909
13016  1 13.704906 27.396918 30.224232
8858   1 14.530514 29.742939 30.225217
4700   1 12.881756 28.570253 32.248215
10926  1 14.534144 26.224867 32.246694
13115  1 13.713562 27.398475 34.270532
17174  1 15.359228 28.570253 32.248215
8957   1 14.535589 29.742566 34.273441
4799   1 12.891751 28.571036 36.295757
11025  1 14.550612 26.227690 36.291565
13214  1 13.731823 27.400495 38.316581
17273  1 15.369223 28.571035 36.295756
9056   1 14.544318 29.742261 38.322174
4898   1 12.909361 28.571798 40.343071
11124  1 14.580787 26.230590 40.334943
13313  1 13.762596 27.401521 42.360792
17372  1 15.386834 28.571798 40.343071
9155   1 14.558639 29.741496 42.370759
4997   1 12.938750 28.570715 44.388119
11223  1 14.629560 26.230124 44.373753
13412  1 13.814432 27.397663 46.398546
17471  1 15.416222 28.570715 44.388119
9254   1 14.584248 29.738727 46.416581
5096   1 12.994431 28.564011 48.424222
11322  1 14.711692 26.221401 48.401601
13511  1 13.917005 27.384541 50.419379
17570  1 15.471903 28.564011 48.424222
9353   1 14.644518 29.730530 50.450239
5196   1 15.614636 28.548262 52.433499
11421  1 12.382926 26.215958 52.423347
17669  1 13.137164 28.548262 52.433499
23896  1 14.860398 26.215958 52.423347
1137   1 14.141040 27.393707 54.438952
11520  1 12.635667 26.271447 56.456675
17768  1 13.517791 28.604083 56.455120
23995  1 15.113140 26.271447 56.456675
9452   1 12.410943 29.717671 54.442309
21927  1 14.888416 29.717671 54.442309
5295   1 15.995263 28.604082 56.455120
1236   1 14.450416 27.460392 58.479671
11619  1 12.838561 26.296775 60.507098
17867  1 13.791741 28.615804 60.523221
24094  1 15.316034 26.296775 60.507098
9551   1 12.950747 29.779707 58.499592
22026  1 15.428219 29.779707 58.499592
1335   1 14.613098 27.449039 62.547192
11718  1 12.948665 26.281185 64.570390
17966  1 13.895392 28.598163 64.589308
24193  1 15.426137 26.281185 64.570390
9650   1 13.107454 29.760982 62.572673
22125  1 15.584926 29.760982 62.572673
1434   1 14.688039 27.433416 66.607253
11817  1 13.003616 26.267985 68.626499
18065  1 13.936256 28.589642 68.638182
24292  1 15.481088 26.267984 68.626499
9749   1 13.154397 29.753332 66.621687
22224  1 15.631870 29.753332 66.621687
1533   1 14.720358 27.425535 70.655910
11916  1 13.025791 26.261830 72.675571
18164  1 13.952911 28.585360 72.681487
24391  1 15.503263 26.261830 72.675571
9848   1 13.173714 29.748924 70.663870
22323  1 15.651187 29.748924 70.663871
1632   1 14.730465 27.422434 74.701022
9947   1 13.181831 29.746440 74.704464
22422  1 15.659304 29.746440 74.704464
1731   1 14.723848 27.422947 78.747383
12015  1 13.025840 26.260924 76.723533
18263  1 13.956009 28.583883 76.724316
24490  1 15.503313 26.260924 76.723533
10046  1 13.183007 29.745447 78.746501
22521  1 15.660480 29.745447 78.746501
1830   1 14.696701 27.426931 82.798926
12114  1 13.004113 26.264510 80.775206
18362  1 13.946836 28.584809 80.769938
24589  1 15.481585 26.264511 80.775206
10145  1 13.176621 29.746023 82.792086
22620  1 15.654094 29.746023 82.792086
1929   1 14.628844 27.435882 86.861478
12213  1 12.949313 26.273169 84.835937
18461  1 13.918113 28.588351 84.821265
24688  1 15.426785 26.273169 84.835937
10244  1 13.154252 29.748201 86.842756
22719  1 15.631725 29.748201 86.842756
2028   1 14.446011 27.455697 90.946775
12312  1 12.826293 26.289168 88.913136
18560  1 13.836547 28.596584 88.884657
24787  1 15.303766 26.289168 88.913136
10343  1 13.074573 29.758952 90.902891
22818  1 15.552046 29.758953 90.902891
12411  1 12.563434 26.267973 92.977355
18659  1 13.486535 28.602235 92.974094
24886  1 15.040906 26.267973 92.977355
6186   1 15.964007 28.602236 92.974094
2127   1 16.160308 30.913088 12.065386
6284   1 12.872074 32.079650 10.052127
10442  1 14.402395 33.266316 12.041911
14600  1 13.682836 30.913088 12.065385
18758  1 15.349547 32.079650 10.052127
2226   1 16.167404 30.916220 16.072977
6383   1 12.819805 32.095062 14.061882
10541  1 14.464249 33.270481 16.077182
14699  1 13.689931 30.916220 16.072977
18857  1 15.297278 32.095062 14.061882
2325   1 16.172676 30.917465 20.110709
6482   1 12.849902 32.093081 18.091683
10640  1 14.500555 33.267818 20.114091
14798  1 13.695203 30.917464 20.110709
18956  1 15.327374 32.093081 18.091683
2424   1 16.176807 30.917330 24.155065
6581   1 12.865436 32.092112 22.133408
10739  1 14.519165 33.265482 24.157786
14897  1 13.699334 30.917330 24.155064
19055  1 15.342909 32.092112 22.133409
2523   1 16.180281 30.916409 28.202086
6680   1 12.873987 32.090583 26.179382
10838  1 14.528231 33.262798 28.204706
14996  1 13.702809 30.916409 28.202086
19154  1 15.351459 32.090583 26.179382
6779   1 12.878466 32.088567 30.227341
19253  1 15.355939 32.088567 30.227341
2622   1 16.183529 30.915116 32.250430
6878   1 12.879987 32.086138 34.276364
10937  1 14.530785 33.259642 32.253185
15095  1 13.706056 30.915116 32.250430
19352  1 15.357460 32.086138 34.276364
2721   1 16.187038 30.913643 36.299590
6977   1 12.879072 32.083308 38.326182
11036  1 14.527717 33.255845 36.302504
15194  1 13.709566 30.913643 36.299590
19451  1 15.356544 32.083308 38.326182
2820   1 16.191686 30.911983 40.349379
7076   1 12.876388 32.080369 42.376549
11135  1 14.519181 33.251612 40.352404
15293  1 13.714214 30.911983 40.349379
19550  1 15.353860 32.080369 42.376549
2919   1 16.199550 30.909908 44.398961
7175   1 12.872990 32.077945 46.426067
11234  1 14.504875 33.248173 44.402058
15392  1 13.722078 30.909908 44.398961
19649  1 15.350463 32.077945 46.426068
3018   1 16.216883 30.906644 48.445115
7274   1 12.869912 32.076371 50.470092
11333  1 14.480757 33.247467 48.448237
15491  1 13.739411 30.906644 48.445115
19748  1 15.347384 32.076371 50.470092
3117   1 13.799131 30.899085 52.474181
11432  1 14.415582 33.252881 52.477011
7373   1 12.867846 32.075982 54.470903
3216   1 14.498740 30.910444 56.483245
11531  1 13.706902 33.242406 56.487541
19847  1 15.345319 32.075981 54.470903
24006  1 16.184375 33.242406 56.487541
3315   1 14.812606 30.919952 60.557394
11630  1 13.392876 33.232185 60.560554
19946  1 14.104026 32.076515 58.541975
24105  1 15.870348 33.232185 60.560554
3414   1 14.857762 30.915710 64.605431
11729  1 13.347621 33.234960 64.608338
15887  1 12.380289 30.915710 64.605431
20045  1 14.102593 32.075690 62.587094
24204  1 15.825093 33.234960 64.608338
3513   1 14.873906 30.912355 68.647045
11828  1 13.334914 33.235957 68.649868
15986  1 12.396434 30.912355 68.647045
20144  1 14.103427 32.074782 66.629456
24303  1 15.812387 33.235957 68.649868
3612   1 14.882347 30.909833 72.686402
11927  1 13.334218 33.234881 72.689317
16085  1 12.404874 30.909833 72.686402
20243  1 14.106169 32.073302 70.668756
24402  1 15.811691 33.234881 72.689317
20342  1 14.111424 32.071229 74.707769
3711   1 14.888073 30.907844 76.726353
12026  1 13.342291 33.232208 76.729740
16184  1 12.410600 30.907843 76.726354
20441  1 14.120512 32.068776 78.748785
24501  1 15.819764 33.232208 76.729740
3810   1 14.892971 30.906491 80.768945
12125  1 13.361170 33.228428 80.773716
16283  1 12.415499 30.906491 80.768945
20540  1 14.136675 32.066338 82.793679
24600  1 15.838643 33.228428 80.773716
3909   1 14.898041 30.906117 84.815541
12224  1 13.400042 33.223991 84.823934
16382  1 12.420569 30.906117 84.815541
20639  1 14.169714 32.064565 86.843896
24699  1 15.877515 33.223991 84.823934
4008   1 14.903384 30.906763 88.865264
12323  1 13.492790 33.217655 88.886185
16481  1 12.425912 30.906763 88.865264
20738  1 14.258642 32.056318 90.902225
24798  1 15.970263 33.217656 88.886185
4107   1 14.909870 30.910620 92.937452
12422  1 13.863158 33.218911 92.975181
16580  1 12.432397 30.910620 92.937452
59     1 15.852061 34.439270 10.054682
4216   1 12.641676 35.621140 12.065507
8374   1 14.145478 36.772934 10.055409
12532  1 13.374588 34.439270 10.054682
16690  1 15.119149 35.621140 12.065507
158    1 16.056353 34.445165 14.062853
4315   1 12.773342 35.620815 16.085094
8473   1 14.351283 36.797288 14.080147
12631  1 13.578880 34.445165 14.062853
16789  1 15.250815 35.620815 16.085094
257    1 16.122776 34.444658 18.098294
4414   1 12.832726 35.617931 20.121276
8572   1 14.450024 36.794748 18.107086
12730  1 13.645303 34.444657 18.098294
16888  1 15.310199 35.617930 20.121277
356    1 16.158103 34.441240 22.138151
4513   1 12.863955 35.613542 24.163013
8671   1 14.500301 36.790152 22.145040
12829  1 13.680630 34.441240 22.138151
16987  1 15.341428 35.613542 24.163013
455    1 16.175785 34.437769 26.183067
4612   1 12.878046 35.609032 28.208800
8770   1 14.525631 36.784782 26.188331
12928  1 13.698313 34.437769 26.183067
17086  1 15.355519 35.609032 28.208799
554    1 16.182431 34.433980 30.230533
8869   1 14.533865 36.779287 30.234614
13027  1 13.704959 34.433980 30.230533
653    1 16.180249 34.429518 34.279103
4711   1 12.879626 35.604075 32.256396
8968   1 14.527603 36.773014 34.281734
13126  1 13.702777 34.429518 34.279104
17185  1 15.357098 35.604075 32.256395
752    1 16.169473 34.424200 38.328109
4810   1 12.869707 35.598109 36.304440
9067   1 14.506604 36.765506 38.328313
13225  1 13.692000 34.424200 38.328109
17284  1 15.347180 35.598109 36.304440
851    1 16.149491 34.419099 42.376862
4909   1 12.847681 35.591503 40.352060
9166   1 14.469257 36.758661 42.372784
13324  1 13.672019 34.419100 42.376862
17383  1 15.325154 35.591503 40.352060
950    1 16.116783 34.417073 46.422779
5008   1 12.811230 35.587116 44.397280
9265   1 14.409401 36.757870 46.410630
13423  1 13.639310 34.417073 46.422779
17482  1 15.288703 35.587116 44.397280
1049   1 16.049956 34.422345 50.456322
5107   1 12.748149 35.590053 48.433396
9364   1 14.299413 36.768411 50.431314
13522  1 13.572483 34.422345 50.456322
17581  1 15.225622 35.590053 48.433396
5206   1 12.599139 35.604017 52.442469
17680  1 15.076611 35.604017 52.442469
1148   1 15.800568 34.434552 54.448391
9463   1 14.068630 36.758820 54.450899
13621  1 13.323096 34.434553 54.448391
17779  1 14.688978 35.548815 56.464680
1247   1 15.255001 34.373569 58.506325
9562   1 13.754106 36.692944 58.491422
13720  1 12.777529 34.373569 58.506325
17878  1 14.412309 35.536959 60.532297
22037  1 16.231579 36.692944 58.491422
1346   1 15.096988 34.390716 62.578604
9661   1 13.589217 36.703488 62.558464
13819  1 12.619516 34.390716 62.578604
17977  1 14.308374 35.553104 64.597785
22136  1 16.066689 36.703489 62.558464
1445   1 15.051562 34.396531 66.627331
9760   1 13.515237 36.717328 66.618131
13918  1 12.574089 34.396531 66.627331
18076  1 14.270604 35.559249 68.646455
22235  1 15.992709 36.717328 66.618131
1544   1 15.037567 34.397941 70.669496
9859   1 13.487692 36.722164 70.666746
14017  1 12.560095 34.397941 70.669496
18175  1 14.261344 35.559804 72.689963
22334  1 15.965164 36.722164 70.666746
1643   1 15.039770 34.396147 74.710526
9958   1 13.487207 36.720732 74.712394
14116  1 12.562297 34.396147 74.710526
22433  1 15.964680 36.720732 74.712394
1742   1 15.056299 34.391918 78.754060
10057  1 13.509934 36.714427 78.760580
14215  1 12.578826 34.391918 78.754060
18274  1 14.271453 35.556259 76.733862
22532  1 15.987406 36.714427 78.760580
1841   1 15.093130 34.385784 82.803616
10156  1 13.562166 36.704039 82.816461
14314  1 12.615658 34.385784 82.803616
18373  1 14.302552 35.549454 80.782520
22631  1 16.039639 36.704040 82.816460
1940   1 15.171838 34.377133 86.864761
10255  1 13.663639 36.690221 86.885310
14413  1 12.694365 34.377133 86.864761
18472  1 14.367496 35.539509 84.841128
22730  1 16.141112 36.690221 86.885309
2039   1 15.368858 34.360196 90.949406
10354  1 13.847177 36.691917 90.954085
14512  1 12.891385 34.360196 90.949406
18571  1 14.503069 35.524852 88.917253
22829  1 16.324650 36.691917 90.954085
18670  1 14.784239 35.552136 92.980483
2138   1 15.907148 37.962284 12.069916
10453  1 14.257394 40.297885 12.064574
14611  1 13.429676 37.962284 12.069916
18769  1 14.978014 39.104552 10.049160
2237   1 16.050339 37.971414 16.097111
6394   1 12.680990 39.141903 14.084651
10552  1 14.394538 40.317331 16.100304
14710  1 13.572866 37.971414 16.097111
18868  1 15.158463 39.141903 14.084651
2336   1 16.127724 37.967201 20.129164
6493   1 12.788895 39.144088 18.115468
10651  1 14.478384 40.315104 20.135187
14809  1 13.650251 37.967201 20.129164
18967  1 15.266368 39.144088 18.115467
2435   1 16.168415 37.961239 24.169357
6592   1 12.849837 39.138193 22.151778
10750  1 14.525211 40.307834 24.175238
14908  1 13.690943 37.961238 24.169357
19066  1 15.327309 39.138193 22.151778
2534   1 16.186329 37.955026 28.213879
6691   1 12.880566 39.131248 26.194176
10849  1 14.545212 40.300348 28.219360
15007  1 13.708857 37.955026 28.213879
19165  1 15.358039 39.131249 26.194176
6790   1 12.889352 39.124359 30.239357
19264  1 15.366825 39.124359 30.239357
2633   1 16.186337 37.948528 32.260068
6889   1 12.878407 39.116727 34.284593
10948  1 14.542716 40.292844 32.264319
15106  1 13.708864 37.948528 32.260068
19363  1 15.355880 39.116727 34.284593
2732   1 16.169129 37.940768 36.305840
6988   1 12.846846 39.107424 38.327926
11047  1 14.517704 40.283807 36.307560
15205  1 13.691656 37.940768 36.305840
19462  1 15.324319 39.107424 38.327926
2831   1 16.133406 37.932152 40.349635
7087   1 12.792941 39.098944 42.367465
11146  1 14.468554 40.273246 40.347430
15304  1 13.655933 37.932152 40.349635
19561  1 15.270413 39.098944 42.367465
2930   1 16.076287 37.927227 44.388584
7186   1 12.712649 39.098209 46.399585
11245  1 14.394590 40.266687 44.382155
15403  1 13.598814 37.927227 44.388583
19660  1 15.190122 39.098209 46.399585
7285   1 12.592364 39.103809 50.425070
3029   1 15.985620 37.932482 48.416346
11344  1 14.292762 40.268562 48.411461
15502  1 13.508148 37.932482 48.416346
19759  1 15.069837 39.103809 50.425071
3128   1 15.829439 37.936590 52.437786
11443  1 14.149410 40.262905 52.442749
15601  1 13.351966 37.936590 52.437786
3227   1 15.570185 37.881637 56.470713
11542  1 13.955241 40.216052 56.480331
15700  1 13.092712 37.881637 56.470713
19858  1 14.881563 39.082315 54.456873
24017  1 16.432714 40.216052 56.480331
3326   1 15.363227 37.856650 60.520842
11641  1 13.793133 40.188243 60.523397
15799  1 12.885755 37.856650 60.520842
19957  1 14.661649 39.026917 58.496017
24116  1 16.270606 40.188243 60.523397
3425   1 15.251920 37.871174 64.583758
11740  1 13.693162 40.195363 64.577499
15898  1 12.774448 37.871174 64.583758
20056  1 14.521252 39.025340 62.549691
24215  1 16.170635 40.195363 64.577498
3524   1 15.199277 37.882085 68.639659
11839  1 13.638575 40.206268 68.633748
15997  1 12.721804 37.882085 68.639659
20155  1 14.442762 39.039009 66.608663
24314  1 16.116048 40.206268 68.633748
3623   1 15.183631 37.884434 72.688858
11938  1 13.620223 40.209624 72.687118
16096  1 12.706158 37.884434 72.688858
20254  1 14.407924 39.046427 70.662579
24413  1 16.097695 40.209624 72.687118
20353  1 14.405771 39.045350 74.713232
3722   1 15.195337 37.880003 76.737605
12037  1 13.633020 40.204498 76.739878
16195  1 12.717864 37.880003 76.737605
20452  1 14.432637 39.037204 78.765837
24512  1 16.110493 40.204498 76.739877
3821   1 15.235153 37.870142 80.791319
12136  1 13.676904 40.192855 80.796045
16294  1 12.757680 37.870141 80.791319
20551  1 14.492559 39.024171 82.824849
24611  1 16.154376 40.192855 80.796045
3920   1 15.313340 37.856582 84.854550
12235  1 13.756404 40.180448 84.856586
16393  1 12.835867 37.856582 84.854550
20650  1 14.595105 39.013789 86.889061
24710  1 16.233876 40.180448 84.856586
4019   1 15.447346 37.850135 88.922116
12334  1 13.879634 40.183738 88.914783
16492  1 12.969873 37.850135 88.922116
20749  1 14.754467 39.031059 90.945551
24809  1 16.357107 40.183738 88.914783
4118   1 15.662950 37.893224 92.972505
12433  1 14.059314 40.231972 92.961404
16591  1 13.185477 37.893224 92.972505
70     1 15.830655 41.437156 10.038627
4227   1 12.628422 42.632175 12.054166
8385   1 14.215351 43.770575 10.025535
12543  1 13.353183 41.437156 10.038627
16701  1 15.105895 42.632175 12.054166
2149   1 15.967294 44.966670 12.040765
14622  1 13.489822 44.966669 12.040765
169    1 15.992134 41.481388 14.079929
4326   1 12.758676 42.658839 16.095823
8484   1 14.366572 43.818428 14.069812
12642  1 13.514661 41.481388 14.079929
16800  1 15.236148 42.658840 16.095822
2248   1 16.094236 44.997211 16.086341
14721  1 13.616764 44.997211 16.086341
268    1 16.099306 41.489855 18.117380
4425   1 12.843046 42.659721 20.136385
8583   1 14.471424 43.831529 18.113245
12741  1 13.621833 41.489855 18.117380
16899  1 15.320518 42.659722 20.136385
2347   1 16.177855 45.000150 20.133123
14820  1 13.700382 45.000150 20.133123
367    1 16.164383 41.484411 22.156473
4524   1 12.891956 42.652244 24.179472
8682   1 14.536905 43.827252 22.157719
12840  1 13.686910 41.484410 22.156473
16998  1 15.369428 42.652244 24.179471
2446   1 16.226312 44.993077 24.181497
14919  1 13.748840 44.993077 24.181497
466    1 16.197956 41.476384 26.199632
4623   1 12.911998 42.644211 28.224777
8781   1 14.570529 43.819092 26.204087
12939  1 13.720484 41.476384 26.199632
17097  1 15.389470 42.644211 28.224777
2545   1 16.244176 44.985576 28.229887
15018  1 13.766704 44.985576 28.229887
565    1 16.205852 41.468743 30.244586
8880   1 14.575784 43.811680 30.250217
13038  1 13.728380 41.468743 30.244586
664    1 16.189415 41.460434 34.288220
4722   1 12.905753 42.636553 32.269358
8979   1 14.552831 43.803611 34.293164
13137  1 13.711943 41.460434 34.288221
17196  1 15.383226 42.636553 32.269358
2644   1 16.232630 44.978936 32.275350
15117  1 13.755158 44.978936 32.275350
763    1 16.147146 41.449595 38.328540
4821   1 12.872387 42.626823 36.310620
9078   1 14.499735 43.791286 38.331550
13236  1 13.669673 41.449595 38.328540
17295  1 15.349860 42.626822 36.310620
2743   1 16.190169 44.969199 36.315759
15216  1 13.712696 44.969200 36.315759
862    1 16.078589 41.438543 42.364734
4920   1 12.810487 42.613767 40.347796
9177   1 14.418173 43.775941 42.366698
13335  1 13.601117 41.438543 42.364734
17394  1 15.287959 42.613766 40.347796
2842   1 16.115692 44.952755 40.351839
15315  1 13.638219 44.952755 40.351839
961    1 15.986446 41.434389 46.396951
5019   1 12.723916 42.603162 44.381881
9276   1 14.318074 43.766420 46.401214
13434  1 13.508974 41.434389 46.396951
17493  1 15.201388 42.603162 44.381880
2941   1 16.017847 44.936260 44.387004
15414  1 13.540374 44.936260 44.387004
1060   1 15.867967 41.433009 50.428982
9375   1 14.203269 43.759682 50.437685
13533  1 13.390495 41.433009 50.428982
17592  1 15.095665 42.599515 48.415214
3040   1 15.909453 44.927476 48.423600
15513  1 13.431980 44.927477 48.423600
17691  1 14.965561 42.588270 52.451980
3139   1 15.789107 44.914568 52.462399
15612  1 13.311635 44.914568 52.462399
1159   1 15.710989 41.408343 54.466418
9474   1 14.067554 43.736601 54.476914
13632  1 13.233516 41.408343 54.466418
17790  1 14.809504 42.550509 56.490928
3238   1 15.657306 44.885414 56.500956
15711  1 13.179834 44.885414 56.500956
1258   1 15.541776 41.364322 58.505197
9573   1 13.929532 43.702592 58.515058
13731  1 13.064303 41.364322 58.505197
17889  1 14.676765 42.524942 60.530824
22048  1 16.407004 43.702592 58.515058
3337   1 15.545224 44.863977 60.539126
15810  1 13.067751 44.863976 60.539126
1357   1 15.423552 41.356055 62.551053
9672   1 13.828642 43.691967 62.556783
13830  1 12.946079 41.356055 62.551053
17988  1 14.589829 42.526184 64.578462
22147  1 16.306114 43.691967 62.556783
3436   1 15.469768 44.861743 64.582918
15909  1 12.992295 44.861743 64.582917
1456   1 15.351733 41.365229 66.604651
9771   1 13.765629 43.696609 66.605693
13929  1 12.874261 41.365229 66.604651
18087  1 14.540050 42.534131 68.631653
22246  1 16.243102 43.696609 66.605693
3535   1 15.426408 44.866299 68.632943
16008  1 12.948936 44.866298 68.632943
1555   1 15.316866 41.372358 70.659465
9870   1 13.734543 43.701632 70.658812
14028  1 12.839393 41.372358 70.659465
18186  1 14.522741 42.536913 72.685964
22345  1 16.212016 43.701632 70.658812
3634   1 15.411839 44.867648 72.686075
16107  1 12.934367 44.867648 72.686075
1654   1 15.314581 41.371245 74.713229
9969   1 13.733387 43.699958 74.712919
14127  1 12.837109 41.371245 74.713229
22444  1 16.210860 43.699958 74.712918
1753   1 15.343149 41.362155 78.767934
10068  1 13.761823 43.690912 78.766893
14226  1 12.865677 41.362155 78.767934
18285  1 14.536187 42.531392 76.740270
22543  1 16.239296 43.690912 78.766893
3733   1 15.425543 44.862026 76.739475
16206  1 12.948071 44.862026 76.739475
1852   1 15.403866 41.349317 82.825307
10167  1 13.820492 43.679460 82.820277
14325  1 12.926393 41.349316 82.825307
18384  1 14.580231 42.519734 80.795429
22642  1 16.297965 43.679460 82.820277
3832   1 15.468016 44.851241 80.791560
16305  1 12.990544 44.851241 80.791560
1951   1 15.501004 41.344300 86.882634
10266  1 13.912624 43.678093 86.871615
14424  1 13.023532 41.344300 86.882634
18483  1 14.656667 42.510045 84.850788
22741  1 16.390097 43.678093 86.871615
3931   1 15.541148 44.843551 84.841448
16404  1 13.063675 44.843551 84.841448
2050   1 15.643800 41.369781 90.933125
10365  1 14.045973 43.706797 90.918934
14523  1 13.166328 41.369781 90.933125
18582  1 14.771287 42.519468 88.902701
22840  1 16.523446 43.706797 90.918934
4030   1 15.650730 44.855302 88.888755
16503  1 13.173258 44.855302 88.888755
18681  1 14.931631 42.568619 92.948281
4129   1 15.802449 44.903725 92.933787
16602  1 13.324977 44.903725 92.933787
10464  1 14.361014 47.301968 12.025457
18780  1 15.083103 46.104626 10.010747
180    1 16.110994 48.490165 14.041392
6405   1 12.754973 46.154498 14.056476
10563  1 14.489663 47.333193 16.074015
12653  1 13.633521 48.490165 14.041392
18879  1 15.232446 46.154498 14.056476
279    1 16.218279 48.503193 18.095140
6504   1 12.859340 46.169338 18.105070
10662  1 14.573706 47.335902 20.127152
12752  1 13.740806 48.503192 18.095140
18978  1 15.336813 46.169338 18.105070
378    1 16.283192 48.498603 22.152945
6603   1 12.924263 46.165599 22.156023
10761  1 14.620711 47.329162 24.181857
12851  1 13.805719 48.498602 22.152945
19077  1 15.401736 46.165599 22.156023
477    1 16.311362 48.492381 26.209744
6702   1 12.955891 46.158110 26.207378
10860  1 14.634368 47.323340 28.234545
12950  1 13.833889 48.492381 26.209744
19176  1 15.433363 46.158110 26.207378
576    1 16.305182 48.489473 30.261977
6801   1 12.956496 46.152234 30.256158
13049  1 13.827709 48.489473 30.261977
19275  1 15.433969 46.152234 30.256158
675    1 16.264740 48.485775 34.307336
6900   1 12.925679 46.145596 34.299666
10959  1 14.615629 47.319188 32.282140
13148  1 13.787268 48.485775 34.307336
19374  1 15.403151 46.145596 34.299666
774    1 16.187030 48.471266 38.345675
6999   1 12.861117 46.131889 38.337447
11058  1 14.562841 47.310431 36.323013
13247  1 13.709557 48.471266 38.345675
19473  1 15.338589 46.131888 38.337447
873    1 16.075456 48.442960 42.381637
7098   1 12.766081 46.110694 42.372836
11157  1 14.474423 47.289936 40.359069
13346  1 13.597983 48.442960 42.381637
19572  1 15.243554 46.110693 42.372836
972    1 15.956495 48.422489 46.419574
11256  1 14.363526 47.266444 44.395527
13445  1 13.479022 48.422489 46.419574
19671  1 15.135384 46.095405 46.409570
1071   1 15.843284 48.413095 50.457527
11355  1 14.250846 47.254147 48.433689
13544  1 13.365811 48.413095 50.457527
19770  1 15.022629 46.085957 50.447931
11454  1 14.136712 47.242573 52.472071
23929  1 16.614185 47.242573 52.472071
1170   1 15.731704 48.399318 54.494306
11553  1 14.021333 47.221301 56.509178
13643  1 13.254232 48.399318 54.494306
19869  1 14.901262 46.066889 54.486691
24028  1 16.498806 47.221301 56.509178
1269   1 15.629916 48.381125 58.530217
11652  1 13.924795 47.204417 60.546236
13742  1 13.152444 48.381125 58.530216
19968  1 14.784183 46.041448 58.523824
24127  1 16.402268 47.204417 60.546236
1368   1 15.554352 48.371800 62.568903
11751  1 13.859255 47.200501 64.588091
13841  1 13.076880 48.371800 62.568903
20067  1 14.697043 46.030919 62.563394
24226  1 16.336728 47.200501 64.588091
1467   1 15.507170 48.370910 66.613378
11850  1 13.822038 47.202282 68.635946
13940  1 13.029697 48.370910 66.613378
20166  1 14.642352 46.032205 66.609291
24325  1 16.299510 47.202282 68.635946
1566   1 15.484817 48.371592 70.662747
11949  1 13.810213 47.202227 72.687358
14039  1 13.007345 48.371592 70.662746
20265  1 14.615855 46.034823 70.660246
24424  1 16.287686 47.202227 72.687358
1665   1 15.485732 48.368919 74.713823
14138  1 13.008260 48.368919 74.713823
20364  1 14.616032 46.032498 74.712974
1764   1 15.510965 48.361548 78.762914
12048  1 13.823546 47.196855 76.738802
14237  1 13.033492 48.361548 78.762914
20463  1 14.643347 46.024081 78.764552
24523  1 16.301018 47.196855 76.738802
1863   1 15.563921 48.352428 82.807356
12147  1 13.863649 47.187230 80.787297
14336  1 13.086448 48.352428 82.807356
20562  1 14.699417 46.013930 82.813270
24622  1 16.341121 47.187230 80.787297
1962   1 15.650940 48.351061 86.847840
12246  1 13.934054 47.180247 84.831858
14435  1 13.173467 48.351061 86.847841
20661  1 14.788362 46.013686 86.859205
24721  1 16.411526 47.180248 84.831858
2061   1 15.781893 48.376053 90.889068
12345  1 14.041775 47.190928 88.874646
14534  1 13.304420 48.376053 90.889068
20760  1 14.918047 46.042100 90.903939
24820  1 16.519247 47.190928 88.874646
81     1 15.954677 48.439381  9.994951
12554  1 13.477205 48.439381  9.994951
12444  1 14.193537 47.237601 92.918510
2160   1 16.133093 51.976139 11.992869
14633  1 13.655620 51.976139 11.992869
16712  1 15.241430 49.638428 12.009113
2259   1 16.285345 51.996172 16.050511
4337   1 12.900498 49.666658 16.060992
8495   1 14.526148 50.825140 14.026240
14732  1 13.807873 51.996172 16.050510
16811  1 15.377971 49.666658 16.060992
2358   1 16.376106 51.990574 20.117457
4436   1 12.987199 49.666325 20.120886
8594   1 14.640593 50.832244 18.086425
14831  1 13.898633 51.990574 20.117457
16910  1 15.464672 49.666325 20.120885
2457   1 16.417325 51.984497 24.181223
4535   1 13.032222 49.659672 24.181560
8693   1 14.705929 50.825619 22.150484
14930  1 13.939852 51.984497 24.181223
17009  1 15.509695 49.659672 24.181560
2556   1 16.416716 51.984983 28.239852
4634   1 13.039682 49.656630 28.238320
8792   1 14.728946 50.821335 26.211101
15029  1 13.939243 51.984983 28.239852
17108  1 15.517154 49.656630 28.238320
8891   1 14.713944 50.822599 30.266459
2655   1 16.377842 51.990065 32.293775
4733   1 13.011676 49.656525 32.288891
8990   1 14.661908 50.823553 34.314972
15128  1 13.900369 51.990066 32.293775
17207  1 15.489149 49.656525 32.288891
2754   1 16.298263 51.988432 36.340180
4832   1 12.946676 49.650257 36.331620
9089   1 14.568186 50.809652 38.355108
15227  1 13.820790 51.988432 36.340180
17306  1 15.424148 49.650257 36.331620
2853   1 16.169834 51.960075 40.378068
4931   1 12.841037 49.625548 40.368261
9188   1 14.434024 50.773019 42.391476
15326  1 13.692362 51.960075 40.378068
17405  1 15.318510 49.625548 40.368261
2952   1 16.015539 51.920458 44.415050
9287   1 14.299565 50.748704 46.429167
15425  1 13.538066 51.920458 44.415049
17504  1 15.189934 49.594323 44.405465
3051   1 15.884929 51.908790 48.450095
9386   1 14.183414 50.742134 50.464447
15524  1 13.407456 51.908790 48.450095
17603  1 15.070074 49.580822 48.443254
21861  1 16.660887 50.742134 50.464447
3150   1 15.776104 51.906017 52.482085
15623  1 13.298632 51.906017 52.482085
17702  1 14.959340 49.572853 52.479264
3249   1 15.683516 51.897639 56.515398
9485   1 14.079115 50.734162 54.498238
15722  1 13.206044 51.897639 56.515398
17801  1 14.856063 49.558637 56.514346
21960  1 16.556588 50.734162 54.498238
3348   1 15.611984 51.888203 60.552589
9584   1 13.990036 50.721805 58.533273
15821  1 13.134511 51.888203 60.552588
17900  1 14.772383 49.545928 60.550912
22059  1 16.467509 50.721805 58.533273
3447   1 15.564256 51.883530 64.594884
9683   1 13.925177 50.713915 62.572282
15920  1 13.086783 51.883530 64.594884
17999  1 14.715857 49.541375 64.592329
22158  1 16.402649 50.713915 62.572282
3546   1 15.537511 51.882224 68.641903
9782   1 13.884988 50.711739 66.616708
16019  1 13.060039 51.882224 68.641903
18098  1 14.684136 49.541225 68.639229
22257  1 16.362460 50.711739 66.616708
3645   1 15.528976 51.880826 72.691555
9881   1 13.866072 50.711161 70.665405
16118  1 13.051503 51.880826 72.691555
18197  1 14.674357 49.540228 72.689368
22356  1 16.343545 50.711161 70.665405
9980   1 13.866819 50.708567 74.715429
22455  1 16.344292 50.708567 74.715429
3744   1 15.538496 51.877089 76.740626
10079  1 13.888596 50.702643 78.763100
16217  1 13.061023 51.877089 76.740626
18296  1 14.686341 49.535511 76.739170
22554  1 16.366069 50.702643 78.763100
3843   1 15.569265 51.870852 80.785559
10178  1 13.936530 50.694828 82.804897
16316  1 13.091793 51.870852 80.785558
18395  1 14.722830 49.527350 80.784956
22653  1 16.414002 50.694828 82.804897
3942   1 15.629849 51.864259 84.822929
10277  1 14.020694 50.691194 86.840143
16415  1 13.152376 51.864259 84.822929
18494  1 14.789937 49.520313 84.824839
22752  1 16.498166 50.691194 86.840143
4041   1 15.736542 51.865277 88.853772
10376  1 14.156680 50.709369 90.875666
16514  1 13.259069 51.865277 88.853772
18593  1 14.897771 49.527022 88.862116
22851  1 16.634152 50.709369 90.875666
8396   1 14.351768 50.775229  9.978855
4140   1 15.914184 51.901911 92.889060
16613  1 13.436712 51.901911 92.889061
18692  1 15.057993 49.570349 92.903224
10475  1 14.566606 54.313950 11.979261
191    1 16.387329 55.481329 14.013217
6416   1 12.961230 53.157521 14.014191
10574  1 14.742967 54.318268 16.048580
12664  1 13.909857 55.481329 14.013217
18890  1 15.438702 53.157521 14.014191
290    1 16.514026 55.470013 18.090003
6515   1 13.085980 53.154753 18.083346
10673  1 14.832544 54.308839 20.119535
12763  1 14.036553 55.470013 18.090003
18989  1 15.563452 53.154753 18.083346
389    1 16.564108 55.465002 22.151344
6614   1 13.148791 53.146902 22.150235
10772  1 14.865184 54.305074 24.180208
12862  1 14.086636 55.465002 22.151344
19088  1 15.626264 53.146902 22.150235
488    1 16.570579 55.465764 26.206120
6713   1 13.164286 53.145285 26.210333
10871  1 14.856411 54.308468 28.236936
12961  1 14.093107 55.465765 26.206120
19187  1 15.641758 53.145284 26.210333
587    1 16.539594 55.473596 30.261435
6812   1 13.139739 53.150855 30.267272
13060  1 14.062121 55.473596 30.261435
19286  1 15.617212 53.150855 30.267272
686    1 16.463273 55.486870 34.319977
6911   1 13.074726 53.157955 34.320408
10970  1 14.807364 54.318461 32.293729
13159  1 13.985801 55.486870 34.319977
19385  1 15.552198 53.157954 34.320408
785    1 16.324102 55.484144 38.371757
7010   1 12.960905 53.147348 38.364385
11069  1 14.711073 54.324107 36.346535
13258  1 13.846629 55.484144 38.371757
19484  1 15.438377 53.147348 38.364385
884    1 16.103974 55.426648 42.408258
11168  1 14.550791 54.294073 40.387251
13357  1 13.626501 55.426648 42.408258
19583  1 15.271098 53.100979 42.400882
983    1 15.914754 55.404402 46.437400
11267  1 14.356868 54.245608 44.422371
13456  1 13.437281 55.404402 46.437400
19682  1 15.114189 53.075303 46.436176
1082   1 15.791535 55.410418 50.460429
11366  1 14.212071 54.239744 48.451339
13555  1 13.314063 55.410418 50.460429
19781  1 14.993533 53.074210 50.466319
23841  1 16.689544 54.239744 48.451339
11465  1 14.106539 54.242522 52.478656
23940  1 16.584012 54.242522 52.478657
1181   1 15.706265 55.411095 54.490622
11564  1 14.026361 54.238025 56.512047
13654  1 13.228793 55.411095 54.490621
19880  1 14.896654 53.071573 54.497122
24039  1 16.503834 54.238025 56.512047
1280   1 15.644801 55.405112 58.529062
11663  1 13.967758 54.230755 60.551522
13753  1 13.167329 55.405112 58.529062
19979  1 14.820328 53.063333 58.532647
24138  1 16.445231 54.230755 60.551522
1379   1 15.602196 55.399458 62.572446
11762  1 13.928971 54.226281 64.595691
13852  1 13.124723 55.399458 62.572446
20078  1 14.766325 53.056653 62.573317
24237  1 16.406444 54.226281 64.595691
1478   1 15.575485 55.396604 66.619419
11861  1 13.906852 54.224481 68.643539
13951  1 13.098012 55.396604 66.619419
20177  1 14.732925 53.053853 66.618742
24336  1 16.384324 54.224481 68.643539
1577   1 15.561787 55.395330 70.668835
11960  1 13.898899 54.223142 72.693342
14050  1 13.084315 55.395330 70.668835
20276  1 14.716840 53.052658 70.667577
24435  1 16.376371 54.223142 72.693343
1676   1 15.559705 55.393896 74.718857
14149  1 13.082233 55.393896 74.718856
20375  1 14.716526 53.050518 74.717344
1775   1 15.570283 55.391353 78.766972
12059  1 13.904903 54.220588 76.742531
14248  1 13.092811 55.391353 78.766972
20474  1 14.733381 53.046247 78.764816
24534  1 16.382376 54.220589 76.742531
1874   1 15.598266 55.387685 82.810223
12158  1 13.927902 54.216384 80.788000
14347  1 13.120794 55.387685 82.810223
20573  1 14.772792 53.040506 82.806735
24633  1 16.405375 54.216384 80.788000
1973   1 15.654481 55.384753 86.846877
12257  1 13.975866 54.211787 84.827006
14446  1 13.177008 55.384753 86.846876
20672  1 14.848590 53.035605 86.839283
24732  1 16.453338 54.211787 84.827007
2072   1 15.782303 55.383798 90.866027
12356  1 14.071899 54.208625 88.853950
14545  1 13.304830 55.383798 90.866027
20771  1 14.989093 53.043779 90.866237
24831  1 16.549372 54.208626 88.853950
92     1 16.112436 55.452828  9.950202
12565  1 13.634963 55.452828  9.950202
18791  1 15.229164 53.112898  9.963396
12455  1 14.273689 54.232342 92.878190
24930  1 16.751162 54.232342 92.878190
2171   1 16.641777 58.946745 12.018692
4249   1 13.049616 56.644155 11.978194
14644  1 14.164305 58.946746 12.018692
16723  1 15.527088 56.644155 11.978194
2270   1 16.726057 58.940827 16.076313
4348   1 13.239992 56.629787 16.062369
8506   1 14.925362 57.787222 14.037659
14743  1 14.248585 58.940827 16.076313
16822  1 15.717464 56.629787 16.062369
6427   1 13.521131 60.096829 14.052440
18901  1 15.998603 60.096828 14.052440
2369   1 16.749932 58.941893 20.126010
4447   1 13.307867 56.624746 20.124476
8605   1 15.010539 57.783609 18.099668
14842  1 14.272460 58.941893 20.126010
16921  1 15.785340 56.624746 20.124476
6526   1 13.520126 60.099817 18.100609
19000  1 15.997599 60.099817 18.100609
2468   1 16.751174 58.943465 24.171970
4546   1 13.326539 56.624065 24.177343
8704   1 15.036414 57.783038 22.150935
14941  1 14.273701 58.943465 24.171970
17020  1 15.804012 56.624065 24.177343
6625   1 13.514980 60.102209 22.146525
19099  1 15.992453 60.102209 22.146525
2567   1 16.734918 58.947195 28.217030
4645   1 13.312330 56.628337 28.228507
8803   1 15.033616 57.785135 26.198734
15040  1 14.257445 58.947196 28.217030
17119  1 15.789803 56.628337 28.228507
6724   1 13.503463 60.104953 26.189941
19198  1 15.980936 60.104953 26.189941
8902   1 15.003337 57.791832 30.248294
6823   1 13.480420 60.109298 30.233543
19297  1 15.957892 60.109298 30.233543
2666   1 16.692178 58.955172 32.266202
4744   1 13.259835 56.639921 32.284724
9001   1 14.927203 57.806615 34.307756
15139  1 14.214705 58.955173 32.266202
17218  1 15.737308 56.639921 32.284724
6922   1 13.429021 60.117025 34.282534
19396  1 15.906493 60.117024 34.282533
2765   1 16.584637 58.972659 36.331270
4843   1 13.148338 56.654498 36.346659
9100   1 14.760126 57.817533 38.373469
15238  1 14.107165 58.972660 36.331270
17317  1 15.625810 56.654498 36.346658
7021   1 13.265962 60.136251 38.354094
19495  1 15.743435 60.136250 38.354094
2864   1 16.302688 58.960118 40.397263
9199   1 14.443003 57.749722 42.411150
15337  1 13.825215 58.960119 40.397263
17416  1 15.417673 56.627956 40.394390
19594  1 15.191732 60.073680 42.409571
2963   1 15.913837 58.903880 44.415678
9298   1 14.210613 57.739684 46.427470
15436  1 13.436365 58.903880 44.415678
17515  1 15.157440 56.571634 44.424412
19693  1 14.940774 60.085621 46.397927
21773  1 16.688086 57.739684 46.427470
3062   1 15.761656 58.918189 48.421783
9397   1 14.097062 57.750739 50.445406
15535  1 13.284183 58.918189 48.421783
17614  1 14.998938 56.575813 48.443033
19792  1 14.870082 60.091409 50.428843
21872  1 16.574535 57.750739 50.445406
3161   1 15.694408 58.921925 52.455398
15634  1 13.216936 58.921925 52.455397
17713  1 14.904187 56.581950 52.468384
3260   1 15.652342 58.919038 56.498715
9496   1 14.032303 57.751184 54.481071
15733  1 13.174870 58.919038 56.498715
17812  1 14.841024 56.578831 56.505628
19891  1 14.832743 60.090414 54.472521
21971  1 16.509776 57.751183 54.481071
3359   1 15.622509 58.914721 60.545325
9595   1 13.987960 57.746439 58.524145
15832  1 13.145036 58.914721 60.545325
17911  1 14.796508 56.573037 60.548684
19990  1 14.806560 60.086985 58.519698
22070  1 16.465433 57.746439 58.524146
3458   1 15.601751 58.911845 64.593649
9694   1 13.957068 57.741952 62.570456
15931  1 13.124278 58.911845 64.593649
18010  1 14.766775 56.569135 64.595110
22169  1 16.434541 57.741952 62.570456
20089  1 14.787333 60.084035 62.568148
3557   1 15.588138 58.910678 68.643325
9793   1 13.936904 57.739581 66.618935
16030  1 13.110665 58.910678 68.643325
18109  1 14.749018 56.567413 68.644002
22268  1 16.414377 57.739581 66.618935
20188  1 14.773534 60.082611 66.617569
3656   1 15.580144 58.910401 72.693700
9892   1 13.925287 57.738662 70.668922
16129  1 13.102671 58.910401 72.693700
18208  1 14.741184 56.566478 72.694190
22367  1 16.402760 57.738662 70.668922
20287  1 14.763804 60.082380 70.667744
9991   1 13.920984 57.738077 74.719214
22466  1 16.398457 57.738077 74.719214
20386  1 14.757063 60.082743 74.717882
3755   1 15.577080 58.910313 76.743520
10090  1 13.924310 57.737192 78.768024
16228  1 13.099608 58.910313 76.743520
18307  1 14.742879 56.565168 76.743841
22565  1 16.401782 57.737192 78.768024
20485  1 14.752685 60.083405 78.766631
3854   1 15.579450 58.910202 80.791011
10189  1 13.938015 57.735884 82.812979
16327  1 13.101978 58.910202 80.791010
18406  1 14.756203 56.563055 80.790548
22664  1 16.415487 57.735884 82.812979
20584  1 14.750435 60.084516 82.812044
3953   1 15.589738 58.910117 84.833455
10288  1 13.969858 57.733681 86.850281
16426  1 13.112266 58.910117 84.833455
18505  1 14.787604 56.560152 84.831327
22763  1 16.447330 57.733681 86.850281
20683  1 14.750255 60.086603 86.849942
4052   1 15.614872 58.908607 88.863191
10387  1 14.026828 57.737813 90.885097
16525  1 13.137399 58.908607 88.863191
18604  1 14.850047 56.559627 88.866740
22862  1 16.504301 57.737813 90.885097
20782  1 14.751685 60.090151 90.857086
8407   1 14.562150 57.784703  9.950025
4151   1 15.556152 58.923718 92.871905
16624  1 13.078679 58.923718 92.871905
18703  1 15.049386 56.564997 92.873931
6328   1 13.520227 60.092527  9.982023
18802  1 15.997699 60.092527  9.982023
10486  1 15.354584 61.243135 12.013498
10585  1 15.271085 61.256096 16.070925
12576  1 14.594537 62.406603 14.027494
10684  1 15.241662 61.260224 20.119874
12675  1 14.508044 62.416195 18.088432
10783  1 15.224689 61.263536 24.164460
12774  1 14.472482 62.421551 22.137766
301    1 16.949955 62.421551 22.137766
10882  1 15.208903 61.266650 28.206747
12873  1 14.453418 62.425138 26.182007
400    1 16.930891 62.425138 26.182007
12972  1 14.441299 62.427707 30.224282
499    1 16.918772 62.427707 30.224282
10981  1 15.186555 61.270500 32.249618
13071  1 14.432852 62.429738 34.267716
598    1 16.910324 62.429738 34.267715
11080  1 15.135541 61.275507 36.297404
13170  1 14.430182 62.433102 38.312193
697    1 16.907655 62.433102 38.312193
795    1 13.177331 62.431748 42.380354
11179  1 14.811124 61.264741 40.369521
13269  1 15.654803 62.431748 42.380354
894    1 13.169569 62.431328 46.379249
11278  1 14.101496 61.254790 44.376025
13368  1 15.647041 62.431328 46.379249
23753  1 16.578968 61.254790 44.376025
993    1 13.162472 62.430279 50.420989
11377  1 14.032296 61.260599 48.402326
13467  1 15.639945 62.430278 50.420989
23852  1 16.509769 61.260599 48.402326
11476  1 14.004117 61.260601 52.446122
23951  1 16.481589 61.260601 52.446122
13566  1 13.154817 62.428682 54.468304
1093   1 15.632290 62.428682 54.468304
11575  1 13.984788 61.258341 56.493800
24050  1 16.462260 61.258341 56.493801
13665  1 13.146889 62.426972 58.517025
1192   1 15.624361 62.426972 58.517026
11674  1 13.969638 61.255852 60.542514
24149  1 16.447110 61.255851 60.542514
13764  1 13.139149 62.425869 62.566112
1291   1 15.616622 62.425869 62.566112
11773  1 13.957675 61.254401 64.591777
24248  1 16.435148 61.254401 64.591777
13863  1 13.131583 62.425695 66.615588
1390   1 15.609055 62.425695 66.615588
11872  1 13.948051 61.254141 68.641636
24347  1 16.425524 61.254141 68.641636
13962  1 13.123664 62.426381 70.665364
1489   1 15.601136 62.426381 70.665364
11971  1 13.939777 61.254719 72.691705
24446  1 16.417250 61.254719 72.691705
14061  1 13.114476 62.427801 74.714724
1588   1 15.591949 62.427801 74.714724
14160  1 13.102464 62.429994 78.762314
1687   1 15.579936 62.429994 78.762314
12070  1 13.931830 61.255861 76.740965
24545  1 16.409302 61.255861 76.740966
14259  1 13.084414 62.433417 82.806085
1786   1 15.561887 62.433417 82.806085
12169  1 13.922881 61.257636 80.787838
24644  1 16.400353 61.257636 80.787838
1885   1 15.529984 62.439645 86.842403
12268  1 13.910239 61.260727 84.829727
24743  1 16.387711 61.260727 84.829728
1984   1 15.476662 62.442617 90.876472
12367  1 13.886727 61.267795 88.859006
24842  1 16.364199 61.267795 88.859006
12477  1 14.952242 62.401225  9.940518
12466  1 13.948936 61.261259 92.867204
24941  1 16.426408 61.261259 92.867204
2083   1 15.996799  2.844213 11.957648
4162   1 17.513223  0.512798 11.964083
14557  1 18.474271  2.844213 11.957648
2182   1 15.825552  2.846070 16.024614
4261   1 17.325765  0.533908 16.046871
8419   1 19.133343  1.679644 13.994301
14656  1 18.303024  2.846070 16.024613
20893  1 16.655871  1.679644 13.994301
2281   1 15.733847  2.860011 20.092696
4360   1 17.253464  0.544028 20.106867
8518   1 19.007129  1.696566 18.068836
14755  1 18.211320  2.860011 20.092696
20992  1 16.529657  1.696566 18.068836
2380   1 15.690739  2.868233 24.149491
4459   1 17.220704  0.549655 24.156250
8617   1 18.949323  1.706142 22.127024
14854  1 18.168212  2.868234 24.149491
21091  1 16.471851  1.706142 22.127024
2479   1 15.679762  2.871124 28.200886
4558   1 17.206889  0.552644 28.201057
8716   1 18.924806  1.711045 26.176760
14953  1 18.157235  2.871124 28.200886
21190  1 16.447334  1.711045 26.176760
8815   1 18.924257  1.712094 30.223973
21289  1 16.446784  1.712094 30.223973
2578   1 15.703103  2.868091 32.253943
4657   1 17.209150  0.553348 32.245398
8914   1 18.958630  1.708711 34.275093
15052  1 18.180576  2.868090 32.253943
21388  1 16.481158  1.708711 34.275093
2677   1 15.795448  2.855036 36.321382
4756   1 17.246218  0.552546 36.293863
9013   1 19.107306  1.693907 38.347990
15151  1 18.272921  2.855036 36.321382
21487  1 16.629834  1.693907 38.347990
2776   1 16.059998  2.868485 40.389555
4855   1 17.549539  0.563273 40.366848
15250  1 18.537470  2.868485 40.389555
21586  1 17.160706  1.755782 42.404209
17427  1 15.767227  0.574720 44.373655
2875   1 16.433582  2.925347 44.409735
4954   1 18.244699  0.574720 44.373655
15349  1 18.911054  2.925347 44.409736
21685  1 17.399006  1.743308 46.394329
17526  1 15.822341  0.567539 48.400777
2974   1 16.571360  2.909882 48.417076
5053   1 18.299814  0.567539 48.400777
15448  1 19.048833  2.909882 48.417076
21784  1 17.455000  1.735564 50.425919
5152   1 15.835720  0.564888 52.444691
3074   1 19.100775  2.903623 52.451115
15547  1 16.623303  2.903623 52.451115
17626  1 18.313192  0.564888 52.444691
5251   1 15.839289  0.563653 56.492323
3173   1 19.126758  2.902999 56.494338
9409   1 17.476843  1.733386 54.469648
15646  1 16.649286  2.902999 56.494338
17725  1 18.316761  0.563654 56.492323
5350   1 15.838673  0.563184 60.540877
3272   1 19.140616  2.904369 60.540505
9508   1 17.487029  1.733382 58.516635
15745  1 16.663143  2.904369 60.540505
17824  1 18.316146  0.563184 60.540878
5449   1 15.835400  0.563356 64.589816
3371   1 19.146082  2.906090 64.587898
9607   1 17.490711  1.734162 62.564628
15844  1 16.668610  2.906090 64.587898
17923  1 18.312872  0.563356 64.589816
5548   1 15.829727  0.564191 68.639116
3470   1 19.144479  2.908012 68.635976
9706   1 17.489382  1.735319 66.613196
15943  1 16.667007  2.908012 68.635976
18022  1 18.307200  0.564191 68.639116
5647   1 15.821211  0.565765 72.688317
3569   1 19.135960  2.910628 72.683914
9805   1 17.483351  1.737022 70.661996
16042  1 16.658487  2.910628 72.683914
18121  1 18.298684  0.565765 72.688317
9904   1 17.471935  1.739598 74.710062
5746   1 15.808569  0.568215 76.736261
3668   1 19.119182  2.914457 76.730181
10003  1 17.452906  1.743385 78.755719
16141  1 16.641709  2.914457 76.730181
18220  1 18.286041  0.568215 76.736262
3767   1 19.090360  2.919860 80.772613
5845   1 15.788896  0.571851 80.781124
10102  1 17.421082  1.748815 82.796670
16240  1 16.612888  2.919860 80.772613
18319  1 18.266368  0.571851 80.781125
3866   1 19.041396  2.926577 84.809143
5944   1 15.755573  0.577480 84.820306
10201  1 17.365714  1.755310 86.831561
16339  1 16.563924  2.926576 84.809143
18418  1 18.233045  0.577480 84.820306
3965   1 18.949557  2.934346 88.834540
6043   1 15.695649  0.583287 88.854521
10300  1 17.243710  1.762757 90.849825
16438  1 16.472085  2.934346 88.834540
18517  1 18.173121  0.583288 88.854521
8320   1 19.400932  1.700930  9.933013
20794  1 16.923460  1.700929  9.933013
4064   1 18.757115  2.918268 92.857904
16537  1 16.279643  2.918267 92.857904
18616  1 17.981021  0.585563 92.861405
10399  1 19.387535  5.183193 11.964903
22873  1 16.910063  5.183192 11.964904
114    1 16.047006  6.337763 13.994692
6340   1 17.607121  4.004506 13.988057
10498  1 19.243214  5.168704 16.020163
12588  1 18.524478  6.337763 13.994692
22972  1 16.765742  5.168704 16.020163
213    1 15.939004  6.334045 18.052852
6439   1 17.485373  4.012030 18.054530
10597  1 19.153685  5.177532 20.084669
12687  1 18.416477  6.334045 18.052852
23071  1 16.676213  5.177531 20.084669
312    1 15.874245  6.342413 22.115555
6538   1 17.418328  4.023518 22.118398
10696  1 19.107575  5.186407 24.146248
12786  1 18.351717  6.342414 22.115555
23170  1 16.630102  5.186407 24.146248
411    1 15.848169  6.348006 26.176518
6637   1 17.391434  4.029432 26.175054
10795  1 19.099577  5.188754 28.204491
12885  1 18.325641  6.348006 26.176518
23269  1 16.622105  5.188754 28.204491
510    1 15.861772  6.345740 30.237504
6736   1 17.400287  4.028545 30.230384
12984  1 18.339244  6.345740 30.237503
609    1 15.923260  6.337109 34.300553
6835   1 17.459900  4.018474 34.293622
10894  1 19.134565  5.182370 32.265778
13083  1 18.400733  6.337109 34.300553
23368  1 16.657092  5.182370 32.265778
708    1 16.048635  6.343131 38.356205
6934   1 17.612258  4.011228 38.362219
10993  1 19.231395  5.172099 36.331443
13182  1 18.526107  6.343132 38.356204
23467  1 16.753923  5.172099 36.331444
807    1 16.253626  6.401585 42.396111
7033   1 17.912750  4.079173 42.402650
11092  1 19.424163  5.200161 40.382631
13281  1 18.731099  6.401586 42.396111
23566  1 16.946691  5.200161 40.382631
19605  1 15.653039  4.089075 46.420662
906    1 16.428053  6.424107 46.427591
7132   1 18.130512  4.089075 46.420662
13380  1 18.905526  6.424107 46.427591
23665  1 17.191857  5.257208 44.415203
19704  1 15.751425  4.076266 50.439554
1005   1 16.535754  6.416675 50.451842
7231   1 18.228897  4.076266 50.439554
13479  1 19.013226  6.416675 50.451842
23764  1 17.335435  5.252219 48.435351
11389  1 17.414324  5.243705 52.461344
7330   1 15.800165  4.072698 54.475401
1105   1 19.081752  6.412898 54.482367
11488  1 17.460777  5.243263 56.498529
13578  1 16.604280  6.412898 54.482367
19804  1 18.277637  4.072698 54.475401
7429   1 15.828092  4.073969 58.518165
1204   1 19.126097  6.415315 58.520469
11587  1 17.488891  5.246127 60.540952
13677  1 16.648625  6.415315 58.520469
19903  1 18.305565  4.073970 58.518166
7528   1 15.843244  4.076390 62.563633
1303   1 19.152647  6.419064 62.562744
11686  1 17.503240  5.249111 64.585957
13776  1 16.675175  6.419064 62.562744
20002  1 18.320717  4.076390 62.563633
7627   1 15.848309  4.078727 66.610514
1402   1 19.164354  6.422239 66.607560
11785  1 17.505986  5.251906 68.632424
13875  1 16.686882  6.422239 66.607560
20101  1 18.325781  4.078727 66.610514
7726   1 15.844427  4.081377 70.657969
1501   1 19.163082  6.425572 70.653669
11884  1 17.497944  5.255448 72.679066
13974  1 16.685609  6.425572 70.653669
20200  1 18.321899  4.081377 70.657969
7825   1 15.831293  4.085115 74.704609
1600   1 19.149067  6.430290 74.699274
14073  1 16.671595  6.430290 74.699273
20299  1 18.308766  4.085115 74.704609
1699   1 19.120180  6.436942 78.742058
7924   1 15.806474  4.090461 78.748376
11983  1 17.478021  5.260581 76.723944
14172  1 16.642708  6.436942 78.742058
20398  1 18.283946  4.090461 78.748376
1798   1 19.070840  6.444823 82.779675
8023   1 15.764164  4.097305 82.786987
12082  1 17.442364  5.267440 80.764722
14271  1 16.593368  6.444823 82.779675
20497  1 18.241637  4.097305 82.786987
1897   1 18.991075  6.449951 86.812211
8122   1 15.690718  4.104913 86.817249
12181  1 17.382254  5.275141 84.798903
14370  1 16.513603  6.449950 86.812211
20596  1 18.168190  4.104914 86.817249
1996   1 18.865928  6.437352 90.846545
12280  1 17.281850  5.277921 88.827919
14469  1 16.388455  6.437352 90.846545
20695  1 18.035728  4.102837 90.842992
15     1 16.208543  6.380485  9.949044
6241   1 17.807218  4.041924  9.939286
12489  1 18.686015  6.380485  9.949044
12379  1 17.116118  5.249043 92.862377
2094   1 16.214589  9.859043 11.990265
4173   1 17.805701  7.521874 11.976475
14568  1 18.692062  9.859044 11.990265
2193   1 16.102551  9.830780 16.038837
4272   1 17.680972  7.498186 16.026812
8430   1 19.424273  8.673169 14.006704
14667  1 18.580024  9.830780 16.038837
20904  1 16.946801  8.673168 14.006704
2292   1 16.028786  9.826620 20.093598
4371   1 17.599906  7.499682 20.085893
8529   1 19.327726  8.661557 18.060069
14766  1 18.506259  9.826620 20.093597
21003  1 16.850253  8.661557 18.060069
2391   1 15.989088  9.830546 24.151955
4470   1 17.556516  7.506393 24.147411
8628   1 19.268774  8.665221 22.119112
14865  1 18.466560  9.830546 24.151955
21102  1 16.791302  8.665221 22.119112
2490   1 15.982943  9.832291 28.211021
4569   1 17.550471  7.508077 28.208680
8727   1 19.244933  8.669420 26.179779
14964  1 18.460416  9.832291 28.211021
21201  1 16.767461  8.669420 26.179779
8826   1 19.257756  8.667993 30.240203
21300  1 16.780283  8.667993 30.240203
2589   1 16.012159  9.830601 32.267801
4668   1 17.585353  7.502821 32.270132
8925   1 19.310780  8.664877 34.297367
15063  1 18.489631  9.830601 32.267801
21399  1 16.833308  8.664877 34.297367
2688   1 16.081007  9.835486 36.317865
4767   1 17.668541  7.501100 36.327140
9024   1 19.412268  8.678512 38.345367
15162  1 18.558480  9.835486 36.317865
21498  1 16.934796  8.678512 38.345367
2787   1 16.197158  9.865993 40.359620
4866   1 17.814954  7.533122 40.371731
9123   1 19.565732  8.726376 42.385562
15261  1 18.674631  9.865993 40.359620
21597  1 17.088260  8.726376 42.385562
2886   1 16.337712  9.907048 44.400066
4965   1 17.994314  7.582649 44.410004
15360  1 18.815185  9.907048 44.400066
21696  1 17.230618  8.752822 46.423694
2985   1 16.453321  9.919067 48.437520
5064   1 18.124035  7.588232 48.440975
15459  1 18.930794  9.919066 48.437520
21795  1 17.335477  8.752998 50.455403
5163   1 15.735675  7.583295 52.469147
3085   1 19.022600  9.920019 52.470597
15558  1 16.545128  9.920019 52.470597
17637  1 18.213147  7.583295 52.469147
5262   1 15.798231  7.584103 56.502563
3184   1 19.096343  9.924468 56.504039
9420   1 17.414739  8.752553 54.486679
15657  1 16.618870  9.924468 56.504039
17736  1 18.275704  7.584103 56.502563
5361   1 15.839791  7.588442 60.541324
3283   1 19.149952  9.930924 60.540529
9519   1 17.472938  8.757034 58.521911
15756  1 16.672480  9.930924 60.540529
17835  1 18.317263  7.588442 60.541324
5460   1 15.863092  7.592332 64.583740
3382   1 19.182112  9.935436 64.580881
9618   1 17.510467  8.762018 62.561334
15855  1 16.704639  9.935436 64.580881
17934  1 18.340565  7.592332 64.583740
5559   1 15.870593  7.595596 68.628629
3481   1 19.194854  9.938609 68.624693
9717   1 17.529065  8.765579 66.604254
15954  1 16.717381  9.938609 68.624693
18033  1 18.348066  7.595596 68.628629
5658   1 15.863764  7.599740 72.674393
3580   1 19.190173  9.942809 72.670401
9816   1 17.531039  8.769121 70.649446
16053  1 16.712700  9.942809 72.670401
18132  1 18.341236  7.599740 72.674394
9915   1 17.517249  8.774411 74.694895
3679   1 19.168170  9.949442 76.715683
5757   1 15.842042  7.605875 76.718805
10014  1 17.486245  8.781923 78.738182
16152  1 16.690697  9.949441 76.715682
18231  1 18.319514  7.605875 76.718805
3778   1 19.126758  9.957570 80.758471
5856   1 15.802140  7.613763 80.759482
10113  1 17.434032  8.789660 82.777742
16251  1 16.649285  9.957570 80.758471
18330  1 18.279613  7.613763 80.759482
3877   1 19.061724  9.962261 84.798710
5955   1 15.737595  7.620462 84.795571
10212  1 17.354144  8.790792 86.815166
16350  1 16.584251  9.962261 84.798710
18429  1 18.215067  7.620462 84.795571
3976   1 18.966577  9.952409 88.839459
10311  1 17.237761  8.770548 90.855415
16449  1 16.489104  9.952409 88.839459
18528  1 18.116269  7.616359 88.830908
8331   1 19.562933  8.717064  9.961144
20805  1 17.085460  8.717063  9.961144
4075   1 18.835918  9.913640 92.883347
16548  1 16.358446  9.913640 92.883347
18627  1 17.971810  7.580893 92.871464
10410  1 19.571786 12.194790 12.005278
22884  1 17.094313 12.194790 12.005278
4184   1 17.967985 14.529432 12.020658
125    1 16.237128 13.343831 14.036436
6351   1 17.835280 11.008678 14.021154
10509  1 19.466862 12.164843 16.053040
12599  1 18.714601 13.343831 14.036436
22983  1 16.989389 12.164842 16.053040
4283   1 17.865376 14.499946 16.067407
224    1 16.151663 13.326427 18.084651
6450   1 17.746197 10.992663 18.071710
10608  1 19.397434 12.157674 20.104097
12698  1 18.629135 13.326427 18.084650
23082  1 16.919962 12.157674 20.104097
4382   1 17.797329 14.492461 20.114625
323    1 16.099147 13.325149 22.134779
6549   1 17.691725 10.992802 22.126494
10707  1 19.359653 12.159981 24.157657
12797  1 18.576619 13.325149 22.134778
23181  1 16.882180 12.159981 24.157657
4481   1 17.759544 14.494668 24.162780
422    1 16.075952 13.328365 26.186022
6648   1 17.669012 10.996024 26.183243
10806  1 19.351821 12.162520 28.211563
12896  1 18.553424 13.328366 26.186022
23280  1 16.874348 12.162520 28.211563
4580   1 17.749389 14.498290 28.211017
521    1 16.081353 13.331013 30.236085
6747   1 17.678338 10.996647 30.239010
12995  1 18.558826 13.331013 30.236085
620    1 16.117135 13.335929 34.281971
6846   1 17.721975 10.998460 34.290029
10905  1 19.374819 12.164182 32.262576
13094  1 18.594607 13.335929 34.281971
23379  1 16.897347 12.164182 32.262576
4679   1 17.767073 14.502221 32.256920
719    1 16.187174 13.352123 38.322662
6945   1 17.805436 11.014890 38.333633
11004  1 19.432040 12.172647 36.307658
13193  1 18.664646 13.352123 38.322662
23478  1 16.954567 12.172647 36.307658
4778   1 17.815290 14.511839 36.298457
818    1 16.288090 13.382170 42.362038
7044   1 17.927202 11.053298 42.373718
11103  1 19.527345 12.199303 40.347693
13292  1 18.765563 13.382170 42.362038
23577  1 17.049872 12.199303 40.347693
4877   1 17.895786 14.533669 40.336994
917    1 16.393799 13.404467 46.403431
7143   1 18.047644 11.078916 46.414575
11202  1 19.643264 12.232283 44.388483
13391  1 18.871271 13.404467 46.403431
23676  1 17.165791 12.232283 44.388483
4976   1 17.995476 14.559033 44.376988
1016   1 16.490823 13.414406 50.443706
7242   1 18.147793 11.085211 50.451758
13490  1 18.968295 13.414406 50.443706
23775  1 17.270892 12.246849 48.429061
5075   1 18.093775 14.573202 48.418433
11400  1 17.363909 12.253481 52.466424
17648  1 18.189274 14.584163 52.458575
1116   1 19.059661 13.425176 54.481316
11499  1 17.446644 12.263361 56.501771
13589  1 16.582188 13.425176 54.481316
19815  1 18.233372 11.090125 54.486177
17747  1 18.281602 14.600467 56.496139
7440   1 15.825449 11.098365 58.521022
5372   1 15.879791 14.614123 60.532647
1215   1 19.139890 13.438661 58.517191
11598  1 17.511193 12.272981 60.537712
13688  1 16.662418 13.438661 58.517191
19914  1 18.302921 11.098365 58.521022
17846  1 18.357264 14.614123 60.532647
7539   1 15.873305 11.104823 62.558736
5471   1 15.929562 14.619158 64.572180
1314   1 19.197742 13.446930 62.554532
11697  1 17.552077 12.277911 64.577051
13787  1 16.720269 13.446930 62.554532
20013  1 18.350777 11.104823 62.558736
17945  1 18.407034 14.619157 64.572180
7638   1 15.899017 11.108267 66.600465
1413   1 19.230871 13.449678 66.596136
11796  1 17.570623 12.280302 68.620672
13886  1 16.753398 13.449678 66.596136
20112  1 18.376490 11.108267 66.600465
5570   1 15.954602 14.619948 68.616690
18044  1 18.432074 14.619948 68.616691
7737   1 15.905014 11.111360 70.645547
1512   1 19.241773 13.451514 70.642116
11895  1 17.569145 12.283832 72.667371
13985  1 16.764300 13.451514 70.642116
20211  1 18.382487 11.111360 70.645547
5669   1 15.957419 14.621980 72.665364
18143  1 18.434892 14.621980 72.665364
1611   1 19.232140 13.455996 74.690751
7836   1 15.892689 11.116612 74.692013
14084  1 16.754668 13.455996 74.690751
20310  1 18.370162 11.116612 74.692013
1710   1 19.202036 13.463459 78.739854
7935   1 15.861484 11.124343 78.737560
11994  1 17.548322 12.290316 76.714940
14183  1 16.724564 13.463459 78.739854
20409  1 18.338957 11.124343 78.737560
5768   1 15.938888 14.627726 76.716197
18242  1 18.416361 14.627726 76.716198
1809   1 19.150094 13.469791 82.787921
8034   1 15.808982 11.131286 82.780959
12093  1 17.507156 12.298199 80.761439
14282  1 16.672621 13.469791 82.787921
20508  1 18.286455 11.131286 82.780960
5867   1 15.898614 14.635374 80.767190
18341  1 18.376086 14.635374 80.767190
1908   1 19.072766 13.465469 86.834805
12192  1 17.442858 12.301183 84.806443
14381  1 16.595293 13.465469 86.834805
20607  1 18.208127 11.128921 86.823368
18440  1 18.312114 14.637813 84.816993
2007   1 18.965115 13.437834 90.881237
12291  1 17.350300 12.287637 88.851313
14480  1 16.487643 13.437834 90.881237
20706  1 18.097887 11.103881 90.867369
18539  1 18.219924 14.622830 88.865120
26     1 16.356632 13.386787  9.989790
6252   1 17.960728 11.052349  9.974944
12500  1 18.834104 13.386787  9.989790
12390  1 17.226905 12.247007 92.897075
18638  1 18.097812 14.580912 92.911870
24865  1 19.704378 12.247007 92.897076
2105   1 16.357608 16.863289 12.035562
6263   1 18.094900 18.054054 10.019661
8342   1 19.704990 15.720650 10.004947
14579  1 18.835080 16.863289 12.035562
20816  1 17.227517 15.720649 10.004946
2204   1 16.252994 16.836293 16.080417
6362   1 17.968375 18.013930 14.064784
8441   1 19.585089 15.678767 14.051347
14678  1 18.730467 16.836293 16.080417
20915  1 17.107616 15.678767 14.051347
2303   1 16.184081 16.830850 20.123257
6461   1 17.880742 18.001594 18.106330
8540   1 19.499872 15.662658 18.096751
14777  1 18.661554 16.830850 20.123257
21014  1 17.022399 15.662657 18.096750
2402   1 16.145286 16.834063 24.166216
6560   1 17.826941 18.002980 22.146539
8639   1 19.447195 15.661996 22.141929
14876  1 18.622758 16.834063 24.166216
21113  1 16.969722 15.661996 22.141929
2501   1 16.132973 16.838632 28.209754
6659   1 17.801143 18.007759 26.187903
8738   1 19.422618 15.665915 26.187687
14975  1 18.610446 16.838632 28.209754
21212  1 16.945145 15.665915 26.187687
6758   1 17.800450 18.012596 30.229746
8837   1 19.424540 15.670034 30.232787
21311  1 16.947067 15.670034 30.232787
2600   1 16.146441 16.843682 32.252076
6857   1 17.825009 18.019036 34.269902
8936   1 19.454112 15.676336 34.274956
15074  1 18.623913 16.843682 32.252076
21410  1 16.976639 15.676336 34.274956
2699   1 16.187522 16.852860 36.291414
6956   1 17.876661 18.030526 38.307428
9035   1 19.513981 15.690567 38.313598
15173  1 18.664995 16.852860 36.291414
21509  1 17.036509 15.690567 38.313597
2798   1 16.257041 16.869607 40.328633
7055   1 17.952903 18.046190 42.344137
9134   1 19.600622 15.713055 42.351740
15272  1 18.734514 16.869607 40.328634
21608  1 17.123150 15.713055 42.351740
2897   1 16.345769 16.887703 44.367008
7154   1 18.042721 18.057987 46.382544
9233   1 19.696652 15.730572 46.392220
15371  1 18.823241 16.887703 44.367008
21707  1 17.219179 15.730572 46.392220
2996   1 16.440430 16.899205 48.407596
7253   1 18.140980 18.067796 50.423175
9332   1 19.793008 15.741658 50.433581
15470  1 18.917903 16.899205 48.407596
21806  1 17.315536 15.741658 50.433581
3096   1 19.018312 16.912683 52.448925
15569  1 16.540840 16.912683 52.448925
3195   1 19.123075 16.935974 56.488246
9431   1 17.414503 15.757906 54.473521
15668  1 16.645602 16.935974 56.488246
19826  1 18.250895 18.088675 54.464298
3294   1 19.211597 16.954143 60.525805
9530   1 17.506899 15.777730 58.510805
15767  1 16.734124 16.954143 60.525805
19925  1 18.359069 18.115769 58.502786
7550   1 15.962097 18.127187 62.542254
3393   1 19.270997 16.958585 64.566668
9629   1 17.575285 15.787846 62.548813
15866  1 16.793525 16.958585 64.566667
20024  1 18.439570 18.127187 62.542254
3492   1 19.303378 16.956837 68.613141
7649   1 16.012068 18.125957 66.587180
9728   1 17.616388 15.789132 66.591476
15965  1 16.825905 16.956837 68.613141
20123  1 18.489541 18.125957 66.587180
3591   1 19.311508 16.956584 72.664350
7748   1 16.035621 18.122670 70.637542
9827   1 17.633160 15.788819 70.639316
16064  1 16.834036 16.956583 72.664350
20222  1 18.513093 18.122670 70.637542
7847   1 16.034340 18.123634 74.691735
9926   1 17.627284 15.791820 74.690813
20321  1 18.511813 18.123634 74.691735
3690   1 19.296041 16.961141 76.718582
7946   1 16.008081 18.129995 78.748491
10025  1 17.598924 15.798790 78.743993
16163  1 16.818568 16.961140 76.718581
20420  1 18.485553 18.129996 78.748491
3789   1 19.256622 16.968867 80.774101
10124  1 17.547248 15.805280 82.796959
16262  1 16.779150 16.968867 80.774101
20519  1 18.433407 18.137591 82.806165
3888   1 19.191732 16.972369 84.828690
10223  1 17.469298 15.801046 86.847994
16361  1 16.714259 16.972369 84.828690
20618  1 18.352692 18.135773 86.861538
3987   1 19.097096 16.958375 88.879837
10322  1 17.360291 15.772675 90.896155
16460  1 16.619623 16.958375 88.879837
20717  1 18.237900 18.108678 90.911357
4086   1 18.970144 16.915458 92.926987
16559  1 16.492671 16.915457 92.926987
37     1 16.479494 20.386934 10.033192
4195   1 18.063533 21.530047 12.060198
10421  1 19.693955 19.196661 12.049120
12511  1 18.956967 20.386934 10.033192
22895  1 17.216482 19.196660 12.049120
136    1 16.339572 20.350127 14.075416
4294   1 17.944302 21.515727 16.095971
10520  1 19.583465 19.174519 16.090588
12610  1 18.817044 20.350127 14.075416
22994  1 17.105992 19.174519 16.090588
235    1 16.248153 20.343775 18.111692
4393   1 17.873146 21.518445 20.128943
10619  1 19.512712 19.172858 20.128456
12709  1 18.725626 20.343775 18.111693
23093  1 17.035240 19.172858 20.128456
334    1 16.194127 20.347627 22.147615
4492   1 17.835534 21.523688 24.165611
10718  1 19.473339 19.177404 24.167221
12808  1 18.671600 20.347627 22.147615
23192  1 16.995866 19.177403 24.167220
433    1 16.168563 20.352780 26.186551
4591   1 17.822495 21.528345 28.205697
10817  1 19.459845 19.182390 28.207914
12907  1 18.646036 20.352780 26.186551
23291  1 16.982372 19.182390 28.207914
532    1 16.166391 20.357549 30.227231
13006  1 18.643863 20.357549 30.227231
631    1 16.186613 20.363352 34.267195
4690   1 17.830289 21.533008 32.246640
10916  1 19.470075 19.187601 32.248602
13105  1 18.664086 20.363352 34.267195
23390  1 16.992603 19.187601 32.248602
730    1 16.230731 20.372040 38.304911
4789   1 17.859283 21.539325 36.286245
11015  1 19.505006 19.195502 36.287255
13204  1 18.708203 20.372040 38.304912
23489  1 17.027534 19.195502 36.287255
829    1 16.298153 20.381864 42.340645
4888   1 17.911010 21.547326 40.323311
11114  1 19.565523 19.207472 40.323756
13303  1 18.775625 20.381864 42.340645
23588  1 17.088051 19.207472 40.323756
928    1 16.383570 20.387506 46.376134
4987   1 17.984323 21.552710 44.357912
11213  1 19.646252 19.218747 44.360065
13402  1 18.861043 20.387506 46.376134
23687  1 17.168779 19.218747 44.360065
1027   1 16.486077 20.393570 50.414052
5086   1 18.077716 21.553835 48.392131
11312  1 19.739702 19.225736 48.398209
13501  1 18.963550 20.393570 50.414052
23786  1 17.262230 19.225736 48.398208
11411  1 17.370602 19.239525 52.439020
17659  1 18.197547 21.565082 52.430209
23886  1 19.848075 19.239525 52.439021
1127   1 19.089241 20.417745 54.454953
11510  1 17.492806 19.270314 56.479314
13600  1 16.611769 20.417746 54.454953
17758  1 18.345248 21.604006 56.470427
1226   1 19.219362 20.453166 58.494211
11609  1 17.597595 19.293015 60.518126
13699  1 16.741889 20.453166 58.494210
17857  1 18.471752 21.630601 60.510890
1325   1 19.314610 20.464505 62.536088
5482   1 16.077462 21.629326 64.558467
11708  1 17.667985 19.295587 64.561516
13798  1 16.837137 20.464505 62.536088
17956  1 18.554934 21.629326 64.558468
1424   1 19.374495 20.459443 66.584600
5581   1 16.126480 21.619997 68.611475
11807  1 17.708554 19.290351 68.610909
13897  1 16.897023 20.459443 66.584600
18055  1 18.603953 21.619996 68.611475
1523   1 19.405252 20.452738 70.637631
5680   1 16.146363 21.614346 72.666244
11906  1 17.722696 19.287305 72.664481
13996  1 16.927779 20.452738 70.637630
18154  1 18.623836 21.614346 72.666245
1622   1 19.408965 20.451483 74.693200
14095  1 16.931492 20.451483 74.693200
1721   1 19.385412 20.456985 78.751638
5779   1 16.138675 21.615756 76.722673
12005  1 17.710897 19.290350 76.721040
14194  1 16.907939 20.456984 78.751638
18253  1 18.616147 21.615757 76.722673
1820   1 19.332674 20.466165 82.813122
5878   1 16.102157 21.623594 80.782989
12104  1 17.672343 19.298368 80.780151
14293  1 16.855201 20.466165 82.813122
18352  1 18.579630 21.623594 80.782989
1919   1 19.247069 20.469111 86.873677
12203  1 17.605167 19.304537 84.839604
14392  1 16.769597 20.469110 86.873676
18451  1 18.509993 21.633241 84.847027
2018   1 19.121211 20.446116 90.926111
12302  1 17.504813 19.294336 88.894414
14491  1 16.643739 20.446116 90.926111
18550  1 18.400403 21.630171 88.907440
12401  1 17.365912 19.250907 92.941747
18649  1 18.239984 21.587711 92.955576
24876  1 19.843385 19.250908 92.941747
2116   1 16.413150 23.864909 12.066598
6274   1 18.165471 25.050129 10.052158
8353   1 19.809829 22.719022 10.044644
14590  1 18.890623 23.864910 12.066598
20827  1 17.332356 22.719022 10.044644
2215   1 16.286471 23.861350 16.093895
6373   1 17.977556 25.033010 14.077662
8452   1 19.648786 22.688917 14.081033
14689  1 18.763943 23.861350 16.093895
20926  1 17.171314 22.688917 14.081033
2314   1 16.220941 23.866969 20.124549
6472   1 17.892312 25.039205 18.104025
8551   1 19.555441 22.689760 18.111057
14788  1 18.698414 23.866969 20.124549
21025  1 17.077968 22.689760 18.111057
2413   1 16.189091 23.871671 24.162178
6571   1 17.851910 25.044019 22.140233
8650   1 19.504941 22.695098 22.144998
14887  1 18.666563 23.871671 24.162178
21124  1 17.027468 22.695098 22.144998
2512   1 16.178246 23.875396 28.203466
6670   1 17.834338 25.047609 26.181029
8749   1 19.482135 22.699753 26.184005
14986  1 18.655719 23.875396 28.203467
21223  1 17.004663 22.699753 26.184005
6769   1 17.832665 25.050459 30.224332
8848   1 19.479666 22.703804 30.225383
21322  1 17.002194 22.703805 30.225383
2611   1 16.184269 23.878995 32.246083
6868   1 17.845022 25.053725 34.268088
8947   1 19.495870 22.708504 34.266751
15085  1 18.661741 23.878995 32.246083
21421  1 17.018398 22.708504 34.266750
2710   1 16.207118 23.883633 36.288002
6967   1 17.872564 25.057847 38.310684
9046   1 19.532093 22.714745 38.306255
15184  1 18.684590 23.883633 36.288003
21520  1 17.054621 22.714745 38.306255
2809   1 16.248851 23.888729 40.327496
7066   1 17.918270 25.060592 42.350024
9145   1 19.589979 22.720175 42.342521
15283  1 18.726323 23.888729 40.327496
21619  1 17.112507 22.720175 42.342521
2908   1 16.312438 23.889991 44.362304
7165   1 17.988998 25.056877 46.382214
9244   1 19.670349 22.720132 46.375169
15382  1 18.789911 23.889991 44.362304
21718  1 17.192876 22.720132 46.375169
3007   1 16.404083 23.885047 48.391998
7264   1 18.100568 25.049162 50.408068
9343   1 19.778470 22.720032 50.408033
15481  1 18.881555 23.885047 48.391998
21817  1 17.300998 22.720032 50.408033
3107   1 19.016138 23.889974 52.424057
15580  1 16.538666 23.889974 52.424057
3206   1 19.203102 23.937586 56.462496
9442   1 17.449339 22.745143 54.446595
15679  1 16.725629 23.937586 56.462496
19837  1 18.281319 25.070596 54.440496
21917  1 19.926812 22.745143 54.446595
3305   1 19.360082 23.966093 60.505979
9541   1 17.611789 22.790259 58.486187
15778  1 16.882609 23.966093 60.505978
19936  1 18.495494 25.126835 58.480175
3404   1 19.457637 23.958454 64.560229
7561   1 16.155111 25.128265 62.534113
9640   1 17.725542 22.798881 62.532272
15877  1 16.980164 23.958454 64.560229
20035  1 18.632583 25.128266 62.534113
3503   1 19.513239 23.945589 68.616557
7660   1 16.233512 25.113143 66.593308
9739   1 17.795837 22.788758 66.585831
15976  1 17.035767 23.945589 68.616557
20134  1 18.710985 25.113143 66.593308
3602   1 19.536543 23.938653 72.670078
7759   1 16.272044 25.102800 70.647301
9838   1 17.832686 22.779145 70.640724
16075  1 17.059070 23.938652 72.670077
20233  1 18.749516 25.102800 70.647301
7858   1 16.282355 25.099309 74.697839
9937   1 17.840732 22.776192 74.695202
20332  1 18.759828 25.099309 74.697839
3701   1 19.532970 23.938670 76.723299
7957   1 16.268647 25.101592 78.750005
10036  1 17.821252 22.780291 78.752061
16174  1 17.055497 23.938669 76.723298
20431  1 18.746120 25.101592 78.750006
3800   1 19.501795 23.944925 80.780893
8056   1 16.225851 25.109343 82.808927
10135  1 17.770269 22.790111 82.814787
16273  1 17.024323 23.944924 80.780892
20530  1 18.703323 25.109344 82.808927
3899   1 19.433761 23.956487 84.846961
8155   1 16.135693 25.122782 86.879649
10234  1 17.679210 22.799348 86.881529
16372  1 16.956288 23.956486 84.846961
20629  1 18.613165 25.122782 86.879649
3998   1 19.312870 23.963825 88.916134
10333  1 17.535596 22.785026 90.939524
16471  1 16.835398 23.963824 88.916134
20728  1 18.444617 25.124150 90.949487
4097   1 19.115424 23.926581 92.967881
16570  1 16.637951 23.926580 92.967880
48     1 16.460435 27.383176 10.052467
4206   1 17.918790 28.559702 12.041230
10432  1 19.678780 26.205464 12.063358
12522  1 18.937907 27.383177 10.052468
22906  1 17.201307 26.205463 12.063357
8364   1 19.440785 29.741524 10.052648
20838  1 16.963312 29.741523 10.052648
147    1 16.272281 27.384727 14.061616
4305   1 17.870741 28.562002 16.076180
10531  1 19.562345 26.211723 16.083116
12621  1 18.749753 27.384727 14.061616
23005  1 17.084872 26.211723 16.083116
8463   1 19.508551 29.734782 14.061392
20937  1 17.031078 29.734782 14.061392
246    1 16.218299 27.389402 18.096479
4404   1 17.845143 28.567029 20.112580
10630  1 19.514046 26.216667 20.118229
12720  1 18.695772 27.389403 18.096480
23104  1 17.036574 26.216667 20.118229
8562   1 19.490596 29.741022 18.091084
21036  1 17.013123 29.741022 18.091084
345    1 16.192487 27.393500 22.135279
4503   1 17.834870 28.568982 24.155395
10729  1 19.491358 26.220340 24.158231
12819  1 18.669960 27.393500 22.135279
23203  1 17.013886 26.220340 24.158231
8661   1 19.484366 29.742913 22.132454
21135  1 17.006893 29.742912 22.132454
444    1 16.182404 27.395565 26.178662
4602   1 17.832781 28.569742 28.201150
10828  1 19.484305 26.222694 28.201757
12918  1 18.659877 27.395565 26.178662
23302  1 17.006833 26.222694 28.201757
8760   1 19.483320 29.743229 26.177910
21234  1 17.005847 29.743229 26.177909
543    1 16.182378 27.396918 30.224232
13017  1 18.659851 27.396917 30.224232
8859   1 19.485459 29.742938 30.225218
21333  1 17.007986 29.742938 30.225218
642    1 16.191034 27.398475 34.270532
4701   1 17.836701 28.570253 32.248215
10927  1 19.489089 26.224866 32.246694
13116  1 18.668507 27.398475 34.270532
23401  1 17.011617 26.224866 32.246694
8958   1 19.490534 29.742565 34.273441
21432  1 17.013062 29.742565 34.273441
741    1 16.209295 27.400495 38.316581
4800   1 17.846696 28.571035 36.295757
11026  1 19.505557 26.227690 36.291565
13215  1 18.686768 27.400496 38.316581
23500  1 17.028085 26.227690 36.291565
9057   1 19.499263 29.742261 38.322174
21531  1 17.021791 29.742261 38.322174
840    1 16.240069 27.401521 42.360792
4899   1 17.864306 28.571798 40.343071
11125  1 19.535732 26.230590 40.334943
13314  1 18.717541 27.401521 42.360792
23599  1 17.058259 26.230590 40.334943
9156   1 19.513584 29.741496 42.370759
21630  1 17.036111 29.741496 42.370759
939    1 16.291905 27.397663 46.398546
4998   1 17.893695 28.570715 44.388119
11224  1 19.584504 26.230124 44.373753
13413  1 18.769377 27.397663 46.398547
23698  1 17.107032 26.230124 44.373753
9255   1 19.539193 29.738727 46.416581
21729  1 17.061721 29.738727 46.416581
1038   1 16.394478 27.384541 50.419379
5097   1 17.949376 28.564011 48.424222
11323  1 19.666637 26.221401 48.401601
13512  1 18.871950 27.384541 50.419379
23797  1 17.189164 26.221401 48.401601
9354   1 19.599463 29.730530 50.450239
21828  1 17.121991 29.730530 50.450239
11422  1 17.337871 26.215958 52.423347
17670  1 18.092109 28.548261 52.433499
23897  1 19.815343 26.215958 52.423347
1138   1 19.095985 27.393707 54.438952
11521  1 17.590612 26.271447 56.456675
13611  1 16.618512 27.393707 54.438952
17769  1 18.472736 28.604082 56.455120
9453   1 17.365888 29.717670 54.442309
21928  1 19.843361 29.717670 54.442309
1237   1 19.405361 27.460392 58.479672
5394   1 16.269213 28.615804 60.523221
11620  1 17.793506 26.296775 60.507098
13710  1 16.927889 27.460392 58.479672
17868  1 18.746686 28.615804 60.523222
9552   1 17.905692 29.779707 58.499592
1336   1 19.568043 27.449039 62.547193
5493   1 16.372865 28.598163 64.589308
11719  1 17.903610 26.281185 64.570390
13809  1 17.090571 27.449039 62.547192
17967  1 18.850337 28.598163 64.589308
9651   1 18.062399 29.760982 62.572673
1435   1 19.642983 27.433416 66.607254
5592   1 16.413729 28.589642 68.638182
11818  1 17.958561 26.267985 68.626499
13908  1 17.165511 27.433416 66.607253
18066  1 18.891201 28.589642 68.638182
9750   1 18.109342 29.753332 66.621687
1534   1 19.675303 27.425535 70.655911
5691   1 16.430384 28.585360 72.681487
11917  1 17.980736 26.261830 72.675571
14007  1 17.197830 27.425535 70.655910
18165  1 18.907856 28.585360 72.681487
9849   1 18.128659 29.748924 70.663871
1633   1 19.685410 27.422435 74.701022
14106  1 17.207938 27.422435 74.701022
9948   1 18.136776 29.746440 74.704464
1732   1 19.678794 27.422948 78.747383
5790   1 16.433481 28.583883 76.724316
12016  1 17.980786 26.260924 76.723533
14205  1 17.201321 27.422947 78.747383
18264  1 18.910954 28.583883 76.724316
10047  1 18.137952 29.745447 78.746501
1831   1 19.651646 27.426932 82.798926
5889   1 16.424309 28.584810 80.769938
12115  1 17.959058 26.264511 80.775206
14304  1 17.174173 27.426931 82.798926
18363  1 18.901781 28.584810 80.769939
10146  1 18.131566 29.746023 82.792086
1930   1 19.583789 27.435882 86.861478
5988   1 16.395586 28.588351 84.821265
12214  1 17.904258 26.273169 84.835937
14403  1 17.106316 27.435882 86.861478
18462  1 18.873058 28.588351 84.821265
10245  1 18.109197 29.748201 86.842756
2029   1 19.400956 27.455698 90.946775
6087   1 16.314019 28.596585 88.884657
12313  1 17.781238 26.289168 88.913136
14502  1 16.923483 27.455697 90.946775
18561  1 18.791492 28.596585 88.884657
10344  1 18.029518 29.758953 90.902891
12412  1 17.518379 26.267974 92.977355
18660  1 18.441480 28.602236 92.974095
24887  1 19.995851 26.267974 92.977356
6285   1 17.827020 32.079650 10.052128
10443  1 19.357341 33.266316 12.041911
14601  1 18.637781 30.913088 12.065386
22917  1 16.879868 33.266316 12.041911
6384   1 17.774751 32.095062 14.061882
10542  1 19.419194 33.270482 16.077183
14700  1 18.644876 30.916221 16.072977
23016  1 16.941722 33.270482 16.077182
6483   1 17.804847 32.093082 18.091683
10641  1 19.455500 33.267819 20.114091
14799  1 18.650148 30.917465 20.110709
23115  1 16.978028 33.267818 20.114091
6582   1 17.820381 32.092112 22.133409
10740  1 19.474110 33.265482 24.157787
14898  1 18.654279 30.917330 24.155065
23214  1 16.996637 33.265482 24.157787
6681   1 17.828932 32.090583 26.179383
10839  1 19.483176 33.262798 28.204706
14997  1 18.657753 30.916409 28.202086
23313  1 17.005703 33.262798 28.204706
6780   1 17.833411 32.088567 30.227341
6879   1 17.834932 32.086138 34.276364
10938  1 19.485730 33.259642 32.253185
15096  1 18.661001 30.915116 32.250430
23412  1 17.008257 33.259642 32.253185
6978   1 17.834017 32.083308 38.326182
11037  1 19.482662 33.255845 36.302504
15195  1 18.664511 30.913643 36.299590
23511  1 17.005189 33.255845 36.302504
7077   1 17.831333 32.080369 42.376549
11136  1 19.474126 33.251612 40.352404
15294  1 18.669159 30.911983 40.349379
23610  1 16.996654 33.251612 40.352404
7176   1 17.827936 32.077945 46.426068
11235  1 19.459820 33.248173 44.402058
15393  1 18.677023 30.909908 44.398961
23709  1 16.982347 33.248173 44.402058
7275   1 17.824857 32.076371 50.470092
11334  1 19.435702 33.247467 48.448238
15492  1 18.694356 30.906644 48.445116
23808  1 16.958229 33.247467 48.448237
3118   1 18.754076 30.899084 52.474181
11433  1 19.370527 33.252881 52.477012
15591  1 16.276604 30.899084 52.474181
23907  1 16.893055 33.252881 52.477011
3217   1 19.453685 30.910444 56.483246
7374   1 17.822792 32.075981 54.470903
11532  1 18.661847 33.242405 56.487542
15690  1 16.976212 30.910444 56.483246
3316   1 19.767551 30.919952 60.557394
7473   1 16.581499 32.076515 58.541976
11631  1 18.347821 33.232185 60.560554
15789  1 17.290079 30.919952 60.557394
19947  1 19.058972 32.076515 58.541976
3415   1 19.812707 30.915710 64.605432
7572   1 16.580066 32.075690 62.587094
11730  1 18.302566 33.234960 64.608338
15888  1 17.335234 30.915710 64.605431
20046  1 19.057538 32.075690 62.587094
3514   1 19.828851 30.912355 68.647045
7671   1 16.580900 32.074782 66.629456
11829  1 18.289859 33.235958 68.649868
15987  1 17.351379 30.912355 68.647045
20145  1 19.058372 32.074782 66.629456
3613   1 19.837292 30.909833 72.686402
7770   1 16.583641 32.073302 70.668756
11928  1 18.289163 33.234881 72.689317
16086  1 17.359819 30.909833 72.686402
20244  1 19.061113 32.073302 70.668756
7869   1 16.588896 32.071229 74.707769
20343  1 19.066369 32.071230 74.707769
3712   1 19.843018 30.907844 76.726354
7968   1 16.597984 32.068776 78.748785
12027  1 18.297236 33.232208 76.729740
16185  1 17.365545 30.907844 76.726353
20442  1 19.075457 32.068776 78.748785
3811   1 19.847916 30.906492 80.768945
8067   1 16.614147 32.066338 82.793679
12126  1 18.316115 33.228429 80.773716
16284  1 17.370444 30.906491 80.768945
20541  1 19.091620 32.066339 82.793679
3910   1 19.852987 30.906117 84.815541
8166   1 16.647186 32.064565 86.843896
12225  1 18.354988 33.223992 84.823934
16383  1 17.375514 30.906117 84.815541
20640  1 19.124659 32.064565 86.843896
4009   1 19.858329 30.906764 88.865265
8265   1 16.736115 32.056318 90.902225
12324  1 18.447735 33.217656 88.886185
16482  1 17.380857 30.906764 88.865264
20739  1 19.213588 32.056318 90.902225
24897  1 16.340631 33.218911 92.975181
4108   1 19.864815 30.910621 92.937453
12423  1 18.818103 33.218911 92.975181
16581  1 17.387342 30.910620 92.937452
4217   1 17.596622 35.621141 12.065507
8375   1 19.100424 36.772935 10.055409
12533  1 18.329534 34.439270 10.054682
20849  1 16.622951 36.772935 10.055409
16691  1 20.074094 35.621141 12.065507
4316   1 17.728288 35.620815 16.085094
8474   1 19.306228 36.797288 14.080147
12632  1 18.533826 34.445166 14.062853
20948  1 16.828756 36.797288 14.080147
16790  1 20.205760 35.620816 16.085095
4415   1 17.787671 35.617931 20.121277
8573   1 19.404969 36.794748 18.107086
12731  1 18.600248 34.444658 18.098295
21047  1 16.927497 36.794748 18.107086
4514   1 17.818900 35.613542 24.163013
8672   1 19.455246 36.790152 22.145040
12830  1 18.635575 34.441241 22.138151
21146  1 16.977774 36.790152 22.145040
4613   1 17.832991 35.609032 28.208799
8771   1 19.480576 36.784782 26.188331
12929  1 18.653257 34.437769 26.183067
21245  1 17.003103 36.784782 26.188331
8870   1 19.488810 36.779287 30.234614
13028  1 18.659904 34.433980 30.230533
21344  1 17.011337 36.779287 30.234614
4712   1 17.834570 35.604075 32.256395
8969   1 19.482548 36.773014 34.281733
13127  1 18.657722 34.429518 34.279103
21443  1 17.005076 36.773014 34.281733
4811   1 17.824652 35.598109 36.304440
9068   1 19.461549 36.765506 38.328313
13226  1 18.646946 34.424200 38.328109
21542  1 16.984077 36.765506 38.328313
4910   1 17.802627 35.591503 40.352060
9167   1 19.424202 36.758660 42.372784
13325  1 18.626964 34.419099 42.376862
21641  1 16.946729 36.758660 42.372784
5009   1 17.766175 35.587116 44.397280
9266   1 19.364347 36.757870 46.410631
13424  1 18.594255 34.417073 46.422780
17483  1 20.243648 35.587116 44.397280
21740  1 16.886874 36.757870 46.410631
5108   1 17.703095 35.590053 48.433397
9365   1 19.254358 36.768411 50.431314
13523  1 18.527428 34.422345 50.456323
17582  1 20.180567 35.590053 48.433397
21839  1 16.776885 36.768411 50.431314
5207   1 17.554084 35.604017 52.442469
17681  1 20.031556 35.604017 52.442469
21938  1 16.546102 36.758820 54.450899
5306   1 17.166450 35.548815 56.464680
9464   1 19.023575 36.758820 54.450899
13622  1 18.278041 34.434552 54.448391
17780  1 19.643923 35.548815 56.464680
1248   1 20.209947 34.373569 58.506326
5405   1 16.889781 35.536959 60.532297
9563   1 18.709051 36.692944 58.491422
13721  1 17.732474 34.373569 58.506325
17879  1 19.367254 35.536959 60.532297
1347   1 20.051933 34.390716 62.578604
5504   1 16.785847 35.553105 64.597785
9662   1 18.544162 36.703489 62.558464
13820  1 17.574461 34.390716 62.578604
17978  1 19.263319 35.553105 64.597785
1446   1 20.006507 34.396532 66.627331
5603   1 16.748076 35.559249 68.646455
9761   1 18.470182 36.717328 66.618131
13919  1 17.529034 34.396532 66.627331
18077  1 19.225549 35.559249 68.646455
1545   1 19.992512 34.397941 70.669496
5702   1 16.738816 35.559804 72.689963
9860   1 18.442637 36.722164 70.666746
14018  1 17.515040 34.397941 70.669496
18176  1 19.216289 35.559804 72.689963
1644   1 19.994715 34.396147 74.710526
9959   1 18.442152 36.720732 74.712394
14117  1 17.517242 34.396147 74.710526
1743   1 20.011244 34.391919 78.754060
5801   1 16.748925 35.556260 76.733862
10058  1 18.464879 36.714427 78.760580
14216  1 17.533771 34.391918 78.754060
18275  1 19.226398 35.556260 76.733862
1842   1 20.048075 34.385784 82.803616
5900   1 16.780025 35.549454 80.782520
10157  1 18.517111 36.704040 82.816460
14315  1 17.570603 34.385784 82.803616
18374  1 19.257497 35.549455 80.782520
1941   1 20.126783 34.377134 86.864761
5999   1 16.844968 35.539509 84.841128
10256  1 18.618584 36.690222 86.885309
14414  1 17.649311 34.377133 86.864761
18473  1 19.322441 35.539509 84.841128
6098   1 16.980542 35.524852 88.917253
10355  1 18.802122 36.691918 90.954085
14513  1 17.846331 34.360197 90.949406
18572  1 19.458014 35.524853 88.917253
6197   1 17.261712 35.552136 92.980483
18671  1 19.739185 35.552137 92.980483
6296   1 17.455486 39.104552 10.049160
10454  1 19.212340 40.297885 12.064574
14612  1 18.384621 37.962284 12.069916
22928  1 16.734867 40.297885 12.064574
18770  1 19.932959 39.104553 10.049160
6395   1 17.635935 39.141903 14.084651
10553  1 19.349484 40.317331 16.100304
14711  1 18.527811 37.971414 16.097111
23027  1 16.872011 40.317331 16.100304
18869  1 20.113408 39.141903 14.084651
6494   1 17.743841 39.144089 18.115467
10652  1 19.433329 40.315104 20.135187
14810  1 18.605197 37.967201 20.129164
23126  1 16.955857 40.315104 20.135187
18968  1 20.221313 39.144089 18.115467
6593   1 17.804782 39.138193 22.151778
10751  1 19.480156 40.307834 24.175238
14909  1 18.645888 37.961239 24.169357
23225  1 17.002684 40.307834 24.175238
19067  1 20.282254 39.138194 22.151778
6692   1 17.835511 39.131249 26.194176
10850  1 19.500157 40.300348 28.219360
15008  1 18.663802 37.955026 28.213879
23324  1 17.022685 40.300348 28.219360
19166  1 20.312984 39.131249 26.194176
6791   1 17.844297 39.124359 30.239357
19265  1 20.321770 39.124359 30.239357
6890   1 17.833352 39.116728 34.284593
10949  1 19.497661 40.292845 32.264319
15107  1 18.663809 37.948528 32.260068
19364  1 20.310825 39.116728 34.284593
23423  1 17.020189 40.292845 32.264319
6989   1 17.801791 39.107424 38.327926
11048  1 19.472649 40.283807 36.307561
15206  1 18.646601 37.940768 36.305840
19463  1 20.279264 39.107424 38.327926
23522  1 16.995177 40.283807 36.307560
7088   1 17.747886 39.098944 42.367465
11147  1 19.423499 40.273246 40.347430
15305  1 18.610878 37.932152 40.349635
19562  1 20.225359 39.098944 42.367465
23621  1 16.946027 40.273246 40.347429
7187   1 17.667594 39.098209 46.399585
11246  1 19.349535 40.266687 44.382155
15404  1 18.553759 37.927227 44.388584
19661  1 20.145067 39.098209 46.399585
23720  1 16.872063 40.266687 44.382155
7286   1 17.547309 39.103809 50.425071
11345  1 19.247707 40.268562 48.411461
15503  1 18.463093 37.932482 48.416346
19760  1 20.024782 39.103809 50.425071
23819  1 16.770235 40.268561 48.411461
11444  1 19.104354 40.262905 52.442749
15602  1 18.306911 37.936590 52.437786
23918  1 16.626882 40.262905 52.442749
7385   1 17.359035 39.082315 54.456873
11543  1 18.910186 40.216052 56.480331
15701  1 18.047658 37.881637 56.470713
19859  1 19.836507 39.082315 54.456874
7484   1 17.139121 39.026917 58.496017
11642  1 18.748078 40.188244 60.523397
15800  1 17.840700 37.856650 60.520842
19958  1 19.616594 39.026918 58.496017
3426   1 20.206865 37.871174 64.583758
7583   1 16.998724 39.025340 62.549691
11741  1 18.648107 40.195363 64.577499
15899  1 17.729393 37.871174 64.583758
20057  1 19.476197 39.025340 62.549691
3525   1 20.154222 37.882085 68.639659
7682   1 16.920234 39.039009 66.608663
11840  1 18.593520 40.206269 68.633748
15998  1 17.676749 37.882085 68.639659
20156  1 19.397707 39.039010 66.608663
3624   1 20.138576 37.884434 72.688858
7781   1 16.885396 39.046427 70.662579
11939  1 18.575168 40.209624 72.687118
16097  1 17.661104 37.884434 72.688858
20255  1 19.362869 39.046427 70.662579
7880   1 16.883244 39.045350 74.713231
20354  1 19.360717 39.045350 74.713231
3723   1 20.150283 37.880003 76.737605
7979   1 16.910110 39.037204 78.765837
12038  1 18.587966 40.204498 76.739877
16196  1 17.672810 37.880003 76.737605
20453  1 19.387582 39.037204 78.765837
3822   1 20.190098 37.870142 80.791319
8078   1 16.970031 39.024171 82.824849
12137  1 18.631849 40.192855 80.796045
16295  1 17.712625 37.870142 80.791319
20552  1 19.447504 39.024171 82.824849
3921   1 20.268285 37.856582 84.854550
8177   1 17.072578 39.013789 86.889061
12236  1 18.711349 40.180448 84.856585
16394  1 17.790812 37.856582 84.854550
20651  1 19.550050 39.013789 86.889061
8276   1 17.231939 39.031059 90.945551
12335  1 18.834579 40.183738 88.914782
16493  1 17.924818 37.850135 88.922116
20750  1 19.709412 39.031060 90.945551
24908  1 16.536786 40.231972 92.961404
12434  1 19.014259 40.231973 92.961404
16592  1 18.140423 37.893224 92.972505
4228   1 17.583367 42.632175 12.054166
8386   1 19.170296 43.770575 10.025535
12544  1 18.308128 41.437156 10.038627
20860  1 16.692824 43.770575 10.025535
14623  1 18.444767 44.966670 12.040765
16702  1 20.060840 42.632175 12.054166
4327   1 17.713621 42.658840 16.095822
8485   1 19.321517 43.818429 14.069812
12643  1 18.469607 41.481389 14.079929
20959  1 16.844044 43.818428 14.069812
16801  1 20.191094 42.658840 16.095822
4426   1 17.797991 42.659722 20.136385
8584   1 19.426369 43.831530 18.113245
12742  1 18.576778 41.489855 18.117380
21058  1 16.948897 43.831530 18.113245
16900  1 20.275463 42.659722 20.136385
4525   1 17.846901 42.652244 24.179471
8683   1 19.491850 43.827252 22.157718
12841  1 18.641855 41.484411 22.156473
16999  1 20.324373 42.652244 24.179471
21157  1 17.014378 43.827252 22.157718
4624   1 17.866943 42.644211 28.224776
8782   1 19.525474 43.819092 26.204086
12940  1 18.675429 41.476384 26.199632
17098  1 20.344415 42.644211 28.224777
21256  1 17.048001 43.819092 26.204086
8881   1 19.530729 43.811681 30.250217
13039  1 18.683325 41.468743 30.244586
21355  1 17.053257 43.811680 30.250217
4723   1 17.860698 42.636553 32.269358
8980   1 19.507776 43.803611 34.293164
13138  1 18.666888 41.460434 34.288221
17197  1 20.338171 42.636553 32.269358
21454  1 17.030303 43.803611 34.293164
4822   1 17.827332 42.626822 36.310620
9079   1 19.454680 43.791286 38.331550
13237  1 18.624618 41.449595 38.328540
17296  1 20.304805 42.626822 36.310621
21553  1 16.977208 43.791286 38.331550
15217  1 18.667641 44.969199 36.315759
4921   1 17.765432 42.613766 40.347796
9178   1 19.373117 43.775941 42.366698
13336  1 18.556062 41.438543 42.364734
17395  1 20.242904 42.613766 40.347796
21652  1 16.895645 43.775941 42.366698
15316  1 18.593164 44.952755 40.351839
5020   1 17.678861 42.603162 44.381881
9277   1 19.273019 43.766420 46.401214
13435  1 18.463919 41.434389 46.396951
17494  1 20.156333 42.603162 44.381881
21751  1 16.795547 43.766420 46.401214
15415  1 18.495319 44.936260 44.387004
5119   1 17.573137 42.599515 48.415215
9376   1 19.158214 43.759683 50.437686
13534  1 18.345440 41.433009 50.428982
17593  1 20.050610 42.599515 48.415215
21850  1 16.680741 43.759682 50.437686
15514  1 18.386925 44.927477 48.423601
5218   1 17.443033 42.588270 52.451980
17692  1 19.920506 42.588271 52.451980
15613  1 18.266580 44.914568 52.462399
5317   1 17.286976 42.550509 56.490929
9475   1 19.022498 43.736601 54.476915
13633  1 18.188461 41.408343 54.466418
17791  1 19.764449 42.550509 56.490929
21949  1 16.545026 43.736601 54.476914
15712  1 18.134779 44.885414 56.500957
5416   1 17.154238 42.524943 60.530824
9574   1 18.884477 43.702592 58.515058
13732  1 18.019248 41.364322 58.505197
17890  1 19.631710 42.524943 60.530824
15811  1 18.022696 44.863977 60.539126
5515   1 17.067302 42.526184 64.578462
9673   1 18.783587 43.691967 62.556783
13831  1 17.901025 41.356056 62.551053
17989  1 19.544774 42.526184 64.578462
15910  1 17.947240 44.861743 64.582918
1358   1 20.378497 41.356056 62.551053
3437   1 20.424713 44.861744 64.582918
1457   1 20.306678 41.365229 66.604652
5614   1 17.017522 42.534131 68.631653
9772   1 18.720574 43.696609 66.605693
13930  1 17.829206 41.365229 66.604652
18088  1 19.494995 42.534131 68.631653
16009  1 17.903881 44.866299 68.632943
3536   1 20.381353 44.866299 68.632943
1556   1 20.271811 41.372358 70.659465
5713   1 17.000214 42.536913 72.685964
9871   1 18.689488 43.701632 70.658812
14029  1 17.794338 41.372358 70.659465
18187  1 19.477687 42.536913 72.685964
3635   1 20.366785 44.867648 72.686075
16108  1 17.889312 44.867648 72.686075
1655   1 20.269527 41.371245 74.713229
9970   1 18.688332 43.699959 74.712918
14128  1 17.792054 41.371245 74.713229
1754   1 20.298094 41.362156 78.767934
5812   1 17.013659 42.531392 76.740270
10069  1 18.716768 43.690912 78.766893
14227  1 17.820622 41.362156 78.767934
18286  1 19.491132 42.531393 76.740270
3734   1 20.380488 44.862026 76.739475
16207  1 17.903016 44.862026 76.739475
1853   1 20.358811 41.349317 82.825307
5911   1 17.057704 42.519735 80.795429
10168  1 18.775437 43.679460 82.820277
14326  1 17.881338 41.349317 82.825307
18385  1 19.535176 42.519735 80.795429
3833   1 20.422961 44.851241 80.791559
16306  1 17.945489 44.851241 80.791559
6010   1 17.134140 42.510045 84.850788
10267  1 18.867569 43.678093 86.871615
14425  1 17.978477 41.344301 86.882634
18484  1 19.611612 42.510045 84.850788
16405  1 18.018620 44.843551 84.841448
6109   1 17.248759 42.519468 88.902701
10366  1 19.000918 43.706797 90.918934
14524  1 18.121273 41.369781 90.933125
18583  1 19.726231 42.519469 88.902701
16504  1 18.128202 44.855303 88.888754
6208   1 17.409103 42.568620 92.948281
18682  1 19.886576 42.568620 92.948281
16603  1 18.279922 44.903726 92.933787
6307   1 17.560575 46.104626 10.010747
10465  1 19.315958 47.301969 12.025457
22939  1 16.838486 47.301968 12.025457
18781  1 20.038048 46.104626 10.010747
6406   1 17.709918 46.154498 14.056476
10564  1 19.444608 47.333194 16.074015
12654  1 18.588466 48.490165 14.041392
14722  1 18.571709 44.997211 16.086341
18880  1 20.187391 46.154499 14.056476
23038  1 16.967136 47.333194 16.074015
6505   1 17.814285 46.169339 18.105070
10663  1 19.528651 47.335903 20.127152
12753  1 18.695751 48.503193 18.095140
14821  1 18.655327 45.000151 20.133123
18979  1 20.291758 46.169339 18.105070
23137  1 17.051178 47.335903 20.127152
6604   1 17.879208 46.165599 22.156023
10762  1 19.575656 47.329162 24.181856
12852  1 18.760664 48.498603 22.152945
14920  1 18.703784 44.993078 24.181497
19078  1 20.356681 46.165599 22.156023
23236  1 17.098184 47.329162 24.181856
6703   1 17.910836 46.158110 26.207378
10861  1 19.589312 47.323340 28.234545
12951  1 18.788834 48.492381 26.209744
15019  1 18.721649 44.985576 28.229887
19177  1 20.388308 46.158110 26.207378
23335  1 17.111840 47.323340 28.234545
6802   1 17.911441 46.152234 30.256158
13050  1 18.782654 48.489473 30.261977
19276  1 20.388914 46.152234 30.256158
6901   1 17.880624 46.145596 34.299666
10960  1 19.570574 47.319188 32.282141
13149  1 18.742213 48.485775 34.307336
15118  1 18.710102 44.978936 32.275350
19375  1 20.358096 46.145596 34.299666
23434  1 17.093102 47.319187 32.282141
7000   1 17.816062 46.131888 38.337447
11059  1 19.517785 47.310431 36.323014
13248  1 18.664502 48.471266 38.345675
19474  1 20.293534 46.131888 38.337447
23533  1 17.040313 47.310431 36.323013
7099   1 17.721026 46.110693 42.372837
11158  1 19.429368 47.289936 40.359070
13347  1 18.552928 48.442960 42.381637
19573  1 20.198498 46.110693 42.372837
23632  1 16.951895 47.289936 40.359070
7198   1 17.612857 46.095405 46.409571
11257  1 19.318471 47.266444 44.395528
13446  1 18.433967 48.422489 46.419574
19672  1 20.090329 46.095405 46.409571
23731  1 16.840999 47.266444 44.395528
7297   1 17.500101 46.085957 50.447932
11356  1 19.205791 47.254147 48.433689
13545  1 18.320756 48.413095 50.457527
19771  1 19.977574 46.085957 50.447932
23830  1 16.728319 47.254147 48.433689
11455  1 19.091657 47.242573 52.472071
7396   1 17.378734 46.066890 54.486691
11554  1 18.976278 47.221302 56.509178
13644  1 18.209177 48.399318 54.494306
19870  1 19.856207 46.066890 54.486692
7495   1 17.261656 46.041448 58.523824
11653  1 18.879740 47.204418 60.546237
13743  1 18.107389 48.381125 58.530217
19969  1 19.739128 46.041448 58.523824
7594   1 17.174516 46.030919 62.563395
11752  1 18.814200 47.200501 64.588091
13842  1 18.031825 48.371801 62.568903
20068  1 19.651988 46.030919 62.563395
1369   1 20.509297 48.371801 62.568904
7693   1 17.119824 46.032205 66.609291
11851  1 18.776982 47.202282 68.635946
13941  1 17.984642 48.370910 66.613378
20167  1 19.597297 46.032205 66.609291
1468   1 20.462114 48.370911 66.613378
7792   1 17.093327 46.034824 70.660246
11950  1 18.765158 47.202227 72.687358
14040  1 17.962290 48.371592 70.662746
20266  1 19.570800 46.034824 70.660246
1567   1 20.439762 48.371592 70.662746
1666   1 20.440677 48.368919 74.713823
7891   1 17.093504 46.032499 74.712974
14139  1 17.963204 48.368919 74.713823
20365  1 19.570977 46.032499 74.712974
1765   1 20.465910 48.361548 78.762914
7990   1 17.120820 46.024081 78.764552
12049  1 18.778491 47.196855 76.738802
14238  1 17.988437 48.361548 78.762914
20464  1 19.598292 46.024081 78.764552
1864   1 20.518866 48.352428 82.807356
8089   1 17.176890 46.013930 82.813270
12148  1 18.818594 47.187230 80.787297
14337  1 18.041393 48.352428 82.807356
20563  1 19.654362 46.013930 82.813270
8188   1 17.265835 46.013687 86.859205
12247  1 18.888999 47.180248 84.831858
14436  1 18.128412 48.351061 86.847840
20662  1 19.743307 46.013687 86.859205
8287   1 17.395519 46.042100 90.903939
12346  1 18.996720 47.190928 88.874646
14535  1 18.259365 48.376053 90.889068
20761  1 19.872991 46.042101 90.903939
24919  1 16.671009 47.237601 92.918510
12555  1 18.432149 48.439382  9.994951
12445  1 19.148481 47.237601 92.918510
4239   1 17.718903 49.638428 12.009113
14634  1 18.610566 51.976139 11.992869
16713  1 20.196375 49.638429 12.009113
4338   1 17.855443 49.666659 16.060992
8496   1 19.481093 50.825141 14.026240
14733  1 18.762818 51.996172 16.050511
16812  1 20.332916 49.666659 16.060992
20970  1 17.003621 50.825140 14.026240
4437   1 17.942144 49.666326 20.120885
8595   1 19.595539 50.832244 18.086425
14832  1 18.853579 51.990574 20.117457
16911  1 20.419617 49.666326 20.120885
21069  1 17.118066 50.832244 18.086425
4536   1 17.987167 49.659672 24.181560
8694   1 19.660875 50.825619 22.150484
14931  1 18.894797 51.984497 24.181224
17010  1 20.464640 49.659673 24.181560
21168  1 17.183402 50.825619 22.150484
4635   1 17.994627 49.656630 28.238320
8793   1 19.683891 50.821335 26.211101
15030  1 18.894188 51.984983 28.239852
17109  1 20.472099 49.656630 28.238320
21267  1 17.206418 50.821335 26.211101
8892   1 19.668889 50.822599 30.266459
21366  1 17.191416 50.822599 30.266459
4734   1 17.966621 49.656525 32.288891
8991   1 19.616852 50.823553 34.314973
15129  1 18.855314 51.990065 32.293775
17208  1 20.444094 49.656525 32.288891
21465  1 17.139380 50.823553 34.314972
4833   1 17.901620 49.650257 36.331620
9090   1 19.523130 50.809652 38.355108
15228  1 18.775735 51.988432 36.340180
17307  1 20.379093 49.650257 36.331620
21564  1 17.045658 50.809652 38.355108
4932   1 17.795982 49.625548 40.368262
9189   1 19.388968 50.773019 42.391477
15327  1 18.647306 51.960075 40.378068
17406  1 20.273454 49.625548 40.368262
21663  1 16.911496 50.773019 42.391477
5031   1 17.667407 49.594323 44.405466
9288   1 19.254510 50.748704 46.429168
15426  1 18.493011 51.920458 44.415050
17505  1 20.144879 49.594323 44.405466
21762  1 16.777038 50.748704 46.429168
5130   1 17.547547 49.580822 48.443255
9387   1 19.138359 50.742134 50.464447
15525  1 18.362401 51.908790 48.450095
17604  1 20.025019 49.580822 48.443255
5229   1 17.436813 49.572853 52.479264
15624  1 18.253577 51.906017 52.482085
17703  1 19.914285 49.572853 52.479265
5328   1 17.333535 49.558637 56.514346
9486   1 19.034060 50.734162 54.498238
15723  1 18.160989 51.897639 56.515398
17802  1 19.811008 49.558637 56.514346
5427   1 17.249856 49.545928 60.550912
9585   1 18.944982 50.721805 58.533273
15822  1 18.089456 51.888203 60.552589
17901  1 19.727328 49.545928 60.550913
3349   1 20.566929 51.888204 60.552589
5526   1 17.193330 49.541376 64.592330
9684   1 18.880121 50.713915 62.572283
15921  1 18.041728 51.883530 64.594884
18000  1 19.670802 49.541376 64.592330
3448   1 20.519201 51.883530 64.594884
5625   1 17.161609 49.541225 68.639229
9783   1 18.839933 50.711739 66.616708
16020  1 18.014983 51.882224 68.641903
18099  1 19.639081 49.541226 68.639229
3547   1 20.492456 51.882224 68.641904
5724   1 17.151829 49.540229 72.689368
9882   1 18.821017 50.711162 70.665405
16119  1 18.006448 51.880826 72.691556
18198  1 19.629302 49.540229 72.689368
3646   1 20.483921 51.880826 72.691556
9981   1 18.821764 50.708567 74.715429
5823   1 17.163814 49.535511 76.739170
10080  1 18.843541 50.702643 78.763100
16218  1 18.015968 51.877089 76.740626
18297  1 19.641286 49.535512 76.739170
3745   1 20.493441 51.877089 76.740626
3844   1 20.524210 51.870852 80.785559
5922   1 17.200302 49.527350 80.784956
10179  1 18.891475 50.694828 82.804897
16317  1 18.046738 51.870852 80.785559
18396  1 19.677775 49.527350 80.784956
3943   1 20.584794 51.864259 84.822929
6021   1 17.267410 49.520313 84.824839
10278  1 18.975639 50.691194 86.840143
16416  1 18.107321 51.864259 84.822929
18495  1 19.744882 49.520314 84.824839
6120   1 17.375244 49.527022 88.862116
10377  1 19.111625 50.709370 90.875666
16515  1 18.214014 51.865277 88.853772
18594  1 19.852716 49.527022 88.862116
8397   1 19.306714 50.775230  9.978855
20871  1 16.829241 50.775230  9.978855
6219   1 17.535465 49.570349 92.903223
16614  1 18.391657 51.901911 92.889060
18693  1 20.012938 49.570349 92.903223
10476  1 19.521551 54.313950 11.979261
22950  1 17.044078 54.313950 11.979261
6417   1 17.916175 53.157521 14.014191
10575  1 19.697913 54.318269 16.048580
12665  1 18.864802 55.481329 14.013217
18891  1 20.393648 53.157521 14.014191
23049  1 17.220440 54.318268 16.048580
6516   1 18.040925 53.154753 18.083346
10674  1 19.787490 54.308840 20.119535
12764  1 18.991498 55.470013 18.090003
18990  1 20.518398 53.154753 18.083346
23148  1 17.310017 54.308839 20.119535
6615   1 18.103737 53.146902 22.150235
10773  1 19.820129 54.305074 24.180208
12863  1 19.041581 55.465002 22.151344
19089  1 20.581209 53.146902 22.150235
23247  1 17.342656 54.305074 24.180208
6714   1 18.119231 53.145285 26.210333
10872  1 19.811356 54.308468 28.236936
12962  1 19.048052 55.465764 26.206120
19188  1 20.596704 53.145285 26.210333
23346  1 17.333883 54.308468 28.236936
6813   1 18.094684 53.150855 30.267272
13061  1 19.017066 55.473596 30.261435
19287  1 20.572157 53.150855 30.267272
6912   1 18.029671 53.157954 34.320408
10971  1 19.762309 54.318461 32.293729
13160  1 18.940746 55.486870 34.319977
19386  1 20.507143 53.157954 34.320408
23445  1 17.284837 54.318461 32.293729
7011   1 17.915850 53.147348 38.364385
11070  1 19.666018 54.324107 36.346535
13259  1 18.801574 55.484144 38.371757
19485  1 20.393322 53.147348 38.364385
23544  1 17.188545 54.324107 36.346535
7110   1 17.748570 53.100979 42.400882
11169  1 19.505736 54.294073 40.387251
13358  1 18.581446 55.426648 42.408258
19584  1 20.226043 53.100979 42.400882
23643  1 17.028263 54.294073 40.387251
7209   1 17.591661 53.075303 46.436176
11268  1 19.311813 54.245608 44.422371
13457  1 18.392226 55.404402 46.437400
19683  1 20.069134 53.075303 46.436176
23742  1 16.834341 54.245608 44.422371
7308   1 17.471006 53.074210 50.466319
11367  1 19.167016 54.239744 48.451339
13556  1 18.269008 55.410418 50.460429
19782  1 19.948479 53.074210 50.466319
11466  1 19.061485 54.242522 52.478657
7407   1 17.374126 53.071573 54.497122
11565  1 18.981306 54.238025 56.512047
13655  1 18.183738 55.411095 54.490622
19881  1 19.851599 53.071573 54.497122
1182   1 20.661210 55.411095 54.490622
7506   1 17.297800 53.063333 58.532647
11664  1 18.922703 54.230755 60.551522
13754  1 18.122274 55.405112 58.529062
19980  1 19.775273 53.063333 58.532648
1281   1 20.599746 55.405113 58.529062
7605   1 17.243797 53.056653 62.573317
11763  1 18.883916 54.226281 64.595692
13853  1 18.079669 55.399458 62.572446
20079  1 19.721270 53.056654 62.573317
1380   1 20.557141 55.399459 62.572446
7704   1 17.210397 53.053853 66.618742
11862  1 18.861797 54.224482 68.643540
13952  1 18.052957 55.396604 66.619419
20178  1 19.687870 53.053853 66.618742
1479   1 20.530430 55.396604 66.619420
7803   1 17.194312 53.052658 70.667577
11961  1 18.853844 54.223142 72.693343
14051  1 18.039260 55.395330 70.668835
20277  1 19.671785 53.052658 70.667578
1578   1 20.516732 55.395330 70.668835
7902   1 17.193998 53.050518 74.717344
14150  1 18.037178 55.393896 74.718857
20376  1 19.671471 53.050518 74.717345
1677   1 20.514650 55.393896 74.718857
8001   1 17.210854 53.046247 78.764816
12060  1 18.859849 54.220589 76.742531
14249  1 18.047756 55.391353 78.766972
20475  1 19.688326 53.046247 78.764816
1776   1 20.525228 55.391353 78.766973
8100   1 17.250265 53.040506 82.806735
12159  1 18.882847 54.216384 80.788000
14348  1 18.075739 55.387685 82.810223
20574  1 19.727738 53.040507 82.806735
1875   1 20.553211 55.387685 82.810223
1974   1 20.609426 55.384753 86.846876
8199   1 17.326062 53.035605 86.839283
12258  1 18.930811 54.211788 84.827007
14447  1 18.131954 55.384753 86.846876
20673  1 19.803535 53.035605 86.839283
8298   1 17.466566 53.043779 90.866237
12357  1 19.026845 54.208626 88.853950
14546  1 18.259776 55.383799 90.866027
20772  1 19.944038 53.043779 90.866237
6318   1 17.706637 53.112898  9.963396
12566  1 18.589909 55.452828  9.950202
18792  1 20.184110 53.112898  9.963396
12456  1 19.228635 54.232342 92.878190
4250   1 18.004561 56.644155 11.978194
14645  1 19.119250 58.946746 12.018692
16724  1 20.482034 56.644155 11.978194
4349   1 18.194937 56.629787 16.062368
8507   1 19.880307 57.787222 14.037658
14744  1 19.203530 58.940828 16.076313
16823  1 20.672410 56.629787 16.062368
20981  1 17.402835 57.787222 14.037658
6428   1 18.476076 60.096829 14.052440
4448   1 18.262813 56.624746 20.124476
8606   1 19.965484 57.783609 18.099668
14843  1 19.227405 58.941893 20.126010
21080  1 17.488012 57.783609 18.099668
6527   1 18.475071 60.099817 18.100609
4547   1 18.281484 56.624065 24.177343
8705   1 19.991359 57.783038 22.150935
14942  1 19.228647 58.943465 24.171970
21179  1 17.513886 57.783038 22.150935
6626   1 18.469926 60.102209 22.146524
4646   1 18.267276 56.628336 28.228507
8804   1 19.988562 57.785135 26.198734
15041  1 19.212390 58.947196 28.217030
21278  1 17.511089 57.785135 26.198734
6725   1 18.458408 60.104953 26.189941
8903   1 19.958282 57.791832 30.248294
21377  1 17.480809 57.791832 30.248294
4745   1 18.214780 56.639921 32.284724
9002   1 19.882147 57.806614 34.307756
15140  1 19.169650 58.955172 32.266202
17219  1 20.692252 56.639921 32.284724
21476  1 17.404675 57.806614 34.307756
4844   1 18.103283 56.654498 36.346658
9101   1 19.715071 57.817533 38.373469
15239  1 19.062109 58.972659 36.331270
17318  1 20.580755 56.654498 36.346658
21575  1 17.237599 57.817533 38.373469
4943   1 17.895145 56.627956 40.394390
9200   1 19.397948 57.749723 42.411150
15338  1 18.780160 58.960118 40.397263
17417  1 20.372617 56.627956 40.394390
21674  1 16.920475 57.749722 42.411150
7121   1 17.669205 60.073680 42.409571
5042   1 17.634913 56.571634 44.424412
9299   1 19.165558 57.739684 46.427470
15437  1 18.391310 58.903880 44.415678
17516  1 20.112386 56.571634 44.424412
7220   1 17.418246 60.085621 46.397927
5141   1 17.476410 56.575813 48.443033
9398   1 19.052008 57.750739 50.445406
15536  1 18.239128 58.918189 48.421783
17615  1 19.953883 56.575813 48.443033
7319   1 17.347555 60.091409 50.428843
3063   1 20.716601 58.918189 48.421783
5240   1 17.381660 56.581950 52.468384
15635  1 18.171880 58.921925 52.455398
17714  1 19.859132 56.581950 52.468385
3162   1 20.649353 58.921925 52.455398
5339   1 17.318497 56.578831 56.505628
9497   1 18.987248 57.751184 54.481071
15734  1 18.129814 58.919038 56.498715
17813  1 19.795969 56.578831 56.505628
7418   1 17.310215 60.090414 54.472521
3261   1 20.607287 58.919038 56.498715
5438   1 17.273980 56.573037 60.548684
9596   1 18.942905 57.746439 58.524146
15833  1 18.099981 58.914721 60.545325
17912  1 19.751453 56.573037 60.548684
7517   1 17.284033 60.086985 58.519698
3360   1 20.577454 58.914722 60.545325
5537   1 17.244247 56.569135 64.595110
9695   1 18.912013 57.741952 62.570457
15932  1 18.079223 58.911845 64.593649
18011  1 19.721720 56.569135 64.595110
7616   1 17.264806 60.084036 62.568148
3459   1 20.556696 58.911845 64.593650
5636   1 17.226491 56.567413 68.644002
9794   1 18.891849 57.739582 66.618936
16031  1 18.065610 58.910678 68.643326
18110  1 19.703963 56.567413 68.644003
7715   1 17.251007 60.082611 66.617570
3558   1 20.543083 58.910678 68.643326
5735   1 17.218656 56.566478 72.694191
9893   1 18.880232 57.738662 70.668922
16130  1 18.057616 58.910401 72.693701
18209  1 19.696129 56.566478 72.694191
7814   1 17.241276 60.082380 70.667744
3657   1 20.535089 58.910401 72.693701
9992   1 18.875929 57.738077 74.719214
7913   1 17.234535 60.082743 74.717882
5834   1 17.220352 56.565168 76.743841
10091  1 18.879254 57.737192 78.768025
16229  1 18.054552 58.910314 76.743520
18308  1 19.697824 56.565168 76.743841
8012   1 17.230157 60.083405 78.766631
3756   1 20.532025 58.910314 76.743520
5933   1 17.233675 56.563055 80.790548
10190  1 18.892960 57.735884 82.812979
16328  1 18.056923 58.910202 80.791011
18407  1 19.711148 56.563055 80.790548
8111   1 17.227908 60.084516 82.812044
3855   1 20.534395 58.910203 80.791011
6032   1 17.265077 56.560152 84.831327
10289  1 18.924803 57.733681 86.850281
16427  1 18.067211 58.910117 84.833455
18506  1 19.742550 56.560152 84.831327
8210   1 17.227727 60.086603 86.849943
3954   1 20.544683 58.910118 84.833455
4053   1 20.569817 58.908607 88.863191
6131   1 17.327519 56.559627 88.866740
10388  1 18.981774 57.737813 90.885097
16526  1 18.092345 58.908607 88.863191
18605  1 19.804992 56.559627 88.866740
8309   1 17.229158 60.090151 90.857087
8408   1 19.517095 57.784703  9.950025
20882  1 17.039623 57.784702  9.950025
4152   1 20.511097 58.923718 92.871905
6230   1 17.526859 56.564997 92.873931
16625  1 18.033624 58.923718 92.871905
18704  1 20.004331 56.564997 92.873931
6329   1 18.475172 60.092528  9.982023
10487  1 20.309529 61.243136 12.013497
22961  1 17.832057 61.243135 12.013497
103    1 17.072010 62.406603 14.027494
10586  1 20.226030 61.256096 16.070925
12577  1 19.549482 62.406604 14.027494
23060  1 17.748557 61.256096 16.070925
202    1 16.985517 62.416195 18.088432
10685  1 20.196607 61.260224 20.119874
12676  1 19.462989 62.416195 18.088432
23159  1 17.719135 61.260224 20.119874
10784  1 20.179634 61.263536 24.164460
12775  1 19.427427 62.421551 22.137766
23258  1 17.702161 61.263536 24.164460
10883  1 20.163848 61.266650 28.206747
12874  1 19.408364 62.425138 26.182007
23357  1 17.686376 61.266650 28.206747
6824   1 18.435365 60.109298 30.233543
12973  1 19.396244 62.427707 30.224282
6923   1 18.383965 60.117024 34.282533
10982  1 20.141500 61.270500 32.249618
13072  1 19.387797 62.429738 34.267715
23456  1 17.664027 61.270500 32.249618
7022   1 18.220907 60.136250 38.354094
11081  1 20.090486 61.275506 36.297404
13171  1 19.385127 62.433102 38.312193
19496  1 20.698379 60.136250 38.354094
23555  1 17.613014 61.275507 36.297404
796    1 18.132276 62.431748 42.380354
11180  1 19.766069 61.264741 40.369521
13270  1 20.609748 62.431748 42.380354
19595  1 20.146677 60.073680 42.409571
23654  1 17.288596 61.264740 40.369521
895    1 18.124513 62.431328 46.379248
11279  1 19.056441 61.254790 44.376025
13369  1 20.601986 62.431329 46.379249
19694  1 19.895719 60.085621 46.397926
994    1 18.117417 62.430278 50.420989
11378  1 18.987241 61.260599 48.402326
13468  1 20.594889 62.430279 50.420989
19793  1 19.825027 60.091409 50.428843
11477  1 18.959061 61.260601 52.446122
1094   1 20.587234 62.428682 54.468304
11576  1 18.939732 61.258341 56.493801
13567  1 18.109762 62.428682 54.468304
19892  1 19.787687 60.090414 54.472521
1193   1 20.579306 62.426972 58.517026
11675  1 18.924583 61.255852 60.542514
13666  1 18.101834 62.426972 58.517026
19991  1 19.761505 60.086986 58.519698
1292   1 20.571567 62.425869 62.566113
11774  1 18.912620 61.254401 64.591778
13765  1 18.094094 62.425869 62.566113
20090  1 19.742278 60.084036 62.568149
1391   1 20.564000 62.425695 66.615588
11873  1 18.902996 61.254141 68.641636
13864  1 18.086528 62.425695 66.615588
20189  1 19.728480 60.082611 66.617570
1490   1 20.556081 62.426381 70.665364
11972  1 18.894722 61.254719 72.691705
13963  1 18.078609 62.426381 70.665364
20288  1 19.718749 60.082380 70.667744
1589   1 20.546893 62.427801 74.714725
14062  1 18.069421 62.427801 74.714724
20387  1 19.712008 60.082743 74.717883
1688   1 20.534881 62.429994 78.762314
12071  1 18.886775 61.255861 76.740966
14161  1 18.057408 62.429994 78.762314
20486  1 19.707630 60.083405 78.766632
1787   1 20.516832 62.433417 82.806085
12170  1 18.877826 61.257636 80.787839
14260  1 18.039359 62.433417 82.806085
20585  1 19.705380 60.084516 82.812045
1886   1 20.484929 62.439645 86.842403
12269  1 18.865184 61.260727 84.829728
14359  1 18.007457 62.439645 86.842403
20684  1 19.705200 60.086603 86.849943
1985   1 20.431607 62.442618 90.876472
12368  1 18.841672 61.267795 88.859006
14458  1 17.954135 62.442618 90.876472
20783  1 19.706630 60.090151 90.857087
4      1 17.429715 62.401225  9.940518
12478  1 19.907187 62.401225  9.940518
12467  1 18.903881 61.261260 92.867204
2084   1 20.951743  2.844213 11.957648
4163   1 22.468168  0.512800 11.964083
16636  1 19.990695  0.512799 11.964083
2183   1 20.780496  2.846071 16.024613
4262   1 22.280710  0.533909 16.046871
14657  1 23.257969  2.846071 16.024613
16735  1 19.803237  0.533908 16.046871
20894  1 21.610815  1.679645 13.994301
2282   1 20.688792  2.860011 20.092696
4361   1 22.208409  0.544029 20.106866
14756  1 23.166264  2.860012 20.092696
16834  1 19.730937  0.544028 20.106866
20993  1 21.484601  1.696567 18.068836
2381   1 20.645684  2.868234 24.149491
4460   1 22.175649  0.549656 24.156250
14855  1 23.123157  2.868234 24.149491
16933  1 19.698177  0.549655 24.156250
21092  1 21.426796  1.706142 22.127024
2480   1 20.634707  2.871124 28.200886
4559   1 22.161834  0.552644 28.201057
14954  1 23.112180  2.871124 28.200887
17032  1 19.684362  0.552644 28.201057
21191  1 21.402279  1.711045 26.176760
21290  1 21.401729  1.712094 30.223973
2579   1 20.658048  2.868090 32.253943
4658   1 22.164095  0.553348 32.245398
15053  1 23.135521  2.868090 32.253943
17131  1 19.686622  0.553348 32.245398
21389  1 21.436103  1.708711 34.275093
2678   1 20.750393  2.855036 36.321382
4757   1 22.201163  0.552546 36.293863
15152  1 23.227866  2.855036 36.321382
17230  1 19.723691  0.552546 36.293863
21488  1 21.584778  1.693907 38.347990
9112   1 19.638179  1.755782 42.404209
2777   1 21.014943  2.868485 40.389555
4856   1 22.504483  0.563273 40.366848
17329  1 20.027011  0.563273 40.366848
21587  1 22.115651  1.755782 42.404209
9211   1 19.876478  1.743308 46.394329
2876   1 21.388527  2.925347 44.409735
4955   1 23.199644  0.574721 44.373655
17428  1 20.722172  0.574721 44.373655
21686  1 22.353951  1.743308 46.394329
9310   1 19.932473  1.735565 50.425919
2975   1 21.526305  2.909882 48.417076
5054   1 23.254758  0.567539 48.400777
17527  1 20.777286  0.567539 48.400777
21785  1 22.409945  1.735565 50.425919
5153   1 20.790664  0.564888 52.444691
15548  1 21.578248  2.903623 52.451115
17627  1 23.268137  0.564889 52.444692
21884  1 19.954315  1.733386 54.469648
5252   1 20.794233  0.563654 56.492324
9410   1 22.431787  1.733386 54.469649
15647  1 21.604231  2.902999 56.494338
17726  1 23.271706  0.563654 56.492324
5351   1 20.793618  0.563185 60.540878
9509   1 22.441974  1.733382 58.516635
15746  1 21.618088  2.904369 60.540506
17825  1 23.271091  0.563185 60.540878
21983  1 19.964502  1.733382 58.516635
5450   1 20.790345  0.563357 64.589816
9608   1 22.445656  1.734162 62.564628
15845  1 21.623554  2.906091 64.587899
17924  1 23.267817  0.563357 64.589817
22082  1 19.968184  1.734162 62.564628
5549   1 20.784672  0.564191 68.639116
9707   1 22.444327  1.735320 66.613197
15944  1 21.621952  2.908012 68.635976
18023  1 23.262145  0.564191 68.639117
22181  1 19.966854  1.735319 66.613197
5648   1 20.776157  0.565765 72.688317
9806   1 22.438296  1.737022 70.661996
16043  1 21.613432  2.910628 72.683914
18122  1 23.253629  0.565765 72.688317
22280  1 19.960824  1.737022 70.661996
9905   1 22.426880  1.739598 74.710063
22379  1 19.949407  1.739598 74.710063
5747   1 20.763514  0.568215 76.736262
10004  1 22.407851  1.743385 78.755719
16142  1 21.596654  2.914457 76.730181
18221  1 23.240986  0.568215 76.736262
22478  1 19.930379  1.743385 78.755719
5846   1 20.743841  0.571851 80.781125
10103  1 22.376027  1.748816 82.796670
16241  1 21.567832  2.919860 80.772613
18320  1 23.221313  0.571852 80.781125
22577  1 19.898554  1.748815 82.796670
5945   1 20.710518  0.577480 84.820306
10202  1 22.320659  1.755311 86.831561
16340  1 21.518869  2.926577 84.809143
18419  1 23.187990  0.577481 84.820306
22676  1 19.843187  1.755311 86.831561
6044   1 20.650594  0.583288 88.854521
10301  1 22.198655  1.762758 90.849825
16439  1 21.427030  2.934346 88.834540
18518  1 23.128067  0.583288 88.854522
22775  1 19.721182  1.762758 90.849825
20795  1 21.878405  1.700930  9.933013
6143   1 20.458493  0.585564 92.861405
16538  1 21.234588  2.918268 92.857904
18617  1 22.935965  0.585564 92.861405
22874  1 21.865008  5.183193 11.964903
115    1 21.001951  6.337764 13.994692
6341   1 22.562066  4.004507 13.988057
18814  1 20.084593  4.004506 13.988057
22973  1 21.720687  5.168705 16.020163
214    1 20.893949  6.334046 18.052851
6440   1 22.440318  4.012031 18.054530
12688  1 23.371422  6.334046 18.052851
18913  1 19.962846  4.012030 18.054530
23072  1 21.631158  5.177532 20.084669
313    1 20.829190  6.342414 22.115555
6539   1 22.373273  4.023518 22.118397
12787  1 23.306662  6.342414 22.115555
19012  1 19.895800  4.023518 22.118397
23171  1 21.585047  5.186407 24.146248
412    1 20.803114  6.348006 26.176518
6638   1 22.346379  4.029433 26.175055
12886  1 23.280586  6.348007 26.176518
19111  1 19.868907  4.029432 26.175054
23270  1 21.577050  5.188754 28.204491
511    1 20.816716  6.345740 30.237504
6737   1 22.355232  4.028545 30.230384
12985  1 23.294189  6.345740 30.237504
19210  1 19.877759  4.028545 30.230384
610    1 20.878205  6.337109 34.300553
6836   1 22.414845  4.018474 34.293622
13084  1 23.355678  6.337109 34.300553
19309  1 19.937372  4.018473 34.293622
23369  1 21.612037  5.182370 32.265778
709    1 21.003580  6.343132 38.356204
6935   1 22.567203  4.011228 38.362219
19408  1 20.089730  4.011228 38.362219
23468  1 21.708868  5.172099 36.331444
808    1 21.208571  6.401586 42.396111
7034   1 22.867695  4.079174 42.402650
19507  1 20.390222  4.079174 42.402650
23567  1 21.901636  5.200161 40.382631
11191  1 19.669329  5.257208 44.415203
907    1 21.382998  6.424108 46.427591
7133   1 23.085457  4.089075 46.420662
19606  1 20.607984  4.089075 46.420662
23666  1 22.146802  5.257208 44.415203
11290  1 19.812908  5.252219 48.435351
1006   1 21.490699  6.416675 50.451842
7232   1 23.183842  4.076266 50.439554
19705  1 20.706370  4.076266 50.439554
23765  1 22.290380  5.252219 48.435351
23864  1 19.891796  5.243705 52.461344
11390  1 22.369269  5.243705 52.461344
7331   1 20.755109  4.072698 54.475401
11489  1 22.415722  5.243263 56.498529
13579  1 21.559225  6.412898 54.482367
19805  1 23.232582  4.072699 54.475401
23963  1 19.938249  5.243263 56.498529
7430   1 20.783037  4.073970 58.518166
11588  1 22.443836  5.246127 60.540952
13678  1 21.603570  6.415315 58.520469
19904  1 23.260510  4.073970 58.518166
24062  1 19.966364  5.246127 60.540952
7529   1 20.798189  4.076390 62.563634
11687  1 22.458185  5.249111 64.585957
13777  1 21.630120  6.419064 62.562744
20003  1 23.275662  4.076390 62.563634
24161  1 19.980712  5.249111 64.585957
7628   1 20.803254  4.078727 66.610514
11786  1 22.460931  5.251907 68.632425
13876  1 21.641827  6.422239 66.607560
20102  1 23.280726  4.078727 66.610515
24260  1 19.983458  5.251906 68.632425
7727   1 20.799372  4.081378 70.657970
11885  1 22.452889  5.255449 72.679067
13975  1 21.640554  6.425572 70.653670
20201  1 23.276844  4.081378 70.657970
24359  1 19.975417  5.255449 72.679067
7826   1 20.786238  4.085115 74.704609
14074  1 21.626540  6.430291 74.699274
20300  1 23.263711  4.085116 74.704609
7925   1 20.761418  4.090461 78.748376
11984  1 22.432966  5.260581 76.723944
14173  1 21.597652  6.436942 78.742058
20399  1 23.238891  4.090461 78.748376
24458  1 19.955493  5.260581 76.723944
8024   1 20.719109  4.097305 82.786987
12083  1 22.397308  5.267440 80.764722
14272  1 21.548313  6.444824 82.779675
20498  1 23.196582  4.097305 82.786987
24557  1 19.919836  5.267440 80.764722
8123   1 20.645663  4.104914 86.817249
12182  1 22.337198  5.275141 84.798903
14371  1 21.468548  6.449951 86.812211
20597  1 23.123135  4.104914 86.817249
24656  1 19.859726  5.275141 84.798903
8222   1 20.513201  4.102837 90.842992
12281  1 22.236795  5.277921 88.827920
14470  1 21.343401  6.437353 90.846545
20696  1 22.990673  4.102838 90.842992
24755  1 19.759323  5.277921 88.827919
16     1 21.163488  6.380486  9.949044
6242   1 22.762164  4.041925  9.939286
18715  1 20.284691  4.041925  9.939286
12380  1 22.071064  5.249044 92.862377
24854  1 19.593591  5.249043 92.862377
2095   1 21.169535  9.859044 11.990265
4174   1 22.760646  7.521875 11.976475
16647  1 20.283173  7.521874 11.976475
2194   1 21.057496  9.830781 16.038837
4273   1 22.635918  7.498187 16.026811
14668  1 23.534969  9.830781 16.038837
16746  1 20.158445  7.498186 16.026811
20905  1 21.901746  8.673169 14.006704
2293   1 20.983731  9.826620 20.093597
4372   1 22.554851  7.499683 20.085893
14767  1 23.461204  9.826621 20.093597
16845  1 20.077378  7.499682 20.085893
21004  1 21.805198  8.661558 18.060069
2392   1 20.944033  9.830546 24.151955
4471   1 22.511461  7.506394 24.147411
14866  1 23.421505  9.830547 24.151955
16944  1 20.033989  7.506394 24.147411
21103  1 21.746247  8.665222 22.119112
2491   1 20.937888  9.832291 28.211021
4570   1 22.505416  7.508077 28.208680
14965  1 23.415361  9.832291 28.211022
17043  1 20.027943  7.508077 28.208680
21202  1 21.722406  8.669421 26.179779
21301  1 21.735228  8.667993 30.240203
2590   1 20.967103  9.830601 32.267801
4669   1 22.540298  7.502821 32.270132
15064  1 23.444576  9.830601 32.267801
17142  1 20.062825  7.502821 32.270132
21400  1 21.788252  8.664877 34.297367
2689   1 21.035952  9.835486 36.317865
4768   1 22.623486  7.501100 36.327140
15163  1 23.513425  9.835486 36.317865
17241  1 20.146014  7.501100 36.327140
21499  1 21.889741  8.678512 38.345367
2788   1 21.152104  9.865994 40.359620
4867   1 22.769899  7.533122 40.371731
17340  1 20.292427  7.533122 40.371731
21598  1 22.043205  8.726376 42.385562
9222   1 19.708090  8.752822 46.423694
2887   1 21.292657  9.907048 44.400066
4966   1 22.949259  7.582649 44.410004
17439  1 20.471787  7.582649 44.410004
21697  1 22.185563  8.752822 46.423694
9321   1 19.812950  8.752998 50.455403
2986   1 21.408266  9.919066 48.437520
5065   1 23.078979  7.588232 48.440975
17538  1 20.601507  7.588232 48.440975
21796  1 22.290422  8.752998 50.455403
5164   1 20.690620  7.583295 52.469147
15559  1 21.500073  9.920019 52.470597
17638  1 23.168093  7.583295 52.469148
21895  1 19.892211  8.752553 54.486679
5263   1 20.753176  7.584103 56.502563
9421   1 22.369684  8.752553 54.486679
15658  1 21.573815  9.924468 56.504039
17737  1 23.230649  7.584103 56.502563
5362   1 20.794736  7.588442 60.541324
9520   1 22.427883  8.757034 58.521911
15757  1 21.627425  9.930925 60.540529
17836  1 23.272208  7.588443 60.541324
21994  1 19.950410  8.757034 58.521911
5461   1 20.818037  7.592332 64.583740
9619   1 22.465412  8.762018 62.561334
15856  1 21.659585  9.935436 64.580881
17935  1 23.295510  7.592332 64.583740
22093  1 19.987939  8.762018 62.561334
5560   1 20.825538  7.595597 68.628630
9718   1 22.484010  8.765579 66.604254
15955  1 21.672327  9.938609 68.624693
18034  1 23.303011  7.595597 68.628630
22192  1 20.006537  8.765579 66.604254
5659   1 20.818709  7.599740 72.674394
9817   1 22.485984  8.769122 70.649447
16054  1 21.667645  9.942809 72.670401
18133  1 23.296181  7.599741 72.674394
22291  1 20.008512  8.769122 70.649446
9916   1 22.472194  8.774412 74.694896
22390  1 19.994721  8.774411 74.694895
5758   1 20.796987  7.605876 76.718805
10015  1 22.441190  8.781923 78.738183
16153  1 21.645642  9.949442 76.715683
18232  1 23.274459  7.605876 76.718806
22489  1 19.963718  8.781923 78.738182
5857   1 20.757085  7.613764 80.759482
10114  1 22.388977  8.789660 82.777742
16252  1 21.604230  9.957570 80.758472
18331  1 23.234558  7.613764 80.759482
22588  1 19.911504  8.789660 82.777742
5956   1 20.692540  7.620462 84.795571
10213  1 22.309089  8.790792 86.815166
16351  1 21.539196  9.962262 84.798710
18430  1 23.170012  7.620463 84.795572
22687  1 19.831616  8.790792 86.815166
6055   1 20.593742  7.616360 88.830909
10312  1 22.192706  8.770549 90.855415
16450  1 21.444049  9.952410 88.839460
18529  1 23.071214  7.616360 88.830909
22786  1 19.715233  8.770549 90.855415
20806  1 22.040405  8.717064  9.961144
6154   1 20.449282  7.580894 92.871464
16549  1 21.313391  9.913641 92.883347
18628  1 22.926755  7.580894 92.871464
22885  1 22.049259 12.194791 12.005278
4185   1 22.922931 14.529433 12.020658
16658  1 20.445458 14.529433 12.020658
126    1 21.192074 13.343831 14.036436
6352   1 22.790225 11.008679 14.021154
18825  1 20.312753 11.008679 14.021154
22984  1 21.944335 12.164843 16.053040
4284   1 22.820322 14.499947 16.067407
16757  1 20.342849 14.499946 16.067407
225    1 21.106608 13.326428 18.084650
6451   1 22.701142 10.992663 18.071710
12699  1 23.584080 13.326428 18.084651
18924  1 20.223669 10.992663 18.071709
23083  1 21.874907 12.157675 20.104097
4383   1 22.752274 14.492462 20.114625
16856  1 20.274802 14.492462 20.114625
324    1 21.054092 13.325150 22.134779
6550   1 22.646670 10.992803 22.126494
12798  1 23.531564 13.325150 22.134779
19023  1 20.169198 10.992802 22.126494
23182  1 21.837125 12.159981 24.157657
4482   1 22.714489 14.494668 24.162780
16955  1 20.237017 14.494668 24.162780
423    1 21.030897 13.328366 26.186022
6649   1 22.623957 10.996025 26.183243
12897  1 23.508369 13.328366 26.186022
19122  1 20.146484 10.996024 26.183243
23281  1 21.829293 12.162520 28.211563
4581   1 22.704334 14.498291 28.211017
17054  1 20.226861 14.498290 28.211017
522    1 21.036298 13.331013 30.236085
6748   1 22.633283 10.996647 30.239010
12996  1 23.513771 13.331013 30.236085
19221  1 20.155810 10.996647 30.239010
621    1 21.072080 13.335929 34.281971
6847   1 22.676920 10.998460 34.290029
13095  1 23.549553 13.335929 34.281971
19320  1 20.199448 10.998460 34.290029
23380  1 21.852292 12.164181 32.262576
4680   1 22.722018 14.502221 32.256920
17153  1 20.244546 14.502221 32.256920
720    1 21.142119 13.352124 38.322662
6946   1 22.760381 11.014890 38.333633
13194  1 23.619591 13.352124 38.322662
19419  1 20.282908 11.014890 38.333633
23479  1 21.909513 12.172647 36.307658
4779   1 22.770235 14.511839 36.298458
17252  1 20.292763 14.511839 36.298457
819    1 21.243035 13.382170 42.362038
7045   1 22.882147 11.053298 42.373718
19518  1 20.404675 11.053298 42.373718
23578  1 22.004817 12.199303 40.347693
4878   1 22.850731 14.533669 40.336995
17351  1 20.373259 14.533669 40.336994
918    1 21.348743 13.404467 46.403431
7144   1 23.002589 11.078916 46.414575
19617  1 20.525117 11.078916 46.414575
23677  1 22.120736 12.232283 44.388483
4977   1 22.950421 14.559033 44.376989
17450  1 20.472948 14.559033 44.376988
11301  1 19.748364 12.246849 48.429061
1017   1 21.445767 13.414406 50.443706
7243   1 23.102738 11.085211 50.451758
19716  1 20.625266 11.085211 50.451758
23776  1 22.225837 12.246849 48.429061
5076   1 23.048720 14.573202 48.418434
17549  1 20.571247 14.573202 48.418433
23875  1 19.841382 12.253481 52.466424
11401  1 22.318854 12.253481 52.466424
5175   1 20.666746 14.584163 52.458575
17649  1 23.144219 14.584163 52.458575
7342   1 20.710845 11.090125 54.486176
11500  1 22.401589 12.263361 56.501770
13590  1 21.537133 13.425176 54.481316
19816  1 23.188317 11.090125 54.486176
23974  1 19.924117 12.263361 56.501770
5274   1 20.759075 14.600467 56.496139
17748  1 23.236547 14.600467 56.496139
7441   1 20.780394 11.098365 58.521022
11599  1 22.466138 12.272981 60.537712
13689  1 21.617363 13.438661 58.517191
19915  1 23.257866 11.098365 58.521022
24073  1 19.988666 12.272981 60.537712
5373   1 20.834736 14.614123 60.532647
7540   1 20.828250 11.104824 62.558736
11698  1 22.507022 12.277911 64.577051
13788  1 21.675214 13.446931 62.554532
20014  1 23.305722 11.104824 62.558736
24172  1 20.029549 12.277911 64.577051
5472   1 20.884507 14.619158 64.572180
7639   1 20.853963 11.108267 66.600465
11797  1 22.525568 12.280302 68.620672
13887  1 21.708343 13.449678 66.596136
20113  1 23.331435 11.108267 66.600465
24271  1 20.048095 12.280302 68.620672
5571   1 20.909547 14.619948 68.616691
7738   1 20.859960 11.111360 70.645547
11896  1 22.524090 12.283833 72.667371
13986  1 21.719246 13.451514 70.642117
20212  1 23.337432 11.111361 70.645547
24370  1 20.046618 12.283833 72.667371
5670   1 20.912364 14.621981 72.665364
7837   1 20.847634 11.116612 74.692013
14085  1 21.709613 13.455996 74.690752
20311  1 23.325107 11.116613 74.692013
7936   1 20.816429 11.124343 78.737560
11995  1 22.503267 12.290316 76.714941
14184  1 21.679509 13.463460 78.739855
20410  1 23.293902 11.124343 78.737561
24469  1 20.025794 12.290316 76.714941
5769   1 20.893833 14.627727 76.716198
8035   1 20.763927 11.131286 82.780960
12094  1 22.462101 12.298199 80.761439
14283  1 21.627566 13.469791 82.787921
20509  1 23.241400 11.131287 82.780960
24568  1 19.984628 12.298199 80.761439
5868   1 20.853558 14.635374 80.767191
8134   1 20.685599 11.128921 86.823368
12193  1 22.397803 12.301183 84.806444
14382  1 21.550238 13.465469 86.834805
20608  1 23.163072 11.128922 86.823368
24667  1 19.920330 12.301183 84.806443
5967   1 20.789587 14.637813 84.816994
8233   1 20.575360 11.103881 90.867369
12292  1 22.305245 12.287638 88.851313
14481  1 21.442588 13.437835 90.881237
20707  1 23.052833 11.103882 90.867370
24766  1 19.827772 12.287637 88.851313
6066   1 20.697396 14.622830 88.865120
27     1 21.311577 13.386788  9.989790
6253   1 22.915673 11.052350  9.974944
18726  1 20.438201 11.052350  9.974944
12391  1 22.181851 12.247008 92.897076
6165   1 20.575284 14.580912 92.911870
18639  1 23.052757 14.580913 92.911870
2106   1 21.312553 16.863290 12.035563
6264   1 23.049845 18.054056 10.019662
18737  1 20.572372 18.054055 10.019662
20817  1 22.182463 15.720650 10.004947
2205   1 21.207940 16.836294 16.080418
6363   1 22.923320 18.013931 14.064785
14679  1 23.685412 16.836294 16.080418
18836  1 20.445847 18.013931 14.064784
20916  1 22.062562 15.678768 14.051348
2304   1 21.139026 16.830850 20.123257
6462   1 22.835687 18.001595 18.106330
14778  1 23.616499 16.830850 20.123258
18935  1 20.358214 18.001595 18.106330
21015  1 21.977344 15.662658 18.096751
2403   1 21.100231 16.834063 24.166216
6561   1 22.781886 18.002980 22.146540
14877  1 23.577703 16.834064 24.166217
19034  1 20.304414 18.002980 22.146540
21114  1 21.924667 15.661997 22.141930
2502   1 21.087918 16.838632 28.209754
6660   1 22.756088 18.007759 26.187903
14976  1 23.565391 16.838633 28.209755
19133  1 20.278616 18.007759 26.187903
21213  1 21.900091 15.665916 26.187687
6759   1 22.755395 18.012596 30.229746
19232  1 20.277922 18.012596 30.229746
21312  1 21.902012 15.670034 30.232787
2601   1 21.101386 16.843682 32.252077
6858   1 22.779954 18.019036 34.269903
15075  1 23.578858 16.843682 32.252077
19331  1 20.302481 18.019036 34.269902
21411  1 21.931584 15.676336 34.274956
2700   1 21.142467 16.852860 36.291414
6957   1 22.831606 18.030527 38.307429
15174  1 23.619940 16.852860 36.291414
19430  1 20.354134 18.030526 38.307428
21510  1 21.991454 15.690567 38.313598
2799   1 21.211987 16.869607 40.328634
7056   1 22.907848 18.046191 42.344138
15273  1 23.689459 16.869608 40.328634
19529  1 20.430375 18.046190 42.344137
21609  1 22.078095 15.713055 42.351740
2898   1 21.300714 16.887703 44.367008
7155   1 22.997666 18.057987 46.382544
19628  1 20.520193 18.057987 46.382544
21708  1 22.174124 15.730572 46.392220
2997   1 21.395375 16.899205 48.407596
7254   1 23.095925 18.067796 50.423175
19727  1 20.618452 18.067796 50.423175
21807  1 22.270480 15.741658 50.433581
15570  1 21.495785 16.912683 52.448925
21906  1 19.891975 15.757906 54.473521
7353   1 20.728368 18.088675 54.464298
9432   1 22.369448 15.757906 54.473521
15669  1 21.600547 16.935974 56.488246
19827  1 23.205840 18.088675 54.464299
7452   1 20.836541 18.115769 58.502786
9531   1 22.461844 15.777730 58.510806
15768  1 21.689070 16.954143 60.525805
17847  1 23.312209 14.614124 60.532647
19926  1 23.314014 18.115770 58.502787
22005  1 19.984371 15.777730 58.510805
7551   1 20.917042 18.127187 62.542254
9630   1 22.530230 15.787846 62.548813
15867  1 21.748470 16.958585 64.566668
17946  1 23.361980 14.619158 64.572181
20025  1 23.394515 18.127188 62.542254
22104  1 20.052757 15.787846 62.548813
7650   1 20.967013 18.125957 66.587180
9729   1 22.571333 15.789133 66.591477
15966  1 21.780850 16.956838 68.613142
18045  1 23.387019 14.619949 68.616691
20124  1 23.444486 18.125958 66.587180
22203  1 20.093861 15.789132 66.591476
7749   1 20.990566 18.122670 70.637542
9828   1 22.588105 15.788820 70.639317
16065  1 21.788981 16.956584 72.664351
18144  1 23.389837 14.621981 72.665365
20223  1 23.468038 18.122671 70.637543
22302  1 20.110633 15.788820 70.639317
7848   1 20.989286 18.123634 74.691736
9927   1 22.582229 15.791820 74.690813
20322  1 23.466758 18.123635 74.691736
22401  1 20.104757 15.791820 74.690813
7947   1 20.963026 18.129996 78.748492
10026  1 22.553869 15.798790 78.743993
16164  1 21.773513 16.961141 76.718582
18243  1 23.371306 14.627727 76.716198
20421  1 23.440498 18.129996 78.748492
22500  1 20.076397 15.798790 78.743993
8046   1 20.910880 18.137592 82.806166
10125  1 22.502193 15.805280 82.796959
16263  1 21.734094 16.968868 80.774101
18342  1 23.331031 14.635374 80.767191
20520  1 23.388352 18.137592 82.806166
22599  1 20.024720 15.805280 82.796959
8145   1 20.830164 18.135773 86.861539
10224  1 22.424243 15.801047 86.847995
16362  1 21.669204 16.972370 84.828691
18441  1 23.267059 14.637814 84.816994
20619  1 23.307637 18.135774 86.861539
22698  1 19.946770 15.801047 86.847994
8244   1 20.715373 18.108678 90.911358
10323  1 22.315237 15.772676 90.896155
16461  1 21.574568 16.958376 88.879837
18540  1 23.174869 14.622831 88.865120
20718  1 23.192845 18.108679 90.911358
22797  1 19.837764 15.772676 90.896155
16560  1 21.447617 16.915458 92.926987
38     1 21.434439 20.386935 10.033192
4196   1 23.018478 21.530048 12.060199
16669  1 20.541005 21.530047 12.060199
22896  1 22.171427 19.196661 12.049121
137    1 21.294517 20.350128 14.075416
4295   1 22.899247 21.515727 16.095971
12611  1 23.771990 20.350128 14.075417
16768  1 20.421775 21.515727 16.095971
22995  1 22.060937 19.174519 16.090589
236    1 21.203098 20.343775 18.111693
4394   1 22.828091 21.518446 20.128944
12710  1 23.680571 20.343776 18.111693
16867  1 20.350619 21.518445 20.128943
23094  1 21.990185 19.172859 20.128456
335    1 21.149073 20.347627 22.147616
4493   1 22.790479 21.523688 24.165612
12809  1 23.626545 20.347627 22.147616
16966  1 20.313007 21.523688 24.165611
23193  1 21.950811 19.177404 24.167221
434    1 21.123508 20.352780 26.186552
4592   1 22.777439 21.528346 28.205698
12908  1 23.600981 20.352780 26.186552
17065  1 20.299967 21.528345 28.205697
23292  1 21.937317 19.182390 28.207915
533    1 21.121336 20.357549 30.227232
13007  1 23.598808 20.357550 30.227232
632    1 21.141558 20.363352 34.267196
4691   1 22.785234 21.533008 32.246641
13106  1 23.619031 20.363353 34.267196
17164  1 20.307762 21.533008 32.246641
23391  1 21.947547 19.187601 32.248602
731    1 21.185676 20.372040 38.304912
4790   1 22.814228 21.539326 36.286246
13205  1 23.663148 20.372041 38.304913
17263  1 20.336755 21.539326 36.286245
23490  1 21.982479 19.195502 36.287256
830    1 21.253098 20.381864 42.340645
4889   1 22.865955 21.547327 40.323311
13304  1 23.730570 20.381865 42.340646
17362  1 20.388482 21.547327 40.323311
23589  1 22.042996 19.207472 40.323757
929    1 21.338515 20.387506 46.376134
4988   1 22.939268 21.552711 44.357912
17461  1 20.461796 21.552711 44.357912
23688  1 22.123724 19.218747 44.360065
1028   1 21.441022 20.393570 50.414052
5087   1 23.032660 21.553836 48.392131
17560  1 20.555188 21.553836 48.392131
23787  1 22.217174 19.225736 48.398209
5186   1 20.675020 21.565082 52.430209
11412  1 22.325547 19.239525 52.439021
17660  1 23.152492 21.565082 52.430210
5285   1 20.822720 21.604006 56.470427
11511  1 22.447751 19.270314 56.479314
13601  1 21.566713 20.417746 54.454953
17759  1 23.300193 21.604006 56.470427
23985  1 19.970279 19.270314 56.479314
5384   1 20.949224 21.630601 60.510890
11610  1 22.552540 19.293015 60.518126
13700  1 21.696834 20.453166 58.494211
17858  1 23.426697 21.630601 60.510890
24084  1 20.075067 19.293015 60.518126
5483   1 21.032407 21.629326 64.558468
11709  1 22.622930 19.295587 64.561517
13799  1 21.792082 20.464505 62.536088
17957  1 23.509879 21.629327 64.558468
24183  1 20.145457 19.295586 64.561517
5582   1 21.081425 21.619997 68.611476
11808  1 22.663499 19.290351 68.610910
13898  1 21.851968 20.459443 66.584601
18056  1 23.558898 21.619997 68.611476
24282  1 20.186026 19.290351 68.610909
5681   1 21.101308 21.614346 72.666245
11907  1 22.677641 19.287306 72.664482
13997  1 21.882724 20.452739 70.637631
18155  1 23.578780 21.614346 72.666245
24381  1 20.200169 19.287305 72.664481
14096  1 21.886437 20.451484 74.693201
5780   1 21.093620 21.615757 76.722674
12006  1 22.665842 19.290351 76.721041
14195  1 21.862884 20.456985 78.751639
18254  1 23.571092 21.615757 76.722674
24480  1 20.188369 19.290351 76.721040
5879   1 21.057102 21.623594 80.782989
12105  1 22.627288 19.298368 80.780151
14294  1 21.810146 20.466166 82.813122
18353  1 23.534574 21.623595 80.782990
24579  1 20.149815 19.298368 80.780151
5978   1 20.987466 21.633241 84.847027
12204  1 22.560112 19.304538 84.839604
14393  1 21.724542 20.469111 86.873677
18452  1 23.464938 21.633242 84.847028
24678  1 20.082639 19.304537 84.839604
6077   1 20.877876 21.630172 88.907441
12303  1 22.459758 19.294337 88.894415
14492  1 21.598684 20.446117 90.926112
18551  1 23.355348 21.630172 88.907441
24777  1 19.982285 19.294336 88.894415
6176   1 20.717456 21.587712 92.955576
12402  1 22.320857 19.250908 92.941748
18650  1 23.194929 21.587713 92.955576
2117   1 21.368095 23.864910 12.066599
6275   1 23.120416 25.050130 10.052159
14591  1 23.845568 23.864911 12.066599
18748  1 20.642944 25.050129 10.052158
20828  1 22.287301 22.719023 10.044645
2216   1 21.241416 23.861351 16.093896
6374   1 22.932501 25.033010 14.077663
14690  1 23.718888 23.861351 16.093896
18847  1 20.455028 25.033010 14.077663
20927  1 22.126259 22.688917 14.081033
2315   1 21.175886 23.866969 20.124550
6473   1 22.847257 25.039206 18.104027
14789  1 23.653359 23.866969 20.124551
18946  1 20.369784 25.039205 18.104026
21026  1 22.032914 22.689760 18.111058
2414   1 21.144036 23.871671 24.162179
6572   1 22.806855 25.044020 22.140234
14888  1 23.621508 23.871672 24.162179
19045  1 20.329382 25.044019 22.140233
21125  1 21.982413 22.695099 22.144999
2513   1 21.133191 23.875396 28.203467
6671   1 22.789283 25.047610 26.181030
14987  1 23.610664 23.875396 28.203468
19144  1 20.311811 25.047610 26.181030
21224  1 21.959608 22.699753 26.184005
6770   1 22.787610 25.050459 30.224333
19243  1 20.310138 25.050459 30.224332
21323  1 21.957139 22.703805 30.225383
2612   1 21.139214 23.878995 32.246084
6869   1 22.799967 25.053725 34.268089
15086  1 23.616686 23.878995 32.246084
19342  1 20.322495 25.053725 34.268088
21422  1 21.973343 22.708504 34.266751
2711   1 21.162063 23.883633 36.288003
6968   1 22.827509 25.057848 38.310685
15185  1 23.639535 23.883633 36.288003
19441  1 20.350036 25.057848 38.310685
21521  1 22.009565 22.714745 38.306256
2810   1 21.203796 23.888730 40.327497
7067   1 22.873215 25.060593 42.350025
15284  1 23.681268 23.888730 40.327497
19540  1 20.395742 25.060592 42.350024
21620  1 22.067451 22.720175 42.342521
2909   1 21.267383 23.889991 44.362304
7166   1 22.943942 25.056877 46.382215
15383  1 23.744855 23.889992 44.362305
19639  1 20.466470 25.056877 46.382215
21719  1 22.147821 22.720132 46.375169
3008   1 21.359028 23.885047 48.391999
7265   1 23.055513 25.049162 50.408068
15482  1 23.836500 23.885047 48.391999
19738  1 20.578040 25.049162 50.408068
21818  1 22.255942 22.720032 50.408034
15581  1 21.493611 23.889974 52.424058
7364   1 20.758791 25.070596 54.440496
9443   1 22.404284 22.745143 54.446595
15680  1 21.680574 23.937586 56.462496
19838  1 23.236264 25.070596 54.440496
7463   1 20.972967 25.126835 58.480175
9542   1 22.566734 22.790260 58.486187
15779  1 21.837554 23.966093 60.505979
19937  1 23.450439 25.126835 58.480175
22016  1 20.089262 22.790260 58.486187
7562   1 21.110056 25.128266 62.534113
9641   1 22.680487 22.798881 62.532273
15878  1 21.935109 23.958454 64.560230
20036  1 23.587528 25.128266 62.534114
22115  1 20.203015 22.798881 62.532273
7661   1 21.188457 25.113143 66.593308
9740   1 22.750782 22.788758 66.585832
15977  1 21.990712 23.945589 68.616558
20135  1 23.665929 25.113144 66.593309
22214  1 20.273309 22.788758 66.585832
7760   1 21.226989 25.102800 70.647301
9839   1 22.787631 22.779146 70.640724
16076  1 22.014015 23.938653 72.670078
20234  1 23.704461 25.102800 70.647302
22313  1 20.310158 22.779146 70.640724
7859   1 21.237300 25.099309 74.697839
9938   1 22.795677 22.776192 74.695203
20333  1 23.714773 25.099310 74.697840
22412  1 20.318205 22.776192 74.695202
7958   1 21.223592 25.101593 78.750006
10037  1 22.776197 22.780292 78.752062
16175  1 22.010442 23.938670 76.723299
20432  1 23.701065 25.101593 78.750006
22511  1 20.298724 22.780291 78.752061
8057   1 21.180796 25.109344 82.808928
10136  1 22.725214 22.790112 82.814788
16274  1 21.979268 23.944925 80.780893
20531  1 23.658269 25.109345 82.808928
22610  1 20.247742 22.790111 82.814787
8156   1 21.090638 25.122783 86.879650
10235  1 22.634155 22.799349 86.881530
16373  1 21.911233 23.956487 84.846962
20630  1 23.568110 25.122783 86.879650
22709  1 20.156682 22.799348 86.881530
8255   1 20.922090 25.124151 90.949487
10334  1 22.490541 22.785028 90.939524
16472  1 21.790343 23.963825 88.916135
20729  1 23.399562 25.124151 90.949487
22808  1 20.013069 22.785027 90.939524
16571  1 21.592896 23.926581 92.967881
49     1 21.415380 27.383177 10.052468
4207   1 22.873735 28.559703 12.041231
12523  1 23.892853 27.383178 10.052468
16680  1 20.396263 28.559702 12.041230
22907  1 22.156252 26.205464 12.063358
20839  1 21.918257 29.741524 10.052648
148    1 21.227226 27.384728 14.061617
4306   1 22.825686 28.562003 16.076181
12622  1 23.704699 27.384728 14.061617
16779  1 20.348214 28.562002 16.076180
23006  1 22.039817 26.211724 16.083117
20938  1 21.986024 29.734782 14.061393
247    1 21.173244 27.389403 18.096480
4405   1 22.800088 28.567029 20.112580
12721  1 23.650717 27.389403 18.096481
16878  1 20.322615 28.567029 20.112580
23105  1 21.991518 26.216667 20.118230
21037  1 21.968068 29.741023 18.091085
346    1 21.147432 27.393501 22.135279
4504   1 22.789815 28.568983 24.155396
12820  1 23.624904 27.393501 22.135280
16977  1 20.312342 28.568983 24.155395
23204  1 21.968831 26.220340 24.158231
21136  1 21.961838 29.742913 22.132455
445    1 21.137349 27.395566 26.178663
4603   1 22.787726 28.569743 28.201151
12919  1 23.614822 27.395566 26.178663
17076  1 20.310253 28.569742 28.201151
23303  1 21.961778 26.222694 28.201757
21235  1 21.960792 29.743229 26.177910
544    1 21.137323 27.396918 30.224233
13018  1 23.614796 27.396918 30.224233
21334  1 21.962931 29.742938 30.225218
643    1 21.145979 27.398475 34.270532
4702   1 22.791646 28.570253 32.248216
13117  1 23.623452 27.398476 34.270533
17175  1 20.314173 28.570253 32.248215
23402  1 21.966562 26.224866 32.246694
21433  1 21.968007 29.742566 34.273441
742    1 21.164240 27.400496 38.316581
4801   1 22.801641 28.571036 36.295757
13216  1 23.641713 27.400496 38.316581
17274  1 20.324169 28.571036 36.295757
23501  1 21.983030 26.227690 36.291566
21532  1 21.976736 29.742261 38.322174
841    1 21.195014 27.401521 42.360793
4900   1 22.819251 28.571799 40.343071
13315  1 23.672486 27.401522 42.360793
17373  1 20.341779 28.571798 40.343071
23600  1 22.013204 26.230590 40.334943
21631  1 21.991056 29.741496 42.370759
940    1 21.246850 27.397663 46.398547
4999   1 22.848640 28.570715 44.388120
13414  1 23.724322 27.397664 46.398547
17472  1 20.371167 28.570715 44.388119
23699  1 22.061977 26.230124 44.373754
21730  1 22.016666 29.738727 46.416582
1039   1 21.349423 27.384541 50.419380
5098   1 22.904321 28.564012 48.424223
13513  1 23.826895 27.384541 50.419380
17571  1 20.426849 28.564011 48.424223
23798  1 22.144109 26.221401 48.401601
21829  1 22.076936 29.730530 50.450239
5197   1 20.569581 28.548262 52.433499
11423  1 22.292816 26.215958 52.423347
17671  1 23.047054 28.548262 52.433499
5296   1 20.950208 28.604082 56.455120
11522  1 22.545557 26.271447 56.456676
13612  1 21.573457 27.393707 54.438952
17770  1 23.427681 28.604082 56.455120
23996  1 20.068085 26.271447 56.456676
9454   1 22.320833 29.717670 54.442309
5395   1 21.224159 28.615804 60.523222
11621  1 22.748452 26.296775 60.507099
13711  1 21.882834 27.460392 58.479672
17869  1 23.701631 28.615805 60.523222
24095  1 20.270979 26.296775 60.507099
22027  1 20.383164 29.779707 58.499592
5494   1 21.327810 28.598163 64.589308
11720  1 22.858555 26.281185 64.570391
13810  1 22.045516 27.449039 62.547193
17968  1 23.805282 28.598163 64.589309
24194  1 20.381082 26.281185 64.570390
22126  1 20.539871 29.760982 62.572673
5593   1 21.368673 28.589642 68.638182
11819  1 22.913505 26.267985 68.626500
13909  1 22.120456 27.433416 66.607254
18067  1 23.846146 28.589642 68.638182
24293  1 20.436033 26.267985 68.626499
22225  1 20.586814 29.753332 66.621687
5692   1 21.385329 28.585360 72.681487
11918  1 22.935681 26.261831 72.675572
14008  1 22.152775 27.425535 70.655911
18166  1 23.862802 28.585360 72.681487
24392  1 20.458208 26.261830 72.675571
22324  1 20.606132 29.748924 70.663871
14107  1 22.162883 27.422435 74.701022
22423  1 20.614249 29.746441 74.704464
5791   1 21.388427 28.583884 76.724316
12017  1 22.935731 26.260925 76.723534
14206  1 22.156266 27.422948 78.747383
18265  1 23.865899 28.583884 76.724317
24491  1 20.458258 26.260925 76.723533
22522  1 20.615425 29.745448 78.746501
5890   1 21.379254 28.584810 80.769939
12116  1 22.914003 26.264512 80.775207
14305  1 22.129118 27.426932 82.798926
18364  1 23.856726 28.584811 80.769939
24590  1 20.436531 26.264511 80.775207
22621  1 20.609039 29.746024 82.792086
5989   1 21.350531 28.588352 84.821265
12215  1 22.859203 26.273170 84.835938
14404  1 22.061262 27.435883 86.861479
18463  1 23.828004 28.588352 84.821266
24689  1 20.381730 26.273170 84.835937
22720  1 20.586670 29.748202 86.842756
6088   1 21.268964 28.596586 88.884658
12314  1 22.736183 26.289170 88.913137
14503  1 21.878428 27.455698 90.946776
18562  1 23.746437 28.596586 88.884658
24788  1 20.258711 26.289169 88.913136
22819  1 20.506990 29.758954 90.902891
6187   1 20.918952 28.602237 92.974095
12413  1 22.473324 26.267975 92.977356
18661  1 23.396425 28.602237 92.974095
2128   1 21.115254 30.913089 12.065386
6286   1 22.781966 32.079651 10.052128
14602  1 23.592726 30.913089 12.065387
18759  1 20.304493 32.079650 10.052128
22918  1 21.834814 33.266317 12.041912
2227   1 21.122349 30.916221 16.072978
6385   1 22.729696 32.095063 14.061883
14701  1 23.599821 30.916221 16.072978
18858  1 20.252223 32.095063 14.061882
23017  1 21.896667 33.270482 16.077183
2326   1 21.127621 30.917465 20.110710
6484   1 22.759792 32.093082 18.091684
14800  1 23.605093 30.917466 20.110710
18957  1 20.282319 32.093082 18.091684
23116  1 21.932973 33.267819 20.114092
2425   1 21.131751 30.917330 24.155065
6583   1 22.775326 32.092113 22.133410
14899  1 23.609224 30.917330 24.155066
19056  1 20.297854 32.092112 22.133409
23215  1 21.951582 33.265482 24.157787
2524   1 21.135226 30.916409 28.202087
6682   1 22.783877 32.090583 26.179383
14998  1 23.612698 30.916409 28.202087
19155  1 20.306404 32.090583 26.179383
23314  1 21.960648 33.262798 28.204706
6781   1 22.788356 32.088567 30.227342
19254  1 20.310884 32.088567 30.227341
2623   1 21.138474 30.915116 32.250430
6880   1 22.789877 32.086138 34.276364
15097  1 23.615946 30.915116 32.250431
19353  1 20.312405 32.086138 34.276364
23413  1 21.963202 33.259643 32.253185
2722   1 21.141983 30.913643 36.299590
6979   1 22.788962 32.083309 38.326182
15196  1 23.619456 30.913644 36.299591
19452  1 20.311489 32.083309 38.326182
23512  1 21.960134 33.255846 36.302505
2821   1 21.146631 30.911983 40.349379
7078   1 22.786278 32.080369 42.376550
15295  1 23.624104 30.911984 40.349379
19551  1 20.308805 32.080369 42.376550
23611  1 21.951599 33.251612 40.352404
2920   1 21.154496 30.909908 44.398961
7177   1 22.782881 32.077945 46.426068
15394  1 23.631968 30.909909 44.398961
19650  1 20.305409 32.077945 46.426068
23710  1 21.937293 33.248173 44.402059
19749  1 20.302329 32.076371 50.470093
3019   1 21.171829 30.906644 48.445116
7276   1 22.779802 32.076371 50.470093
15493  1 23.649301 30.906644 48.445116
23809  1 21.913175 33.247467 48.448238
15592  1 21.231549 30.899085 52.474181
23908  1 21.848000 33.252881 52.477012
3119   1 23.709022 30.899085 52.474181
19848  1 20.300264 32.075981 54.470903
7375   1 22.777737 32.075981 54.470903
11533  1 23.616793 33.242406 56.487542
15691  1 21.931158 30.910444 56.483246
24007  1 21.139320 33.242406 56.487542
7474   1 21.536444 32.076515 58.541976
9553   1 22.860637 29.779707 58.499592
11632  1 23.302766 33.232185 60.560555
15790  1 22.245024 30.919952 60.557394
24106  1 20.825293 33.232185 60.560555
19948  1 24.013917 32.076515 58.541976
7573   1 21.535011 32.075690 62.587094
9652   1 23.017343 29.760982 62.572674
11731  1 23.257511 33.234960 64.608339
15889  1 22.290179 30.915710 64.605432
24205  1 20.780038 33.234960 64.608339
20047  1 24.012483 32.075690 62.587095
7672   1 21.535845 32.074782 66.629456
9751   1 23.064287 29.753332 66.621688
11830  1 23.244804 33.235958 68.649868
15988  1 22.306324 30.912355 68.647045
24304  1 20.767332 33.235958 68.649868
20146  1 24.013317 32.074782 66.629457
7771   1 21.538586 32.073302 70.668756
9850   1 23.083604 29.748924 70.663871
11929  1 23.244108 33.234881 72.689317
16087  1 22.314764 30.909834 72.686402
20245  1 24.016058 32.073302 70.668756
24403  1 20.766636 33.234881 72.689317
7870   1 21.543841 32.071230 74.707769
9949   1 23.091721 29.746441 74.704464
20344  1 24.021314 32.071230 74.707770
7969   1 21.552929 32.068777 78.748786
10048  1 23.092898 29.745448 78.746501
12028  1 23.252182 33.232209 76.729740
16186  1 22.320490 30.907845 76.726354
20443  1 24.030402 32.068777 78.748786
24502  1 20.774709 33.232209 76.729740
8068   1 21.569092 32.066339 82.793679
10147  1 23.086511 29.746024 82.792086
12127  1 23.271061 33.228430 80.773716
16285  1 22.325389 30.906492 80.768945
20542  1 24.046565 32.066340 82.793679
24601  1 20.793588 33.228429 80.773716
8167   1 21.602131 32.064566 86.843896
10246  1 23.064143 29.748202 86.842757
12226  1 23.309933 33.223993 84.823934
16384  1 22.330459 30.906118 84.815541
24700  1 20.832460 33.223992 84.823934
8266   1 21.691060 32.056319 90.902225
10345  1 22.984463 29.758954 90.902891
12325  1 23.402680 33.217657 88.886185
16483  1 22.335802 30.906765 88.865265
24799  1 20.925208 33.217656 88.886185
12424  1 23.773048 33.218912 92.975182
16582  1 22.342287 30.910621 92.937453
24898  1 21.295576 33.218912 92.975181
60     1 20.807006 34.439271 10.054682
4218   1 22.551567 35.621141 12.065507
12534  1 23.284479 34.439271 10.054682
20850  1 21.577897 36.772935 10.055409
8376   1 24.055369 36.772935 10.055409
159    1 21.011298 34.445166 14.062853
4317   1 22.683233 35.620816 16.085095
12633  1 23.488771 34.445166 14.062854
20949  1 21.783701 36.797288 14.080148
258    1 21.077721 34.444658 18.098295
4416   1 22.742617 35.617931 20.121277
12732  1 23.555194 34.444659 18.098295
16889  1 20.265144 35.617931 20.121277
21048  1 21.882442 36.794749 18.107087
357    1 21.113048 34.441241 22.138151
4515   1 22.773845 35.613542 24.163013
12831  1 23.590520 34.441241 22.138152
16988  1 20.296372 35.613542 24.163013
21147  1 21.932719 36.790152 22.145041
456    1 21.130730 34.437769 26.183067
4614   1 22.787936 35.609032 28.208800
12930  1 23.608202 34.437769 26.183067
17087  1 20.310464 35.609032 28.208799
21246  1 21.958048 36.784783 26.188331
555    1 21.137376 34.433980 30.230533
13029  1 23.614849 34.433980 30.230533
21345  1 21.966282 36.779287 30.234614
654    1 21.135194 34.429518 34.279103
4713   1 22.789515 35.604076 32.256395
13128  1 23.612666 34.429518 34.279104
17186  1 20.312043 35.604076 32.256395
21444  1 21.960021 36.773015 34.281733
753    1 21.124418 34.424200 38.328109
4812   1 22.779597 35.598110 36.304441
13227  1 23.601891 34.424200 38.328109
17285  1 20.302125 35.598109 36.304440
21543  1 21.939022 36.765506 38.328313
852    1 21.104436 34.419099 42.376863
4911   1 22.757572 35.591503 40.352061
13326  1 23.581909 34.419100 42.376863
17384  1 20.280099 35.591503 40.352060
21642  1 21.901674 36.758661 42.372784
951    1 21.071728 34.417073 46.422780
5010   1 22.721121 35.587116 44.397280
13425  1 23.549201 34.417074 46.422780
21741  1 21.841820 36.757870 46.410631
1050   1 21.004901 34.422345 50.456323
5109   1 22.658040 35.590053 48.433397
13524  1 23.482374 34.422346 50.456323
21840  1 21.731830 36.768411 50.431315
5208   1 22.509029 35.604018 52.442470
1149   1 20.755513 34.434552 54.448392
5307   1 22.121395 35.548815 56.464680
9465   1 23.978520 36.758821 54.450900
13623  1 23.232986 34.434553 54.448392
21939  1 21.501047 36.758820 54.450900
5406   1 21.844726 35.536959 60.532297
9564   1 23.663996 36.692945 58.491422
13722  1 22.687419 34.373569 58.506326
22038  1 21.186524 36.692945 58.491422
5505   1 21.740792 35.553105 64.597785
9663   1 23.499107 36.703489 62.558464
13821  1 22.529406 34.390716 62.578604
22137  1 21.021634 36.703489 62.558464
5604   1 21.703022 35.559250 68.646455
9762   1 23.425127 36.717328 66.618131
13920  1 22.483979 34.396532 66.627331
22236  1 20.947654 36.717328 66.618131
5703   1 21.693761 35.559804 72.689963
9861   1 23.397582 36.722164 70.666746
14019  1 22.469985 34.397941 70.669496
22335  1 20.920110 36.722164 70.666746
9960   1 23.397097 36.720733 74.712394
14118  1 22.472187 34.396147 74.710526
22434  1 20.919625 36.720733 74.712394
5802   1 21.703871 35.556260 76.733862
10059  1 23.419824 36.714428 78.760580
14217  1 22.488716 34.391919 78.754060
22533  1 20.942351 36.714427 78.760580
5901   1 21.734970 35.549455 80.782520
10158  1 23.472057 36.704041 82.816461
14316  1 22.525548 34.385785 82.803616
22632  1 20.994584 36.704040 82.816461
6000   1 21.799914 35.539510 84.841128
10257  1 23.573529 36.690223 86.885309
14415  1 22.604256 34.377134 86.864761
22731  1 21.096057 36.690222 86.885309
2040   1 20.323803 34.360197 90.949406
6099   1 21.935487 35.524853 88.917253
10356  1 23.757067 36.691919 90.954085
14514  1 22.801276 34.360198 90.949406
22830  1 21.279595 36.691918 90.954085
6198   1 22.216657 35.552137 92.980483
2139   1 20.862094 37.962284 12.069916
6297   1 22.410431 39.104553 10.049160
14613  1 23.339567 37.962285 12.069916
22929  1 21.689812 40.297886 12.064574
10455  1 24.167285 40.297886 12.064574
2238   1 21.005284 37.971414 16.097111
6396   1 22.590881 39.141904 14.084651
14712  1 23.482757 37.971415 16.097111
23028  1 21.826956 40.317331 16.100304
2337   1 21.082670 37.967202 20.129164
6495   1 22.698786 39.144089 18.115468
14811  1 23.560142 37.967202 20.129164
23127  1 21.910802 40.315105 20.135187
2436   1 21.123360 37.961239 24.169357
6594   1 22.759727 39.138194 22.151778
14910  1 23.600833 37.961239 24.169357
23226  1 21.957629 40.307835 24.175238
2535   1 21.141274 37.955027 28.213879
6693   1 22.790456 39.131249 26.194176
15009  1 23.618747 37.955027 28.213880
23325  1 21.977630 40.300349 28.219360
6792   1 22.799242 39.124360 30.239357
2634   1 21.141282 37.948528 32.260068
6891   1 22.788297 39.116728 34.284593
15108  1 23.618754 37.948529 32.260068
23424  1 21.975134 40.292845 32.264319
2733   1 21.124074 37.940768 36.305840
6990   1 22.756737 39.107424 38.327926
15207  1 23.601546 37.940768 36.305840
23523  1 21.950122 40.283808 36.307561
2832   1 21.088351 37.932152 40.349635
7089   1 22.702831 39.098944 42.367465
15306  1 23.565823 37.932152 40.349635
23622  1 21.900972 40.273246 40.347430
2931   1 21.031232 37.927227 44.388584
7188   1 22.622540 39.098209 46.399585
15405  1 23.508705 37.927227 44.388584
23721  1 21.827008 40.266687 44.382155
3030   1 20.940566 37.932482 48.416347
7287   1 22.502255 39.103809 50.425071
11346  1 24.202652 40.268562 48.411462
15504  1 23.418038 37.932482 48.416347
23820  1 21.725180 40.268562 48.411461
3129   1 20.784384 37.936590 52.437786
11445  1 24.059299 40.262906 52.442750
15603  1 23.261856 37.936591 52.437786
23919  1 21.581827 40.262905 52.442749
3228   1 20.525130 37.881637 56.470713
7386   1 22.313980 39.082315 54.456874
11544  1 23.865131 40.216052 56.480332
15702  1 23.002603 37.881637 56.470713
24018  1 21.387659 40.216052 56.480331
3327   1 20.318173 37.856650 60.520842
7485   1 22.094067 39.026918 58.496017
11643  1 23.703023 40.188244 60.523398
15801  1 22.795645 37.856650 60.520842
24117  1 21.225551 40.188244 60.523397
7584   1 21.953670 39.025341 62.549691
11742  1 23.603053 40.195364 64.577499
15900  1 22.684338 37.871174 64.583758
24216  1 21.125580 40.195364 64.577499
7683   1 21.875179 39.039010 66.608663
11841  1 23.548465 40.206269 68.633749
15999  1 22.631694 37.882085 68.639659
24315  1 21.070993 40.206269 68.633748
7782   1 21.840341 39.046427 70.662579
11940  1 23.530113 40.209624 72.687118
16098  1 22.616049 37.884434 72.688858
24414  1 21.052640 40.209624 72.687118
7881   1 21.838189 39.045350 74.713231
7980   1 21.865055 39.037204 78.765838
12039  1 23.542911 40.204499 76.739877
16197  1 22.627755 37.880004 76.737605
24513  1 21.065438 40.204498 76.739877
8079   1 21.924976 39.024172 82.824849
12138  1 23.586794 40.192856 80.796045
16296  1 22.667570 37.870142 80.791320
24612  1 21.109321 40.192855 80.796045
8178   1 22.027523 39.013790 86.889061
12237  1 23.666293 40.180449 84.856585
16395  1 22.745757 37.856583 84.854550
24711  1 21.188821 40.180448 84.856585
4020   1 20.402291 37.850135 88.922116
8277   1 22.186885 39.031060 90.945551
12336  1 23.789524 40.183739 88.914782
16494  1 22.879763 37.850136 88.922116
24810  1 21.312052 40.183739 88.914782
4119   1 20.617895 37.893224 92.972504
12435  1 23.969204 40.231973 92.961404
16593  1 23.095368 37.893225 92.972504
24909  1 21.491732 40.231973 92.961404
71     1 20.785600 41.437156 10.038627
4229   1 22.538312 42.632175 12.054166
12545  1 23.263073 41.437156 10.038627
20861  1 21.647769 43.770575 10.025535
8387   1 24.125241 43.770576 10.025535
170    1 20.947079 41.481389 14.079929
4328   1 22.668566 42.658841 16.095823
12644  1 23.424552 41.481389 14.079930
20960  1 21.798989 43.818429 14.069812
8486   1 24.276462 43.818429 14.069812
269    1 21.054251 41.489855 18.117380
4427   1 22.752936 42.659723 20.136385
12743  1 23.531723 41.489856 18.117380
21059  1 21.903842 43.831530 18.113245
368    1 21.119328 41.484411 22.156473
4526   1 22.801845 42.652245 24.179471
12842  1 23.596800 41.484411 22.156473
21158  1 21.969323 43.827253 22.157719
467    1 21.152901 41.476384 26.199632
4625   1 22.821888 42.644212 28.224777
12941  1 23.630374 41.476384 26.199633
21257  1 22.002946 43.819092 26.204087
566    1 21.160797 41.468744 30.244586
13040  1 23.638270 41.468744 30.244586
21356  1 22.008202 43.811681 30.250218
665    1 21.144361 41.460435 34.288221
4724   1 22.815643 42.636554 32.269358
13139  1 23.621833 41.460435 34.288221
21455  1 21.985248 43.803611 34.293164
764    1 21.102091 41.449595 38.328540
4823   1 22.782277 42.626823 36.310621
13238  1 23.579563 41.449595 38.328540
21554  1 21.932153 43.791286 38.331551
863    1 21.033534 41.438543 42.364734
4922   1 22.720377 42.613767 40.347796
13337  1 23.511007 41.438543 42.364734
21653  1 21.850590 43.775941 42.366699
9179   1 24.328062 43.775942 42.366699
962    1 20.941391 41.434389 46.396951
5021   1 22.633806 42.603163 44.381881
9278   1 24.227964 43.766420 46.401215
13436  1 23.418864 41.434389 46.396951
21752  1 21.750491 43.766420 46.401215
1061   1 20.822913 41.433009 50.428983
5120   1 22.528082 42.599516 48.415215
9377   1 24.113159 43.759683 50.437687
13535  1 23.300385 41.433009 50.428983
21851  1 21.635686 43.759683 50.437686
5219   1 22.397978 42.588271 52.451980
3140   1 20.744052 44.914568 52.462400
1160   1 20.665934 41.408343 54.466418
5318   1 22.241921 42.550509 56.490929
9476   1 23.977443 43.736601 54.476915
13634  1 23.143406 41.408343 54.466418
21950  1 21.499971 43.736601 54.476915
3239   1 20.612251 44.885414 56.500957
1259   1 20.496721 41.364323 58.505197
5417   1 22.109183 42.524943 60.530824
9575   1 23.839422 43.702592 58.515059
13733  1 22.974193 41.364323 58.505197
22049  1 21.361949 43.702592 58.515058
3338   1 20.500169 44.863977 60.539126
15812  1 22.977641 44.863977 60.539126
5516   1 22.022247 42.526184 64.578462
9674   1 23.738532 43.691968 62.556783
13832  1 22.855970 41.356056 62.551054
22148  1 21.261059 43.691967 62.556783
15911  1 22.902185 44.861744 64.582918
5615   1 21.972467 42.534131 68.631653
9773   1 23.675519 43.696609 66.605694
13931  1 22.784151 41.365229 66.604652
22247  1 21.198047 43.696609 66.605693
16010  1 22.858826 44.866299 68.632943
5714   1 21.955159 42.536914 72.685964
9872   1 23.644433 43.701632 70.658812
14030  1 22.749283 41.372358 70.659465
22346  1 21.166961 43.701632 70.658812
16109  1 22.844257 44.867648 72.686075
9971   1 23.643277 43.699959 74.712918
14129  1 22.746999 41.371246 74.713229
22445  1 21.165805 43.699959 74.712918
5813   1 21.968604 42.531393 76.740270
10070  1 23.671713 43.690913 78.766893
14228  1 22.775567 41.362156 78.767934
22544  1 21.194240 43.690912 78.766893
16208  1 22.857960 44.862027 76.739475
5912   1 22.012649 42.519735 80.795429
10169  1 23.730382 43.679461 82.820277
14327  1 22.836283 41.349318 82.825307
22643  1 21.252910 43.679460 82.820277
16307  1 22.900434 44.851242 80.791559
1952   1 20.455949 41.344301 86.882634
3932   1 20.496093 44.843552 84.841448
6011   1 22.089085 42.510046 84.850788
10268  1 23.822514 43.678094 86.871615
14426  1 22.933421 41.344301 86.882634
22742  1 21.345042 43.678093 86.871615
16406  1 22.973565 44.843552 84.841448
2051   1 20.598745 41.369782 90.933125
4031   1 20.605675 44.855303 88.888754
6110   1 22.203704 42.519469 88.902701
10367  1 23.955863 43.706798 90.918934
14525  1 23.076218 41.369782 90.933125
22841  1 21.478390 43.706798 90.918934
16505  1 23.083147 44.855303 88.888755
4130   1 20.757394 44.903726 92.933787
6209   1 22.364048 42.568620 92.948281
2150   1 20.922239 44.966670 12.040765
6308   1 22.515520 46.104627 10.010747
14624  1 23.399712 44.966671 12.040765
22940  1 21.793431 47.301969 12.025457
10466  1 24.270903 47.301969 12.025457
181    1 21.065939 48.490166 14.041392
2249   1 21.049181 44.997212 16.086341
6407   1 22.664863 46.154499 14.056476
12655  1 23.543411 48.490166 14.041392
14723  1 23.526654 44.997212 16.086341
23039  1 21.922081 47.333194 16.074015
10565  1 24.399553 47.333195 16.074015
280    1 21.173224 48.503193 18.095140
2348   1 21.132800 45.000151 20.133123
6506   1 22.769230 46.169339 18.105070
12754  1 23.650697 48.503194 18.095140
14822  1 23.610272 45.000151 20.133124
23138  1 22.006123 47.335903 20.127152
379    1 21.238137 48.498603 22.152945
2447   1 21.181257 44.993078 24.181497
6605   1 22.834153 46.165600 22.156023
12853  1 23.715610 48.498603 22.152945
14921  1 23.658729 44.993078 24.181497
23237  1 22.053129 47.329162 24.181857
478    1 21.266307 48.492381 26.209744
2546   1 21.199121 44.985576 28.229887
6704   1 22.865781 46.158110 26.207378
12952  1 23.743779 48.492381 26.209745
15020  1 23.676593 44.985577 28.229887
23336  1 22.066785 47.323340 28.234546
577    1 21.260127 48.489473 30.261977
6803   1 22.866386 46.152234 30.256158
13051  1 23.737599 48.489473 30.261978
676    1 21.219685 48.485775 34.307337
2645   1 21.187575 44.978937 32.275351
6902   1 22.835569 46.145596 34.299667
13150  1 23.697157 48.485775 34.307337
15119  1 23.665047 44.978937 32.275351
23435  1 22.048047 47.319188 32.282141
775    1 21.141974 48.471267 38.345675
2744   1 21.145113 44.969200 36.315759
7001   1 22.771006 46.131889 38.337447
13249  1 23.619447 48.471267 38.345676
15218  1 23.622586 44.969200 36.315760
23534  1 21.995258 47.310431 36.323014
874    1 21.030400 48.442960 42.381637
2843   1 21.070636 44.952755 40.351839
7100   1 22.675971 46.110694 42.372837
13348  1 23.507873 48.442960 42.381637
15317  1 23.548109 44.952755 40.351840
23633  1 21.906840 47.289936 40.359070
11159  1 24.384312 47.289937 40.359070
973    1 20.911440 48.422489 46.419574
2942   1 20.972792 44.936260 44.387004
7199   1 22.567802 46.095406 46.409571
11258  1 24.273416 47.266444 44.395528
13447  1 23.388912 48.422489 46.419575
15416  1 23.450264 44.936261 44.387005
23732  1 21.795944 47.266444 44.395528
1072   1 20.798229 48.413096 50.457527
3041   1 20.864398 44.927477 48.423601
7298   1 22.455046 46.085957 50.447932
11357  1 24.160736 47.254148 48.433689
13546  1 23.275701 48.413096 50.457527
15515  1 23.341870 44.927477 48.423601
23831  1 21.683264 47.254148 48.433689
11456  1 24.046602 47.242574 52.472071
15614  1 23.221525 44.914569 52.462400
23930  1 21.569130 47.242573 52.472071
1171   1 20.686649 48.399318 54.494306
7397   1 22.333679 46.066890 54.486692
11555  1 23.931223 47.221302 56.509179
13645  1 23.164122 48.399318 54.494306
15713  1 23.089724 44.885414 56.500957
24029  1 21.453751 47.221302 56.509179
1270   1 20.584861 48.381125 58.530217
7496   1 22.216601 46.041448 58.523825
11654  1 23.834685 47.204418 60.546237
13744  1 23.062334 48.381125 58.530217
24128  1 21.357213 47.204418 60.546237
7595   1 22.129461 46.030919 62.563395
11753  1 23.769145 47.200502 64.588091
13843  1 22.986770 48.371801 62.568904
24227  1 21.291673 47.200502 64.588091
7694   1 22.074769 46.032205 66.609291
11852  1 23.731928 47.202283 68.635946
13942  1 22.939587 48.370911 66.613378
24326  1 21.254455 47.202282 68.635946
7793   1 22.048272 46.034824 70.660246
11951  1 23.720103 47.202227 72.687358
14041  1 22.917235 48.371592 70.662746
24425  1 21.242630 47.202227 72.687358
7892   1 22.048449 46.032499 74.712974
14140  1 22.918149 48.368920 74.713823
7991   1 22.075765 46.024082 78.764551
12050  1 23.733436 47.196856 76.738801
14239  1 22.943382 48.361548 78.762914
24524  1 21.255963 47.196855 76.738801
8090   1 22.131835 46.013931 82.813270
12149  1 23.773539 47.187231 80.787297
14338  1 22.996339 48.352429 82.807356
24623  1 21.296066 47.187231 80.787297
1963   1 20.605885 48.351062 86.847840
8189   1 22.220780 46.013687 86.859205
12248  1 23.843944 47.180248 84.831858
14437  1 23.083358 48.351062 86.847840
24722  1 21.366471 47.180248 84.831858
2062   1 20.736838 48.376054 90.889067
8288   1 22.350464 46.042101 90.903939
12347  1 23.951665 47.190929 88.874646
14536  1 23.214310 48.376054 90.889068
24821  1 21.474192 47.190929 88.874646
82     1 20.909622 48.439382  9.994951
12556  1 23.387094 48.439382  9.994951
12446  1 24.103426 47.237602 92.918510
16604  1 23.234866 44.903726 92.933788
24920  1 21.625954 47.237602 92.918510
2161   1 21.088038 51.976140 11.992869
4240   1 22.673848 49.638429 12.009113
14635  1 23.565511 51.976140 11.992869
2260   1 21.240291 51.996173 16.050511
4339   1 22.810389 49.666659 16.060992
14734  1 23.717763 51.996173 16.050510
20971  1 21.958566 50.825141 14.026240
8497   1 24.436039 50.825141 14.026240
2359   1 21.331051 51.990574 20.117457
4438   1 22.897089 49.666326 20.120885
14833  1 23.808524 51.990575 20.117457
21070  1 22.073011 50.832245 18.086425
2458   1 21.372270 51.984497 24.181224
4537   1 22.942112 49.659673 24.181560
14932  1 23.849743 51.984497 24.181224
21169  1 22.138347 50.825620 22.150484
2557   1 21.371661 51.984984 28.239852
4636   1 22.949572 49.656630 28.238320
15031  1 23.849133 51.984984 28.239852
21268  1 22.161363 50.821335 26.211101
21367  1 22.146361 50.822599 30.266459
2656   1 21.332787 51.990065 32.293775
4735   1 22.921566 49.656525 32.288891
15130  1 23.810259 51.990066 32.293775
21466  1 22.094325 50.823553 34.314973
2755   1 21.253207 51.988432 36.340180
4834   1 22.856565 49.650257 36.331621
15229  1 23.730680 51.988433 36.340180
21565  1 22.000603 50.809652 38.355108
9091   1 24.478075 50.809653 38.355108
2854   1 21.124779 51.960075 40.378069
4933   1 22.750927 49.625548 40.368262
9190   1 24.343913 50.773020 42.391477
15328  1 23.602251 51.960075 40.378069
21664  1 21.866441 50.773019 42.391477
2953   1 20.970483 51.920458 44.415050
5032   1 22.622351 49.594323 44.405466
9289   1 24.209455 50.748704 46.429168
15427  1 23.447956 51.920458 44.415050
21763  1 21.731983 50.748704 46.429168
3052   1 20.839874 51.908790 48.450095
5131   1 22.502491 49.580822 48.443255
9388   1 24.093304 50.742135 50.464447
15526  1 23.317346 51.908791 48.450095
21862  1 21.615832 50.742135 50.464447
3151   1 20.731050 51.906018 52.482085
5230   1 22.391758 49.572854 52.479265
15625  1 23.208522 51.906018 52.482085
3250   1 20.638462 51.897639 56.515398
5329   1 22.288481 49.558637 56.514346
9487   1 23.989006 50.734162 54.498238
15724  1 23.115934 51.897639 56.515398
21961  1 21.511533 50.734162 54.498238
5428   1 22.204801 49.545928 60.550913
9586   1 23.899927 50.721806 58.533273
15823  1 23.044401 51.888204 60.552589
22060  1 21.422454 50.721805 58.533273
5527   1 22.148275 49.541376 64.592330
9685   1 23.835066 50.713916 62.572283
15922  1 22.996673 51.883531 64.594884
22159  1 21.357594 50.713916 62.572283
5626   1 22.116553 49.541226 68.639229
9784   1 23.794878 50.711740 66.616709
16021  1 22.969928 51.882225 68.641904
22258  1 21.317405 50.711740 66.616709
5725   1 22.106774 49.540229 72.689368
9883   1 23.775962 50.711162 70.665406
16120  1 22.961393 51.880826 72.691556
22357  1 21.298489 50.711162 70.665406
9982   1 23.776709 50.708568 74.715429
22456  1 21.299237 50.708568 74.715429
5824   1 22.118759 49.535512 76.739170
10081  1 23.798486 50.702644 78.763100
16219  1 22.970914 51.877089 76.740627
22555  1 21.321014 50.702643 78.763100
5923   1 22.155247 49.527350 80.784956
10180  1 23.846421 50.694829 82.804897
16318  1 23.001683 51.870853 80.785559
22654  1 21.368948 50.694829 82.804897
6022   1 22.222355 49.520314 84.824839
10279  1 23.930584 50.691195 86.840143
16417  1 23.062267 51.864259 84.822929
22753  1 21.453112 50.691195 86.840143
4042   1 20.691487 51.865277 88.853772
6121   1 22.330189 49.527023 88.862116
10378  1 24.066570 50.709370 90.875666
16516  1 23.168960 51.865277 88.853772
22852  1 21.589098 50.709370 90.875666
4141   1 20.869129 51.901912 92.889060
20872  1 21.784186 50.775230  9.978855
6220   1 22.490410 49.570349 92.903223
16615  1 23.346602 51.901912 92.889060
8398   1 24.261659 50.775230  9.978855
22951  1 21.999024 54.313950 11.979261
10477  1 24.476496 54.313951 11.979261
192    1 21.342274 55.481330 14.013217
6418   1 22.871120 53.157522 14.014191
12666  1 23.819747 55.481330 14.013217
23050  1 22.175386 54.318269 16.048580
291    1 21.468971 55.470014 18.090003
6517   1 22.995870 53.154754 18.083346
12765  1 23.946444 55.470014 18.090003
23149  1 22.264962 54.308840 20.119535
390    1 21.519054 55.465002 22.151344
6616   1 23.058682 53.146903 22.150235
12864  1 23.996526 55.465003 22.151343
23248  1 22.297602 54.305075 24.180208
489    1 21.525525 55.465765 26.206120
6715   1 23.074176 53.145285 26.210333
12963  1 24.002997 55.465765 26.206120
23347  1 22.288828 54.308468 28.236936
588    1 21.494539 55.473596 30.261435
6814   1 23.049629 53.150855 30.267272
13062  1 23.972011 55.473596 30.261435
687    1 21.418218 55.486870 34.319977
6913   1 22.984616 53.157955 34.320409
13161  1 23.895691 55.486870 34.319977
23446  1 22.239782 54.318461 32.293729
786    1 21.279047 55.484144 38.371757
7012   1 22.870794 53.147348 38.364385
13260  1 23.756519 55.484144 38.371757
23545  1 22.143490 54.324107 36.346535
885    1 21.058918 55.426648 42.408258
7111   1 22.703515 53.100980 42.400882
11170  1 24.460681 54.294074 40.387251
13359  1 23.536391 55.426649 42.408258
23644  1 21.983208 54.294073 40.387251
984    1 20.869699 55.404402 46.437400
7210   1 22.546607 53.075303 46.436176
11269  1 24.266759 54.245608 44.422371
13458  1 23.347172 55.404402 46.437400
23743  1 21.789286 54.245608 44.422371
1083   1 20.746481 55.410418 50.460429
7309   1 22.425951 53.074210 50.466319
11368  1 24.121961 54.239744 48.451339
13557  1 23.223953 55.410418 50.460429
23842  1 21.644489 54.239744 48.451339
11467  1 24.016430 54.242522 52.478657
23941  1 21.538957 54.242522 52.478657
7408   1 22.329071 53.071574 54.497122
11566  1 23.936251 54.238025 56.512047
13656  1 23.138683 55.411095 54.490622
24040  1 21.458779 54.238025 56.512048
7507   1 22.252745 53.063333 58.532648
11665  1 23.877648 54.230756 60.551522
13755  1 23.077219 55.405113 58.529062
24139  1 21.400176 54.230755 60.551522
7606   1 22.198742 53.056654 62.573317
11764  1 23.838861 54.226281 64.595692
13854  1 23.034614 55.399459 62.572446
24238  1 21.361389 54.226281 64.595692
7705   1 22.165342 53.053853 66.618742
11863  1 23.816742 54.224482 68.643540
13953  1 23.007902 55.396605 66.619420
24337  1 21.339269 54.224482 68.643540
7804   1 22.149257 53.052658 70.667578
11962  1 23.808789 54.223143 72.693343
14052  1 22.994205 55.395331 70.668835
24436  1 21.331316 54.223143 72.693343
7903   1 22.148943 53.050518 74.717345
14151  1 22.992123 55.393897 74.718857
8002   1 22.165799 53.046247 78.764817
12061  1 23.814794 54.220589 76.742531
14250  1 23.002701 55.391353 78.766973
24535  1 21.337321 54.220589 76.742531
8101   1 22.205210 53.040507 82.806735
12160  1 23.837793 54.216385 80.788000
14349  1 23.030684 55.387685 82.810223
24634  1 21.360320 54.216384 80.788000
8200   1 22.281008 53.035605 86.839283
12259  1 23.885756 54.211788 84.827006
14448  1 23.086899 55.384754 86.846876
24733  1 21.408284 54.211788 84.827007
2073   1 20.737248 55.383799 90.866027
8299   1 22.421511 53.043779 90.866237
12358  1 23.981790 54.208626 88.853950
14547  1 23.214721 55.383799 90.866027
24832  1 21.504317 54.208626 88.853950
93     1 21.067381 55.452828  9.950202
6319   1 22.661582 53.112898  9.963396
12567  1 23.544854 55.452828  9.950202
12457  1 24.183580 54.232342 92.878190
24931  1 21.706107 54.232342 92.878190
2172   1 21.596722 58.946746 12.018692
4251   1 22.959506 56.644156 11.978194
14646  1 24.074195 58.946746 12.018692
2271   1 21.681003 58.940828 16.076312
4350   1 23.149882 56.629788 16.062368
14745  1 24.158475 58.940829 16.076312
20982  1 22.357780 57.787223 14.037658
16922  1 20.740285 56.624746 20.124476
2370   1 21.704877 58.941893 20.126010
4449   1 23.217758 56.624746 20.124476
14844  1 24.182350 58.941894 20.126010
21081  1 22.442957 57.783609 18.099668
17021  1 20.758957 56.624065 24.177343
2469   1 21.706120 58.943465 24.171970
4548   1 23.236430 56.624065 24.177343
14943  1 24.183592 58.943466 24.171970
21180  1 22.468832 57.783038 22.150935
17120  1 20.744748 56.628337 28.228507
2568   1 21.689863 58.947196 28.217030
4647   1 23.222221 56.628337 28.228507
15042  1 24.167335 58.947196 28.217030
21279  1 22.466034 57.785135 26.198734
21378  1 22.435754 57.791832 30.248294
2667   1 21.647122 58.955172 32.266203
4746   1 23.169725 56.639921 32.284724
15141  1 24.124595 58.955173 32.266203
21477  1 22.359620 57.806615 34.307756
2766   1 21.539582 58.972660 36.331271
4845   1 23.058228 56.654498 36.346658
15240  1 24.017054 58.972660 36.331271
21576  1 22.192543 57.817533 38.373469
2865   1 21.257633 58.960118 40.397263
4944   1 22.850090 56.627957 40.394390
9201   1 24.352893 57.749723 42.411150
15339  1 23.735105 58.960119 40.397263
21675  1 21.875420 57.749723 42.411150
2964   1 20.868782 58.903880 44.415678
5043   1 22.589858 56.571634 44.424412
9300   1 24.120503 57.739685 46.427470
15438  1 23.346254 58.903881 44.415678
21774  1 21.643031 57.739685 46.427470
5142   1 22.431355 56.575814 48.443033
9399   1 24.006952 57.750739 50.445406
15537  1 23.194073 58.918190 48.421784
21873  1 21.529480 57.750739 50.445406
5241   1 22.336605 56.581951 52.468385
15636  1 23.126825 58.921926 52.455398
5340   1 22.273441 56.578831 56.505628
9498   1 23.942193 57.751184 54.481071
15735  1 23.084759 58.919038 56.498715
21972  1 21.464720 57.751184 54.481071
5439   1 22.228925 56.573038 60.548684
9597   1 23.897850 57.746440 58.524146
15834  1 23.054926 58.914722 60.545325
22071  1 21.420377 57.746439 58.524146
5538   1 22.199192 56.569135 64.595110
9696   1 23.866958 57.741953 62.570457
15933  1 23.034168 58.911846 64.593650
22170  1 21.389486 57.741953 62.570457
5637   1 22.181435 56.567414 68.644003
9795   1 23.846794 57.739582 66.618936
16032  1 23.020555 58.910678 68.643326
22269  1 21.369322 57.739582 66.618936
5736   1 22.173601 56.566478 72.694191
9894   1 23.835177 57.738663 70.668923
16131  1 23.012561 58.910401 72.693701
22368  1 21.357705 57.738662 70.668923
9993   1 23.830874 57.738077 74.719215
22467  1 21.353401 57.738077 74.719215
5835   1 22.175297 56.565168 76.743841
10092  1 23.834200 57.737193 78.768025
16230  1 23.009497 58.910314 76.743520
22566  1 21.356727 57.737192 78.768025
5934   1 22.188620 56.563055 80.790548
10191  1 23.847905 57.735884 82.812979
16329  1 23.011868 58.910203 80.791011
22665  1 21.370432 57.735884 82.812979
6033   1 22.220022 56.560153 84.831327
10290  1 23.879748 57.733682 86.850281
16428  1 23.022156 58.910118 84.833455
22764  1 21.402275 57.733681 86.850281
6132   1 22.282464 56.559628 88.866740
10389  1 23.936719 57.737814 90.885097
16527  1 23.047290 58.908608 88.863192
22863  1 21.459246 57.737813 90.885097
20883  1 21.994568 57.784703  9.950025
6231   1 22.481804 56.564998 92.873930
16626  1 22.988569 58.923719 92.871905
8409   1 24.472040 57.784703  9.950024
22962  1 22.787001 61.243136 12.013497
18902  1 20.953548 60.096829 14.052439
104    1 22.026954 62.406604 14.027494
6429   1 23.431021 60.096829 14.052439
12578  1 24.504427 62.406605 14.027494
23061  1 22.703502 61.256097 16.070925
19001  1 20.952544 60.099818 18.100609
203    1 21.940462 62.416195 18.088432
6528   1 23.430016 60.099818 18.100608
12677  1 24.417934 62.416196 18.088432
23160  1 22.674080 61.260225 20.119874
19100  1 20.947398 60.102209 22.146524
302    1 21.904900 62.421552 22.137766
6627   1 23.424871 60.102210 22.146524
12776  1 24.382372 62.421552 22.137766
23259  1 22.657107 61.263536 24.164460
19199  1 20.935881 60.104954 26.189941
401    1 21.885836 62.425139 26.182007
6726   1 23.413353 60.104954 26.189941
12875  1 24.363309 62.425139 26.182007
23358  1 22.641321 61.266650 28.206746
19298  1 20.912837 60.109298 30.233543
500    1 21.873717 62.427707 30.224282
6825   1 23.390310 60.109298 30.233543
12974  1 24.351189 62.427707 30.224282
19397  1 20.861438 60.117024 34.282534
599    1 21.865269 62.429738 34.267716
6924   1 23.338910 60.117024 34.282534
13073  1 24.342742 62.429738 34.267716
23457  1 22.618972 61.270500 32.249618
698    1 21.862600 62.433102 38.312193
7023   1 23.175852 60.136251 38.354094
23556  1 22.567959 61.275506 36.297404
13172  1 24.340072 62.433102 38.312193
797    1 23.087220 62.431749 42.380354
7122   1 22.624149 60.073680 42.409571
11181  1 24.721013 61.264741 40.369521
23655  1 22.243541 61.264741 40.369521
896    1 23.079458 62.431329 46.379249
7221   1 22.373191 60.085621 46.397927
11280  1 24.011385 61.254791 44.376025
23754  1 21.533913 61.254791 44.376025
995    1 23.072361 62.430279 50.420989
7320   1 22.302499 60.091409 50.428843
11379  1 23.942186 61.260600 48.402326
23853  1 21.464713 61.260599 48.402326
11478  1 23.914006 61.260601 52.446122
23952  1 21.436534 61.260601 52.446122
7419   1 22.265160 60.090414 54.472521
11577  1 23.894677 61.258341 56.493801
13568  1 23.064707 62.428683 54.468304
24051  1 21.417205 61.258341 56.493801
7518   1 22.238977 60.086986 58.519698
11676  1 23.879527 61.255852 60.542515
13667  1 23.056778 62.426972 58.517026
24150  1 21.402055 61.255852 60.542515
7617   1 22.219751 60.084036 62.568149
11775  1 23.867565 61.254402 64.591778
13766  1 23.049039 62.425870 62.566113
24249  1 21.390093 61.254402 64.591778
20091  1 24.697223 60.084036 62.568149
7716   1 22.205952 60.082611 66.617570
11874  1 23.857942 61.254141 68.641636
13865  1 23.041473 62.425695 66.615588
24348  1 21.380469 61.254141 68.641636
20190  1 24.683425 60.082611 66.617570
7815   1 22.196221 60.082380 70.667744
11973  1 23.849667 61.254719 72.691706
13964  1 23.033554 62.426382 70.665364
24447  1 21.372195 61.254719 72.691706
20289  1 24.673694 60.082381 70.667744
7914   1 22.189480 60.082743 74.717883
14063  1 23.024366 62.427802 74.714725
20388  1 24.666953 60.082744 74.717883
8013   1 22.185102 60.083405 78.766632
12072  1 23.841720 61.255861 76.740966
14162  1 23.012353 62.429994 78.762314
24546  1 21.364247 61.255861 76.740966
20487  1 24.662575 60.083405 78.766632
8112   1 22.182853 60.084517 82.812045
12171  1 23.832771 61.257636 80.787839
14261  1 22.994304 62.433417 82.806085
24645  1 21.355298 61.257636 80.787839
20586  1 24.660325 60.084517 82.812045
8211   1 22.182672 60.086603 86.849943
12270  1 23.820129 61.260727 84.829728
14360  1 22.962402 62.439645 86.842403
24744  1 21.342656 61.260727 84.829728
20685  1 24.660145 60.086604 86.849943
8310   1 22.184103 60.090152 90.857087
12369  1 23.796617 61.267796 88.859006
14459  1 22.909080 62.442619 90.876472
24843  1 21.319144 61.267796 88.859006
20784  1 24.661575 60.090152 90.857087
18803  1 20.952644 60.092528  9.982023
5      1 22.384659 62.401226  9.940518
6330   1 23.430117 60.092529  9.982024
12468  1 23.858826 61.261261 92.867205
24942  1 21.381353 61.261260 92.867205
14558  1 23.429216  2.844214 11.957648
2085   1 25.906688  2.844215 11.957648
16637  1 24.945640  0.512800 11.964083
2184   1 25.735441  2.846072 16.024613
8420   1 24.088288  1.679645 13.994301
16736  1 24.758182  0.533910 16.046871
20895  1 26.565760  1.679646 13.994301
4263   1 27.235654  0.533910 16.046871
2283   1 25.643737  2.860013 20.092696
8519   1 23.962074  1.696567 18.068836
16835  1 24.685882  0.544030 20.106866
20994  1 26.439546  1.696568 18.068836
4362   1 27.163354  0.544030 20.106866
2382   1 25.600629  2.868235 24.149492
8618   1 23.904268  1.706143 22.127024
16934  1 24.653122  0.549656 24.156250
21093  1 26.381740  1.706143 22.127024
4461   1 27.130594  0.549657 24.156250
2481   1 25.589652  2.871125 28.200887
8717   1 23.879752  1.711046 26.176760
17033  1 24.639307  0.552644 28.201057
21192  1 26.357224  1.711046 26.176760
4560   1 27.116779  0.552645 28.201057
8816   1 23.879202  1.712094 30.223973
21291  1 26.356674  1.712094 30.223973
2580   1 25.612993  2.868091 32.253943
8915   1 23.913575  1.708711 34.275093
17132  1 24.641567  0.553348 32.245398
21390  1 26.391048  1.708711 34.275093
4659   1 27.119040  0.553348 32.245398
2679   1 25.705338  2.855037 36.321382
9014   1 24.062251  1.693907 38.347990
17231  1 24.678636  0.552546 36.293863
21489  1 26.539723  1.693908 38.347990
4758   1 27.156108  0.552546 36.293863
2778   1 25.969888  2.868485 40.389555
9113   1 24.593124  1.755783 42.404209
15251  1 23.492415  2.868485 40.389555
17330  1 24.981956  0.563273 40.366848
21588  1 27.070596  1.755783 42.404209
2877   1 26.343472  2.925348 44.409736
9212   1 24.831423  1.743309 46.394329
15350  1 23.865999  2.925348 44.409735
17429  1 25.677117  0.574721 44.373656
2976   1 26.481250  2.909883 48.417077
9311   1 24.887418  1.735565 50.425919
15449  1 24.003778  2.909882 48.417076
17528  1 25.732231  0.567540 48.400777
3075   1 24.055720  2.903623 52.451115
5154   1 25.745609  0.564889 52.444692
15549  1 26.533193  2.903624 52.451115
3174   1 24.081703  2.902999 56.494338
5253   1 25.749178  0.563654 56.492324
15648  1 26.559176  2.903000 56.494338
21885  1 24.909260  1.733387 54.469649
3273   1 24.095561  2.904369 60.540506
5352   1 25.748563  0.563185 60.540878
15747  1 26.573033  2.904370 60.540506
21984  1 24.919447  1.733383 58.516635
3372   1 24.101027  2.906091 64.587899
5451   1 25.745290  0.563357 64.589817
15846  1 26.578499  2.906091 64.587899
22083  1 24.923129  1.734163 62.564629
3471   1 24.099424  2.908013 68.635977
5550   1 25.739617  0.564191 68.639117
15945  1 26.576897  2.908013 68.635977
22182  1 24.921799  1.735320 66.613197
3570   1 24.090905  2.910628 72.683914
5649   1 25.731102  0.565766 72.688317
16044  1 26.568377  2.910629 72.683914
22281  1 24.915769  1.737023 70.661996
22380  1 24.904352  1.739598 74.710063
3669   1 24.074127  2.914457 76.730181
5748   1 25.718458  0.568215 76.736262
16143  1 26.551599  2.914457 76.730181
22479  1 24.885323  1.743385 78.755720
3768   1 24.045305  2.919861 80.772613
5847   1 25.698786  0.571852 80.781125
16242  1 26.522777  2.919861 80.772614
22578  1 24.853499  1.748816 82.796670
3867   1 23.996341  2.926577 84.809143
5946   1 25.665463  0.577481 84.820307
16341  1 26.473814  2.926578 84.809144
22677  1 24.798132  1.755311 86.831561
3966   1 23.904503  2.934347 88.834540
6045   1 25.605539  0.583289 88.854522
10302  1 27.153600  1.762759 90.849825
16440  1 26.381975  2.934347 88.834541
22776  1 24.676127  1.762759 90.849825
8321   1 24.355877  1.700931  9.933013
20796  1 26.833350  1.700932  9.933014
4065   1 23.712060  2.918269 92.857904
6144   1 25.413438  0.585565 92.861405
16539  1 26.189533  2.918269 92.857904
10400  1 24.342480  5.183194 11.964903
22875  1 26.819953  5.183194 11.964903
12589  1 23.479423  6.337764 13.994692
116    1 25.956896  6.337765 13.994692
10499  1 24.198159  5.168705 16.020163
18815  1 25.039538  4.004508 13.988057
22974  1 26.675632  5.168706 16.020163
215    1 25.848894  6.334047 18.052851
10598  1 24.108630  5.177533 20.084669
18914  1 24.917791  4.012031 18.054529
23073  1 26.586103  5.177533 20.084669
314    1 25.784135  6.342415 22.115555
10697  1 24.062520  5.186408 24.146248
19013  1 24.850745  4.023519 22.118398
23172  1 26.539992  5.186408 24.146248
413    1 25.758058  6.348007 26.176518
10796  1 24.054522  5.188754 28.204491
19112  1 24.823852  4.029433 26.175055
23271  1 26.531995  5.188755 28.204492
6639   1 27.301324  4.029434 26.175055
512    1 25.771661  6.345741 30.237504
19211  1 24.832704  4.028546 30.230384
6738   1 27.310177  4.028546 30.230385
611    1 25.833150  6.337109 34.300553
10895  1 24.089509  5.182370 32.265779
19310  1 24.892317  4.018474 34.293622
23370  1 26.566982  5.182370 32.265779
13183  1 23.481052  6.343132 38.356204
710    1 25.958525  6.343132 38.356205
10994  1 24.186340  5.172099 36.331444
19409  1 25.044675  4.011229 38.362219
23469  1 26.663813  5.172099 36.331444
809    1 26.163516  6.401587 42.396111
11093  1 24.379108  5.200161 40.382631
13282  1 23.686044  6.401586 42.396111
19508  1 25.345167  4.079174 42.402650
23568  1 26.856581  5.200162 40.382631
908    1 26.337943  6.424108 46.427591
11192  1 24.624274  5.257208 44.415203
13381  1 23.860471  6.424108 46.427591
19607  1 25.562929  4.089076 46.420662
23667  1 27.101747  5.257209 44.415203
1007   1 26.445644  6.416675 50.451842
11291  1 24.767852  5.252220 48.435351
13480  1 23.968171  6.416675 50.451842
19706  1 25.661314  4.076267 50.439555
23766  1 27.245325  5.252220 48.435351
11391  1 27.324214  5.243706 52.461344
23865  1 24.846741  5.243706 52.461344
1106   1 24.036697  6.412899 54.482367
7332   1 25.710055  4.072699 54.475402
13580  1 26.514170  6.412899 54.482367
23964  1 24.893194  5.243263 56.498529
1205   1 24.081042  6.415315 58.520469
7431   1 25.737983  4.073970 58.518166
13679  1 26.558515  6.415316 58.520469
24063  1 24.921309  5.246127 60.540953
1304   1 24.107593  6.419065 62.562744
7530   1 25.753134  4.076390 62.563634
13778  1 26.585065  6.419065 62.562744
24162  1 24.935657  5.249111 64.585957
1403   1 24.119299  6.422239 66.607560
7629   1 25.758198  4.078728 66.610515
13877  1 26.596771  6.422240 66.607560
24261  1 24.938403  5.251907 68.632425
1502   1 24.118027  6.425572 70.653670
7728   1 25.754317  4.081378 70.657970
13976  1 26.595499  6.425573 70.653670
24360  1 24.930362  5.255449 72.679067
1601   1 24.104012  6.430291 74.699274
7827   1 25.741183  4.085116 74.704609
14075  1 26.581485  6.430291 74.699274
1700   1 24.075125  6.436943 78.742058
7926   1 25.716363  4.090462 78.748376
14174  1 26.552597  6.436943 78.742058
24459  1 24.910438  5.260581 76.723944
1799   1 24.025785  6.444824 82.779675
8025   1 25.674054  4.097306 82.786988
14273  1 26.503258  6.444824 82.779675
24558  1 24.874781  5.267440 80.764722
1898   1 23.946020  6.449951 86.812211
8124   1 25.600608  4.104915 86.817249
12183  1 27.292143  5.275142 84.798904
14372  1 26.423493  6.449952 86.812211
24657  1 24.814671  5.275142 84.798904
1997   1 23.820873  6.437353 90.846545
8223   1 25.468146  4.102838 90.842992
12282  1 27.191740  5.277922 88.827920
14471  1 26.298346  6.437354 90.846545
24756  1 24.714268  5.277922 88.827920
12490  1 23.640960  6.380487  9.949044
17     1 26.118433  6.380487  9.949044
18716  1 25.239636  4.041926  9.939286
12381  1 27.026009  5.249045 92.862377
24855  1 24.548536  5.249044 92.862377
14569  1 23.647007  9.859045 11.990265
2096   1 26.124480  9.859045 11.990265
16648  1 25.238118  7.521875 11.976475
2195   1 26.012442  9.830782 16.038837
8431   1 24.379219  8.673170 14.006704
16747  1 25.113390  7.498187 16.026811
20906  1 26.856691  8.673170 14.006704
2294   1 25.938676  9.826621 20.093598
8530   1 24.282671  8.661558 18.060069
16846  1 25.032323  7.499684 20.085893
21005  1 26.760144  8.661559 18.060069
2393   1 25.898978  9.830547 24.151955
8629   1 24.223719  8.665222 22.119112
16945  1 24.988934  7.506395 24.147411
21104  1 26.701192  8.665223 22.119112
2492   1 25.892833  9.832292 28.211022
8728   1 24.199878  8.669421 26.179779
17044  1 24.982888  7.508078 28.208680
21203  1 26.677351  8.669421 26.179779
8827   1 24.212701  8.667993 30.240203
21302  1 26.690173  8.667993 30.240204
2591   1 25.922048  9.830601 32.267801
8926   1 24.265725  8.664877 34.297367
17143  1 25.017770  7.502822 32.270132
21401  1 26.743197  8.664877 34.297368
2690   1 25.990897  9.835486 36.317865
9025   1 24.367213  8.678513 38.345367
17242  1 25.100959  7.501100 36.327140
21500  1 26.844686  8.678513 38.345367
15262  1 23.629576  9.865994 40.359620
2789   1 26.107049  9.865994 40.359620
9124   1 24.520678  8.726377 42.385562
17341  1 25.247372  7.533123 40.371731
21599  1 26.998150  8.726377 42.385562
2888   1 26.247602  9.907048 44.400066
9223   1 24.663035  8.752822 46.423694
15361  1 23.770130  9.907048 44.400066
17440  1 25.426732  7.582649 44.410004
21698  1 27.140508  8.752823 46.423694
2987   1 26.363211  9.919067 48.437520
9322   1 24.767895  8.752998 50.455403
15460  1 23.885739  9.919066 48.437520
17539  1 25.556452  7.588233 48.440975
21797  1 27.245367  8.752998 50.455403
3086   1 23.977545  9.920019 52.470597
5165   1 25.645565  7.583295 52.469148
15560  1 26.455018  9.920019 52.470597
3185   1 24.051288  9.924468 56.504039
5264   1 25.708121  7.584104 56.502563
9422   1 27.324629  8.752554 54.486679
15659  1 26.528760  9.924468 56.504039
21896  1 24.847156  8.752553 54.486679
3284   1 24.104897  9.930925 60.540529
5363   1 25.749681  7.588443 60.541324
9521   1 27.382828  8.757035 58.521911
15758  1 26.582370  9.930925 60.540530
21995  1 24.905355  8.757034 58.521911
3383   1 24.137057  9.935436 64.580881
5462   1 25.772982  7.592332 64.583740
9620   1 27.420357  8.762019 62.561334
15857  1 26.614530  9.935437 64.580881
22094  1 24.942884  8.762019 62.561334
3482   1 24.149799  9.938609 68.624693
5561   1 25.780483  7.595597 68.628630
15956  1 26.627272  9.938610 68.624693
22193  1 24.961482  8.765579 66.604254
3581   1 24.145118  9.942809 72.670401
5660   1 25.773654  7.599741 72.674394
16055  1 26.622590  9.942810 72.670402
22292  1 24.963457  8.769122 70.649447
22391  1 24.949666  8.774412 74.694896
3680   1 24.123115  9.949442 76.715683
5759   1 25.751932  7.605876 76.718806
10016  1 27.396135  8.781924 78.738183
16154  1 26.600587  9.949442 76.715683
22490  1 24.918663  8.781924 78.738183
3779   1 24.081703  9.957571 80.758472
5858   1 25.712030  7.613764 80.759482
10115  1 27.343922  8.789661 82.777742
16253  1 26.559175  9.957571 80.758472
22589  1 24.866449  8.789661 82.777742
3878   1 24.016669  9.962262 84.798710
5957   1 25.647485  7.620463 84.795572
10214  1 27.264034  8.790793 86.815167
16352  1 26.494141  9.962262 84.798710
22688  1 24.786561  8.790793 86.815167
3977   1 23.921522  9.952410 88.839460
6056   1 25.548687  7.616361 88.830909
16451  1 26.398995  9.952411 88.839460
22787  1 24.670178  8.770550 90.855415
10313  1 27.147651  8.770550 90.855415
8332   1 24.517878  8.717065  9.961144
20807  1 26.995351  8.717066  9.961144
4076   1 23.790863  9.913641 92.883347
6155   1 25.404228  7.580895 92.871464
16550  1 26.268336  9.913642 92.883347
10411  1 24.526731 12.194792 12.005279
22886  1 27.004204 12.194792 12.005279
16659  1 25.400404 14.529434 12.020658
12600  1 23.669546 13.343832 14.036436
127    1 26.147019 13.343832 14.036436
10510  1 24.421807 12.164844 16.053040
18826  1 25.267698 11.008680 14.021154
22985  1 26.899280 12.164844 16.053041
16758  1 25.297794 14.499947 16.067408
226    1 26.061553 13.326429 18.084651
10609  1 24.352379 12.157675 20.104097
18925  1 25.178614 10.992664 18.071710
23084  1 26.829852 12.157676 20.104097
16857  1 25.229747 14.492463 20.114625
325    1 26.009037 13.325150 22.134779
10708  1 24.314598 12.159982 24.157658
19024  1 25.124143 10.992803 22.126494
23183  1 26.792070 12.159982 24.157658
16956  1 25.191962 14.494669 24.162780
424    1 25.985842 13.328367 26.186022
10807  1 24.306766 12.162520 28.211563
19123  1 25.101430 10.996025 26.183243
23282  1 26.784238 12.162521 28.211563
17055  1 25.181807 14.498291 28.211018
523    1 25.991243 13.331013 30.236086
19222  1 25.110755 10.996647 30.239010
622    1 26.027025 13.335929 34.281971
10906  1 24.329764 12.164182 32.262577
19321  1 25.154393 10.998460 34.290029
23381  1 26.807237 12.164182 32.262577
17154  1 25.199491 14.502222 32.256921
721    1 26.097064 13.352124 38.322662
11005  1 24.386985 12.172647 36.307658
19420  1 25.237854 11.014890 38.333633
23480  1 26.864458 12.172648 36.307659
17253  1 25.247708 14.511840 36.298458
13293  1 23.720508 13.382170 42.362038
820    1 26.197981 13.382171 42.362038
11104  1 24.482290 12.199304 40.347693
19519  1 25.359620 11.053299 42.373718
23579  1 26.959763 12.199304 40.347694
17352  1 25.328204 14.533670 40.336995
919    1 26.303689 13.404467 46.403432
11203  1 24.598209 12.232284 44.388483
13392  1 23.826216 13.404467 46.403431
19618  1 25.480062 11.078917 46.414575
23678  1 27.075681 12.232284 44.388483
1018   1 26.400712 13.414406 50.443706
11302  1 24.703309 12.246849 48.429062
13491  1 23.923240 13.414406 50.443706
19717  1 25.580211 11.085211 50.451758
23777  1 27.180782 12.246849 48.429062
11402  1 27.273799 12.253481 52.466424
23876  1 24.796326 12.253481 52.466424
1117   1 24.014605 13.425177 54.481316
7343   1 25.665790 11.090126 54.486177
11501  1 27.356534 12.263361 56.501771
13591  1 26.492078 13.425177 54.481316
23975  1 24.879062 12.263361 56.501771
1216   1 24.094835 13.438661 58.517191
7442   1 25.735339 11.098366 58.521022
11600  1 27.421083 12.272982 60.537712
13690  1 26.572308 13.438661 58.517191
24074  1 24.943611 12.272982 60.537712
1315   1 24.152687 13.446931 62.554533
7541   1 25.783195 11.104824 62.558736
11699  1 27.461967 12.277912 64.577052
13789  1 26.630159 13.446931 62.554533
24173  1 24.984495 12.277912 64.577051
1414   1 24.185816 13.449678 66.596136
7640   1 25.808908 11.108268 66.600466
11798  1 27.480513 12.280303 68.620673
13888  1 26.663288 13.449679 66.596137
24272  1 25.003040 12.280303 68.620672
1513   1 24.196718 13.451514 70.642117
7739   1 25.814905 11.111361 70.645547
11897  1 27.479035 12.283833 72.667372
13987  1 26.674191 13.451515 70.642117
24371  1 25.001563 12.283833 72.667372
1612   1 24.187085 13.455997 74.690752
7838   1 25.802579 11.116613 74.692014
14086  1 26.664558 13.455997 74.690752
1711   1 24.156981 13.463460 78.739855
7937   1 25.771374 11.124343 78.737561
11996  1 27.458212 12.290317 76.714941
14185  1 26.634453 13.463460 78.739855
24470  1 24.980739 12.290316 76.714941
1810   1 24.105038 13.469791 82.787922
8036   1 25.718872 11.131287 82.780960
12095  1 27.417046 12.298200 80.761440
14284  1 26.582511 13.469792 82.787922
24569  1 24.939573 12.298200 80.761439
1909   1 24.027710 13.465470 86.834806
8135   1 25.640544 11.128922 86.823368
14383  1 26.505183 13.465470 86.834806
24668  1 24.875275 12.301183 84.806444
12194  1 27.352747 12.301184 84.806444
2008   1 23.920060 13.437835 90.881237
8234   1 25.530305 11.103882 90.867370
14482  1 26.397533 13.437836 90.881238
24767  1 24.782717 12.287638 88.851313
12293  1 27.260190 12.287639 88.851313
12501  1 23.789050 13.386789  9.989791
28     1 26.266522 13.386789  9.989791
18727  1 25.393146 11.052351  9.974944
24866  1 24.659324 12.247009 92.897076
12392  1 27.136796 12.247009 92.897076
14580  1 23.790026 16.863290 12.035563
2107   1 26.267498 16.863291 12.035563
8343   1 24.659935 15.720651 10.004947
18738  1 25.527318 18.054056 10.019662
20818  1 27.137408 15.720651 10.004947
2206   1 26.162885 16.836295 16.080419
8442   1 24.540034 15.678768 14.051348
18837  1 25.400793 18.013932 14.064785
20917  1 27.017507 15.678769 14.051348
2305   1 26.093971 16.830851 20.123258
8541   1 24.454817 15.662658 18.096751
18936  1 25.313159 18.001596 18.106331
21016  1 26.932289 15.662659 18.096752
2404   1 26.055176 16.834064 24.166217
8640   1 24.402140 15.661997 22.141930
19035  1 25.259359 18.002981 22.146541
21115  1 26.879612 15.661998 22.141931
2503   1 26.042864 16.838633 28.209755
8739   1 24.377563 15.665916 26.187687
19134  1 25.233561 18.007760 26.187904
21214  1 26.855036 15.665916 26.187688
8838   1 24.379485 15.670034 30.232788
19233  1 25.232867 18.012596 30.229747
21313  1 26.856957 15.670034 30.232788
2602   1 26.056331 16.843682 32.252078
8937   1 24.409057 15.676336 34.274957
19332  1 25.257426 18.019036 34.269903
21412  1 26.886529 15.676336 34.274957
2701   1 26.097412 16.852861 36.291415
9036   1 24.468926 15.690568 38.313598
19431  1 25.309079 18.030527 38.307429
21511  1 26.946399 15.690568 38.313598
2800   1 26.166932 16.869608 40.328634
9135   1 24.555567 15.713056 42.351741
19530  1 25.385320 18.046191 42.344138
21610  1 27.033040 15.713056 42.351741
15372  1 23.778186 16.887704 44.367009
2899   1 26.255659 16.887704 44.367009
9234   1 24.651596 15.730572 46.392220
17451  1 25.427893 14.559034 44.376989
19629  1 25.475138 18.057988 46.382545
21709  1 27.129069 15.730573 46.392220
2998   1 26.350320 16.899206 48.407597
9333   1 24.747953 15.741658 50.433581
15471  1 23.872847 16.899206 48.407597
17550  1 25.526192 14.573202 48.418434
19728  1 25.573397 18.067797 50.423176
21808  1 27.225425 15.741659 50.433582
3097   1 23.973257 16.912683 52.448926
5176   1 25.621691 14.584164 52.458576
15571  1 26.450730 16.912683 52.448926
3196   1 24.078019 16.935974 56.488246
5275   1 25.714020 14.600467 56.496140
7354   1 25.683312 18.088676 54.464299
9433   1 27.324393 15.757907 54.473521
15670  1 26.555492 16.935975 56.488247
21907  1 24.846920 15.757906 54.473521
3295   1 24.166542 16.954144 60.525806
5374   1 25.789681 14.614124 60.532648
7453   1 25.791486 18.115770 58.502787
9532   1 27.416788 15.777731 58.510806
15769  1 26.644015 16.954144 60.525806
22006  1 24.939316 15.777731 58.510806
3394   1 24.225943 16.958586 64.566668
5473   1 25.839452 14.619158 64.572181
7552   1 25.871987 18.127188 62.542254
9631   1 27.485175 15.787847 62.548814
15868  1 26.703415 16.958586 64.566669
22105  1 25.007703 15.787846 62.548814
3493   1 24.258323 16.956838 68.613142
5572   1 25.864492 14.619949 68.616692
7651   1 25.921958 18.125958 66.587181
9730   1 27.526278 15.789133 66.591477
15967  1 26.735795 16.956838 68.613143
22204  1 25.048806 15.789133 66.591477
3592   1 24.266453 16.956584 72.664351
5671   1 25.867310 14.621981 72.665365
7750   1 25.945511 18.122671 70.637543
9829   1 27.543050 15.788821 70.639318
16066  1 26.743926 16.956584 72.664351
22303  1 25.065578 15.788820 70.639317
7849   1 25.944231 18.123635 74.691736
9928   1 27.537174 15.791821 74.690814
22402  1 25.059702 15.791821 74.690814
3691   1 24.250986 16.961141 76.718583
5770   1 25.848778 14.627727 76.716199
7948   1 25.917970 18.129996 78.748493
16165  1 26.728458 16.961142 76.718583
22501  1 25.031342 15.798791 78.743994
10027  1 27.508814 15.798791 78.743994
3790   1 24.211567 16.968868 80.774102
5869   1 25.808503 14.635374 80.767191
8047   1 25.865824 18.137592 82.806166
16264  1 26.689039 16.968868 80.774102
22600  1 24.979665 15.805280 82.796959
10126  1 27.457137 15.805281 82.796960
3889   1 24.146677 16.972370 84.828691
5968   1 25.744532 14.637814 84.816994
8146   1 25.785109 18.135774 86.861539
16363  1 26.624149 16.972370 84.828691
22699  1 24.901715 15.801047 86.847995
10225  1 27.379188 15.801048 86.847995
3988   1 24.052041 16.958376 88.879838
6067   1 25.652341 14.622831 88.865120
8245   1 25.670318 18.108679 90.911358
16462  1 26.529513 16.958377 88.879838
22798  1 24.792709 15.772677 90.896155
10324  1 27.270182 15.772677 90.896156
4087   1 23.925089 16.915459 92.926988
6166   1 25.530230 14.580913 92.911871
16561  1 26.402562 16.915459 92.926988
12512  1 23.911912 20.386935 10.033193
39     1 26.389384 20.386936 10.033193
10422  1 24.648900 19.196662 12.049121
16670  1 25.495950 21.530048 12.060200
22897  1 27.126372 19.196662 12.049122
138    1 26.249462 20.350129 14.075417
10521  1 24.538410 19.174520 16.090589
16769  1 25.376720 21.515728 16.095972
22996  1 27.015883 19.174520 16.090590
237    1 26.158044 20.343776 18.111694
10620  1 24.467657 19.172859 20.128457
16868  1 25.305564 21.518446 20.128945
23095  1 26.945130 19.172859 20.128457
336    1 26.104018 20.347628 22.147617
10719  1 24.428284 19.177404 24.167222
16967  1 25.267952 21.523689 24.165612
23194  1 26.905757 19.177404 24.167222
435    1 26.078453 20.352781 26.186553
10818  1 24.414790 19.182390 28.207915
17066  1 25.254912 21.528346 28.205698
23293  1 26.892263 19.182391 28.207916
534    1 26.076281 20.357550 30.227233
633    1 26.096503 20.363353 34.267197
10917  1 24.425020 19.187602 32.248603
17165  1 25.262707 21.533008 32.246642
23392  1 26.902492 19.187602 32.248603
732    1 26.140621 20.372041 38.304913
11016  1 24.459951 19.195502 36.287256
17264  1 25.291700 21.539326 36.286246
23491  1 26.937424 19.195503 36.287257
831    1 26.208043 20.381865 42.340646
11115  1 24.520468 19.207472 40.323757
17363  1 25.343427 21.547327 40.323312
23590  1 26.997941 19.207473 40.323758
13403  1 23.815988 20.387506 46.376135
930    1 26.293460 20.387507 46.376135
11214  1 24.601197 19.218747 44.360066
17462  1 25.416740 21.552711 44.357913
23689  1 27.078669 19.218748 44.360066
1029   1 26.395967 20.393571 50.414053
11313  1 24.694647 19.225736 48.398209
13502  1 23.918494 20.393570 50.414053
17561  1 25.510133 21.553836 48.392132
23788  1 27.172119 19.225737 48.398210
5187   1 25.629965 21.565082 52.430210
11413  1 27.280492 19.239525 52.439022
23887  1 24.803019 19.239525 52.439021
1128   1 24.044186 20.417746 54.454953
5286   1 25.777665 21.604006 56.470428
11512  1 27.402696 19.270315 56.479315
13602  1 26.521658 20.417746 54.454954
23986  1 24.925223 19.270315 56.479315
1227   1 24.174306 20.453166 58.494211
5385   1 25.904169 21.630602 60.510891
11611  1 27.507485 19.293016 60.518127
13701  1 26.651779 20.453167 58.494212
24085  1 25.030012 19.293016 60.518127
1326   1 24.269555 20.464506 62.536089
5484   1 25.987352 21.629327 64.558469
11710  1 27.577875 19.295587 64.561518
13800  1 26.747027 20.464506 62.536089
24184  1 25.100402 19.295587 64.561517
1425   1 24.329440 20.459443 66.584601
5583   1 26.036370 21.619997 68.611476
11809  1 27.618444 19.290352 68.610911
13899  1 26.806913 20.459444 66.584602
24283  1 25.140971 19.290352 68.610910
1524   1 24.360197 20.452739 70.637632
5682   1 26.056253 21.614347 72.666246
13998  1 26.837669 20.452739 70.637632
24382  1 25.155114 19.287306 72.664482
11908  1 27.632586 19.287306 72.664482
1623   1 24.363909 20.451484 74.693201
14097  1 26.841382 20.451484 74.693202
1722   1 24.340357 20.456985 78.751639
5781   1 26.048565 21.615758 76.722675
14196  1 26.817829 20.456986 78.751640
24481  1 25.143314 19.290351 76.721041
12007  1 27.620787 19.290352 76.721042
1821   1 24.287618 20.466166 82.813123
5880   1 26.012047 21.623595 80.782990
14295  1 26.765091 20.466166 82.813123
24580  1 25.104760 19.298369 80.780152
12106  1 27.582232 19.298369 80.780152
1920   1 24.202014 20.469112 86.873677
5979   1 25.942411 21.633242 84.847028
14394  1 26.679487 20.469112 86.873678
24679  1 25.037584 19.304538 84.839605
12205  1 27.515057 19.304539 84.839605
2019   1 24.076156 20.446117 90.926112
6078   1 25.832821 21.630173 88.907441
14493  1 26.553629 20.446118 90.926112
24778  1 24.937230 19.294337 88.894415
12304  1 27.414703 19.294338 88.894416
6177   1 25.672402 21.587713 92.955577
24877  1 24.798330 19.250909 92.941748
12403  1 27.275802 19.250909 92.941748
2118   1 26.323040 23.864911 12.066600
8354   1 24.764774 22.719023 10.044645
18749  1 25.597889 25.050130 10.052159
20829  1 27.242246 22.719024 10.044645
2217   1 26.196361 23.861352 16.093897
8453   1 24.603731 22.688918 14.081034
18848  1 25.409973 25.033011 14.077664
20928  1 27.081204 22.688918 14.081034
2316   1 26.130831 23.866970 20.124551
8552   1 24.510386 22.689761 18.111058
18947  1 25.324730 25.039206 18.104027
21027  1 26.987859 22.689761 18.111059
2415   1 26.098980 23.871672 24.162180
6573   1 27.761800 25.044020 22.140235
8651   1 24.459886 22.695099 22.144999
19046  1 25.284327 25.044020 22.140234
21126  1 26.937358 22.695099 22.145000
2514   1 26.088136 23.875397 28.203468
6672   1 27.744228 25.047610 26.181031
8750   1 24.437080 22.699753 26.184006
19145  1 25.266756 25.047610 26.181031
21225  1 26.914553 22.699754 26.184006
6771   1 27.742555 25.050459 30.224333
8849   1 24.434611 22.703805 30.225384
19244  1 25.265083 25.050459 30.224333
21324  1 26.912084 22.703805 30.225384
2613   1 26.094159 23.878995 32.246085
6870   1 27.754912 25.053726 34.268089
8948   1 24.450815 22.708504 34.266752
19343  1 25.277440 25.053726 34.268089
21423  1 26.928288 22.708504 34.266752
2712   1 26.117008 23.883634 36.288004
6969   1 27.782454 25.057849 38.310686
9047   1 24.487038 22.714745 38.306256
19442  1 25.304981 25.057848 38.310685
21522  1 26.964510 22.714746 38.306256
2811   1 26.158740 23.888730 40.327497
9146   1 24.544924 22.720176 42.342522
19541  1 25.350687 25.060593 42.350025
21621  1 27.022396 22.720176 42.342522
2910   1 26.222328 23.889992 44.362305
9245   1 24.625294 22.720133 46.375170
19640  1 25.421415 25.056877 46.382215
21720  1 27.102766 22.720133 46.375170
3009   1 26.313972 23.885047 48.391999
9344   1 24.733415 22.720032 50.408034
19739  1 25.532985 25.049162 50.408068
21819  1 27.210887 22.720033 50.408034
3108   1 23.971083 23.889975 52.424058
15582  1 26.448556 23.889975 52.424058
3207   1 24.158047 23.937586 56.462497
7365   1 25.713736 25.070596 54.440496
9444   1 27.359229 22.745144 54.446596
15681  1 26.635519 23.937586 56.462497
21918  1 24.881757 22.745143 54.446596
3306   1 24.315027 23.966094 60.505979
7464   1 25.927912 25.126836 58.480176
9543   1 27.521679 22.790261 58.486188
15780  1 26.792499 23.966094 60.505980
22017  1 25.044207 22.790260 58.486188
3405   1 24.412581 23.958454 64.560230
7563   1 26.065001 25.128266 62.534114
9642   1 27.635432 22.798882 62.532274
15879  1 26.890054 23.958455 64.560231
22116  1 25.157960 22.798881 62.532273
3504   1 24.468184 23.945589 68.616558
7662   1 26.143402 25.113144 66.593309
15978  1 26.945657 23.945590 68.616558
22215  1 25.228254 22.788759 66.585832
9741   1 27.705727 22.788759 66.585833
3603   1 24.491488 23.938653 72.670078
7761   1 26.181934 25.102800 70.647302
16077  1 26.968960 23.938654 72.670079
22314  1 25.265103 22.779146 70.640725
9840   1 27.742576 22.779147 70.640725
7860   1 26.192245 25.099310 74.697840
22413  1 25.273150 22.776193 74.695203
3702   1 24.487915 23.938671 76.723300
7959   1 26.178537 25.101593 78.750007
16176  1 26.965387 23.938671 76.723300
22512  1 25.253669 22.780292 78.752062
10038  1 27.731142 22.780292 78.752062
3801   1 24.456740 23.944926 80.780894
8058   1 26.135741 25.109345 82.808928
16275  1 26.934213 23.944926 80.780894
22611  1 25.202687 22.790112 82.814788
10137  1 27.680159 22.790112 82.814788
3900   1 24.388706 23.956488 84.846962
8157   1 26.045583 25.122784 86.879650
16374  1 26.866179 23.956488 84.846963
22710  1 25.111627 22.799349 86.881531
10236  1 27.589100 22.799349 86.881531
3999   1 24.267815 23.963826 88.916135
8256   1 25.877035 25.124152 90.949488
16473  1 26.745288 23.963826 88.916136
22809  1 24.968014 22.785028 90.939525
10335  1 27.445486 22.785029 90.939525
4098   1 24.070369 23.926582 92.967881
16572  1 26.547841 23.926582 92.967882
50     1 26.370325 27.383178 10.052469
4208   1 27.828680 28.559704 12.041231
10433  1 24.633725 26.205465 12.063359
16681  1 25.351208 28.559703 12.041231
22908  1 27.111197 26.205465 12.063359
149    1 26.182171 27.384729 14.061618
4307   1 27.780631 28.562004 16.076181
10532  1 24.517290 26.211724 16.083117
16780  1 25.303159 28.562003 16.076181
23007  1 26.994762 26.211724 16.083118
248    1 26.128189 27.389404 18.096481
4406   1 27.755032 28.567030 20.112581
10631  1 24.468991 26.216667 20.118230
16879  1 25.277560 28.567030 20.112581
23106  1 26.946463 26.216668 20.118231
347    1 26.102377 27.393501 22.135280
4505   1 27.744759 28.568984 24.155397
10730  1 24.446303 26.220341 24.158232
16978  1 25.267287 28.568983 24.155396
23205  1 26.923776 26.220341 24.158232
446    1 26.092294 27.395566 26.178664
4604   1 27.742671 28.569743 28.201152
10829  1 24.439251 26.222694 28.201758
17077  1 25.265198 28.569743 28.201152
23304  1 26.916723 26.222694 28.201758
545    1 26.092269 27.396918 30.224233
644    1 26.100924 27.398476 34.270533
4703   1 27.746591 28.570254 32.248216
10928  1 24.444034 26.224867 32.246695
17176  1 25.269119 28.570253 32.248216
23403  1 26.921507 26.224867 32.246695
743    1 26.119185 27.400496 38.316582
4802   1 27.756586 28.571037 36.295758
11027  1 24.460502 26.227690 36.291566
17275  1 25.279114 28.571036 36.295757
23502  1 26.937975 26.227691 36.291566
842    1 26.149959 27.401522 42.360793
4901   1 27.774196 28.571799 40.343072
11126  1 24.490677 26.230591 40.334943
17374  1 25.296724 28.571799 40.343071
23601  1 26.968149 26.230591 40.334944
941    1 26.201795 27.397664 46.398547
5000   1 27.803585 28.570716 44.388120
11225  1 24.539449 26.230125 44.373754
17473  1 25.326112 28.570715 44.388120
23700  1 27.016922 26.230125 44.373754
1040   1 26.304368 27.384541 50.419380
5099   1 27.859266 28.564012 48.424223
11324  1 24.621581 26.221401 48.401602
17572  1 25.381794 28.564012 48.424223
23799  1 27.099054 26.221402 48.401602
5198   1 25.524527 28.548262 52.433500
11424  1 27.247761 26.215959 52.423348
23898  1 24.770288 26.215959 52.423348
1139   1 24.050930 27.393707 54.438953
5297   1 25.905154 28.604083 56.455120
11523  1 27.500502 26.271448 56.456676
13613  1 26.528403 27.393707 54.438953
23997  1 25.023030 26.271447 56.456676
1238   1 24.360306 27.460393 58.479672
5396   1 26.179104 28.615805 60.523222
13712  1 26.837779 27.460393 58.479673
24096  1 25.225924 26.296776 60.507099
11622  1 27.703397 26.296776 60.507100
1337   1 24.522988 27.449039 62.547193
5495   1 26.282754 28.598163 64.589309
13811  1 27.000461 27.449040 62.547194
24195  1 25.336027 26.281186 64.570391
11721  1 27.813500 26.281186 64.570391
1436   1 24.597928 27.433416 66.607254
5594   1 26.323618 28.589642 68.638183
13910  1 27.075401 27.433417 66.607255
24294  1 25.390978 26.267985 68.626500
1535   1 24.630248 27.425535 70.655911
5693   1 26.340274 28.585361 72.681488
14009  1 27.107720 27.425536 70.655912
24393  1 25.413153 26.261831 72.675572
1634   1 24.640356 27.422435 74.701023
14108  1 27.117828 27.422436 74.701023
1733   1 24.633739 27.422948 78.747384
5792   1 26.343372 28.583884 76.724317
14207  1 27.111212 27.422949 78.747384
24492  1 25.413203 26.260925 76.723534
1832   1 24.606591 27.426932 82.798927
5891   1 26.334199 28.584811 80.769940
14306  1 27.084064 27.426933 82.798927
24591  1 25.391476 26.264512 80.775207
1931   1 24.538734 27.435883 86.861479
5990   1 26.305476 28.588353 84.821266
14405  1 27.016207 27.435884 86.861479
24690  1 25.336675 26.273171 84.835938
12216  1 27.814148 26.273171 84.835938
2030   1 24.355901 27.455699 90.946776
6089   1 26.223909 28.596587 88.884658
14504  1 26.833373 27.455699 90.946776
24789  1 25.213656 26.289170 88.913137
12315  1 27.691129 26.289170 88.913137
6188   1 25.873897 28.602238 92.974095
24888  1 24.950796 26.267976 92.977356
12414  1 27.428269 26.267976 92.977357
2129   1 26.070199 30.913090 12.065387
6287   1 27.736911 32.079652 10.052128
8365   1 24.395730 29.741525 10.052649
10444  1 24.312286 33.266317 12.041912
18760  1 25.259438 32.079651 10.052128
20840  1 26.873202 29.741525 10.052649
22919  1 26.789759 33.266317 12.041912
2228   1 26.077294 30.916222 16.072979
6386   1 27.684641 32.095064 14.061883
8464   1 24.463496 29.734783 14.061393
10543  1 24.374140 33.270483 16.077183
18859  1 25.207168 32.095063 14.061883
20939  1 26.940969 29.734783 14.061393
23018  1 26.851612 33.270483 16.077183
2327   1 26.082566 30.917466 20.110711
6485   1 27.714737 32.093083 18.091684
8563   1 24.445541 29.741023 18.091085
10642  1 24.410446 33.267819 20.114092
18958  1 25.237264 32.093083 18.091684
21038  1 26.923013 29.741023 18.091085
23117  1 26.887918 33.267820 20.114092
2426   1 26.086696 30.917331 24.155066
6584   1 27.730271 32.092113 22.133411
8662   1 24.439311 29.742913 22.132455
10741  1 24.429055 33.265482 24.157788
19057  1 25.252799 32.092113 22.133410
21137  1 26.916783 29.742914 22.132456
23216  1 26.906527 33.265483 24.157788
2525   1 26.090171 30.916409 28.202088
6683   1 27.738822 32.090584 26.179384
8761   1 24.438264 29.743230 26.177911
10840  1 24.438121 33.262798 28.204707
19156  1 25.261349 32.090584 26.179384
21236  1 26.915737 29.743230 26.177911
23315  1 26.915593 33.262798 28.204707
6782   1 27.743301 32.088568 30.227342
8860   1 24.440404 29.742939 30.225219
19255  1 25.265828 32.088568 30.227342
21335  1 26.917876 29.742939 30.225219
2624   1 26.093418 30.915116 32.250431
6881   1 27.744822 32.086139 34.276365
8959   1 24.445479 29.742566 34.273442
10939  1 24.440674 33.259643 32.253185
19354  1 25.267350 32.086138 34.276365
21434  1 26.922952 29.742566 34.273442
23414  1 26.918147 33.259644 32.253185
2723   1 26.096928 30.913644 36.299591
6980   1 27.743907 32.083309 38.326182
9058   1 24.454208 29.742261 38.322175
11038  1 24.437607 33.255846 36.302505
19453  1 25.266435 32.083309 38.326182
21533  1 26.931681 29.742262 38.322175
23513  1 26.915079 33.255846 36.302505
2822   1 26.101576 30.911984 40.349380
7079   1 27.741223 32.080370 42.376550
9157   1 24.468529 29.741496 42.370760
11137  1 24.429071 33.251612 40.352404
19552  1 25.263750 32.080369 42.376550
21632  1 26.946001 29.741497 42.370760
23612  1 26.906544 33.251612 40.352404
2921   1 26.109441 30.909909 44.398962
7178   1 27.737827 32.077946 46.426069
9256   1 24.494138 29.738728 46.416582
11236  1 24.414765 33.248173 44.402059
19651  1 25.260354 32.077946 46.426068
21731  1 26.971611 29.738728 46.416582
23711  1 26.892238 33.248173 44.402059
3020   1 26.126774 30.906645 48.445116
7277   1 27.734747 32.076372 50.470093
9355   1 24.554409 29.730531 50.450239
11335  1 24.390648 33.247467 48.448238
19750  1 25.257275 32.076371 50.470093
21830  1 27.031881 29.730531 50.450240
23810  1 26.868120 33.247468 48.448238
11434  1 24.325473 33.252881 52.477012
15593  1 26.186494 30.899085 52.474181
23909  1 26.802945 33.252882 52.477012
3218   1 24.408630 30.910444 56.483246
7376   1 27.732682 32.075982 54.470904
15692  1 26.886103 30.910444 56.483246
19849  1 25.255210 32.075982 54.470904
21929  1 24.798306 29.717671 54.442309
24008  1 26.094265 33.242406 56.487542
9455   1 27.275779 29.717671 54.442310
3317   1 24.722496 30.919952 60.557394
7475   1 26.491390 32.076516 58.541976
15791  1 27.199969 30.919952 60.557394
22028  1 25.338110 29.779707 58.499593
24107  1 25.780239 33.232185 60.560555
9554   1 27.815582 29.779708 58.499593
3416   1 24.767651 30.915710 64.605432
7574   1 26.489956 32.075690 62.587095
15890  1 27.245124 30.915710 64.605432
22127  1 25.494816 29.760982 62.572674
24206  1 25.734984 33.234960 64.608339
3515   1 24.783796 30.912355 68.647045
7673   1 26.490790 32.074782 66.629457
15989  1 27.261268 30.912356 68.647046
22226  1 25.541759 29.753333 66.621688
24305  1 25.722277 33.235958 68.649868
3614   1 24.792237 30.909834 72.686402
7772   1 26.493531 32.073303 70.668757
16088  1 27.269709 30.909834 72.686403
22325  1 25.561077 29.748924 70.663872
24404  1 25.721581 33.234882 72.689317
7871   1 26.498787 32.071230 74.707770
22424  1 25.569194 29.746441 74.704465
3713   1 24.797963 30.907845 76.726354
7970   1 26.507875 32.068777 78.748786
16187  1 27.275436 30.907845 76.726355
22523  1 25.570370 29.745448 78.746502
24503  1 25.729654 33.232209 76.729740
3812   1 24.802862 30.906492 80.768946
8069   1 26.524038 32.066340 82.793679
16286  1 27.280334 30.906493 80.768946
22622  1 25.563984 29.746024 82.792086
24602  1 25.748533 33.228430 80.773716
20641  1 24.079604 32.064566 86.843896
3911   1 24.807932 30.906118 84.815541
8168   1 26.557077 32.064567 86.843896
16385  1 27.285405 30.906119 84.815541
22721  1 25.541615 29.748203 86.842757
24701  1 25.787405 33.223993 84.823934
20740  1 24.168533 32.056319 90.902225
4010   1 24.813274 30.906765 88.865265
8267   1 26.646005 32.056320 90.902225
16484  1 27.290747 30.906766 88.865265
22820  1 25.461935 29.758955 90.902892
24800  1 25.880153 33.217657 88.886185
4109   1 24.819759 30.910622 92.937453
16583  1 27.297232 30.910622 92.937453
24899  1 26.250521 33.218913 92.975182
61     1 25.761952 34.439272 10.054683
4219   1 27.506512 35.621142 12.065508
16692  1 25.029040 35.621142 12.065507
20851  1 26.532842 36.772936 10.055409
160    1 25.966244 34.445167 14.062854
4318   1 27.638178 35.620817 16.085095
8475   1 24.261174 36.797289 14.080148
16791  1 25.160706 35.620816 16.085095
20950  1 26.738646 36.797289 14.080148
259    1 26.032666 34.444659 18.098296
4417   1 27.697562 35.617932 20.121278
8574   1 24.359915 36.794749 18.107087
16890  1 25.220089 35.617932 20.121278
21049  1 26.837388 36.794749 18.107087
358    1 26.067993 34.441241 22.138152
4516   1 27.728790 35.613543 24.163014
8673   1 24.410192 36.790152 22.145041
16989  1 25.251317 35.613543 24.163013
21148  1 26.887664 36.790153 22.145041
457    1 26.085675 34.437769 26.183068
4615   1 27.742881 35.609033 28.208800
8772   1 24.435521 36.784783 26.188332
17088  1 25.265409 35.609033 28.208800
21247  1 26.912993 36.784783 26.188332
556    1 26.092321 34.433981 30.230534
8871   1 24.443754 36.779287 30.234614
21346  1 26.921227 36.779288 30.234614
655    1 26.090139 34.429519 34.279104
4714   1 27.744460 35.604077 32.256396
8970   1 24.437493 36.773015 34.281734
17187  1 25.266988 35.604076 32.256396
21445  1 26.914966 36.773015 34.281734
754    1 26.079363 34.424201 38.328109
4813   1 27.734542 35.598110 36.304441
9069   1 24.416494 36.765506 38.328313
17286  1 25.257070 35.598110 36.304441
21544  1 26.893967 36.765506 38.328314
853    1 26.059382 34.419100 42.376863
4912   1 27.712517 35.591504 40.352061
9168   1 24.379147 36.758661 42.372784
17385  1 25.235044 35.591503 40.352061
21643  1 26.856620 36.758661 42.372785
952    1 26.026673 34.417074 46.422780
5011   1 27.676066 35.587117 44.397281
9267   1 24.319292 36.757870 46.410631
17484  1 25.198593 35.587116 44.397280
21742  1 26.796765 36.757871 46.410631
9366   1 24.209303 36.768412 50.431315
1051   1 25.959846 34.422346 50.456323
5110   1 27.612985 35.590054 48.433397
17583  1 25.135513 35.590053 48.433397
21841  1 26.686775 36.768412 50.431315
5209   1 27.463974 35.604018 52.442470
17682  1 24.986501 35.604018 52.442470
1150   1 25.710459 34.434553 54.448392
5308   1 27.076341 35.548816 56.464680
17781  1 24.598868 35.548816 56.464680
21940  1 26.455992 36.758821 54.450900
1249   1 25.164892 34.373570 58.506326
5407   1 26.799672 35.536960 60.532297
13723  1 27.642365 34.373570 58.506326
17880  1 24.322199 35.536959 60.532297
22039  1 26.141469 36.692945 58.491423
1348   1 25.006878 34.390716 62.578604
5506   1 26.695737 35.553105 64.597785
13822  1 27.484351 34.390717 62.578604
17979  1 24.218265 35.553105 64.597785
22138  1 25.976579 36.703489 62.558464
1447   1 24.961452 34.396532 66.627331
5605   1 26.657967 35.559250 68.646456
13921  1 27.438925 34.396532 66.627331
18078  1 24.180494 35.559250 68.646455
22237  1 25.902599 36.717328 66.618132
1546   1 24.947457 34.397941 70.669497
5704   1 26.648706 35.559805 72.689964
14020  1 27.424930 34.397941 70.669497
18177  1 24.171234 35.559804 72.689963
22336  1 25.875055 36.722164 70.666746
1645   1 24.949660 34.396147 74.710527
14119  1 27.427133 34.396148 74.710527
22435  1 25.874570 36.720733 74.712395
1744   1 24.966189 34.391919 78.754060
5803   1 26.658815 35.556261 76.733863
14218  1 27.443662 34.391920 78.754060
18276  1 24.181343 35.556261 76.733862
22534  1 25.897296 36.714428 78.760580
1843   1 25.003021 34.385785 82.803616
5902   1 26.689915 35.549456 80.782521
14317  1 27.480493 34.385786 82.803616
18375  1 24.212442 35.549455 80.782520
22633  1 25.949529 36.704041 82.816461
1942   1 25.081728 34.377135 86.864761
6001   1 26.754859 35.539511 84.841128
14416  1 27.559201 34.377135 86.864761
18474  1 24.277386 35.539510 84.841128
22732  1 26.051002 36.690223 86.885309
2041   1 25.278748 34.360198 90.949406
6100   1 26.890432 35.524854 88.917253
14515  1 27.756221 34.360199 90.949406
18573  1 24.412959 35.524854 88.917253
22831  1 26.234540 36.691919 90.954085
6199   1 27.171603 35.552138 92.980483
18672  1 24.694130 35.552138 92.980483
2140   1 25.817039 37.962285 12.069916
6298   1 27.365376 39.104554 10.049161
18771  1 24.887904 39.104553 10.049161
22930  1 26.644757 40.297887 12.064574
2239   1 25.960229 37.971415 16.097112
6397   1 27.545826 39.141904 14.084651
10554  1 24.304429 40.317332 16.100304
18870  1 25.068353 39.141904 14.084651
23029  1 26.781902 40.317332 16.100304
2338   1 26.037615 37.967202 20.129164
6496   1 27.653731 39.144090 18.115468
10653  1 24.388274 40.315105 20.135187
18969  1 25.176259 39.144090 18.115468
23128  1 26.865747 40.315105 20.135188
2437   1 26.078305 37.961239 24.169358
6595   1 27.714672 39.138195 22.151779
10752  1 24.435101 40.307835 24.175238
19068  1 25.237200 39.138194 22.151778
23227  1 26.912574 40.307835 24.175239
2536   1 26.096219 37.955027 28.213880
6694   1 27.745401 39.131250 26.194177
10851  1 24.455103 40.300349 28.219361
19167  1 25.267929 39.131249 26.194176
23326  1 26.932575 40.300349 28.219361
6793   1 27.754187 39.124360 30.239358
19266  1 25.276715 39.124360 30.239358
2635   1 26.096227 37.948529 32.260068
6892   1 27.743242 39.116729 34.284594
10950  1 24.452606 40.292845 32.264320
19365  1 25.265770 39.116728 34.284594
23425  1 26.930079 40.292846 32.264320
2734   1 26.079019 37.940769 36.305841
6991   1 27.711682 39.107425 38.327927
11049  1 24.427594 40.283808 36.307561
19464  1 25.234209 39.107425 38.327927
23524  1 26.905067 40.283808 36.307562
2833   1 26.043296 37.932153 40.349635
7090   1 27.657776 39.098945 42.367466
11148  1 24.378444 40.273247 40.347430
19563  1 25.180304 39.098945 42.367466
23623  1 26.855917 40.273247 40.347431
2932   1 25.986177 37.927228 44.388584
7189   1 27.577484 39.098210 46.399586
11247  1 24.304480 40.266687 44.382156
19662  1 25.100012 39.098210 46.399586
23722  1 26.781952 40.266687 44.382156
3031   1 25.895511 37.932483 48.416347
7288   1 27.457200 39.103810 50.425072
19761  1 24.979727 39.103810 50.425071
23821  1 26.680125 40.268563 48.411462
3130   1 25.739329 37.936591 52.437786
23920  1 26.536772 40.262906 52.442750
3229   1 25.480075 37.881638 56.470714
7387   1 27.268925 39.082316 54.456874
15703  1 27.957548 37.881638 56.470714
19860  1 24.791452 39.082315 54.456874
24019  1 26.342604 40.216052 56.480332
3328   1 25.273118 37.856650 60.520842
7486   1 27.049012 39.026918 58.496018
15802  1 27.750590 37.856650 60.520842
19959  1 24.571539 39.026918 58.496018
24118  1 26.180496 40.188244 60.523398
3427   1 25.161810 37.871175 64.583759
7585   1 26.908615 39.025341 62.549692
15901  1 27.639283 37.871175 64.583759
20058  1 24.431142 39.025341 62.549691
24217  1 26.080525 40.195364 64.577499
3526   1 25.109167 37.882085 68.639659
7684   1 26.830124 39.039010 66.608664
16000  1 27.586640 37.882085 68.639660
20157  1 24.352652 39.039010 66.608664
24316  1 26.025938 40.206269 68.633749
3625   1 25.093522 37.884434 72.688858
7783   1 26.795286 39.046427 70.662579
16099  1 27.570994 37.884435 72.688858
20256  1 24.317814 39.046427 70.662579
24415  1 26.007585 40.209624 72.687118
7882   1 26.793134 39.045351 74.713232
20355  1 24.315662 39.045351 74.713231
3724   1 25.105227 37.880004 76.737606
7981   1 26.820000 39.037205 78.765838
16198  1 27.582700 37.880004 76.737606
20454  1 24.342527 39.037205 78.765838
24514  1 26.020383 40.204499 76.739878
3823   1 25.145043 37.870143 80.791320
8080   1 26.879921 39.024173 82.824849
16297  1 27.622515 37.870143 80.791320
20553  1 24.402449 39.024172 82.824849
24613  1 26.064266 40.192856 80.796045
3922   1 25.223230 37.856583 84.854550
8179   1 26.982468 39.013791 86.889061
16396  1 27.700702 37.856584 84.854550
20652  1 24.504995 39.013790 86.889061
24712  1 26.143766 40.180449 84.856586
4021   1 25.357236 37.850136 88.922116
8278   1 27.141830 39.031061 90.945551
16495  1 27.834709 37.850137 88.922116
20751  1 24.664357 39.031061 90.945551
24811  1 26.266997 40.183740 88.914783
4120   1 25.572840 37.893225 92.972505
16594  1 28.050313 37.893226 92.972505
24910  1 26.446677 40.231974 92.961404
72     1 25.740545 41.437157 10.038627
4230   1 27.493257 42.632176 12.054166
16703  1 25.015785 42.632176 12.054166
20862  1 26.602713 43.770576 10.025535
171    1 25.902024 41.481390 14.079930
4329   1 27.623511 42.658841 16.095823
16802  1 25.146039 42.658841 16.095823
20961  1 26.753934 43.818430 14.069813
270    1 26.009196 41.489856 18.117380
4428   1 27.707881 42.659723 20.136386
8585   1 24.381314 43.831531 18.113246
16901  1 25.230408 42.659723 20.136385
21060  1 26.858787 43.831531 18.113246
369    1 26.074273 41.484412 22.156473
4527   1 27.756790 42.652246 24.179472
8684   1 24.446795 43.827253 22.157719
17000  1 25.279318 42.652245 24.179472
21159  1 26.924268 43.827253 22.157719
468    1 26.107846 41.476385 26.199633
4626   1 27.776833 42.644212 28.224778
8783   1 24.480419 43.819093 26.204087
17099  1 25.299360 42.644212 28.224777
21258  1 26.957891 43.819093 26.204087
567    1 26.115742 41.468744 30.244587
8882   1 24.485674 43.811681 30.250218
21357  1 26.963147 43.811682 30.250218
666    1 26.099306 41.460435 34.288222
4725   1 27.770589 42.636555 32.269359
8981   1 24.462721 43.803612 34.293165
17198  1 25.293116 42.636554 32.269359
21456  1 26.940193 43.803612 34.293165
765    1 26.057036 41.449596 38.328541
4824   1 27.737222 42.626823 36.310622
9080   1 24.409625 43.791286 38.331551
17297  1 25.259750 42.626823 36.310621
21555  1 26.887098 43.791287 38.331552
864    1 25.988479 41.438544 42.364735
4923   1 27.675322 42.613767 40.347797
17396  1 25.197849 42.613767 40.347797
21654  1 26.805535 43.775942 42.366699
963    1 25.896336 41.434390 46.396952
5022   1 27.588750 42.603163 44.381882
17495  1 25.111278 42.603163 44.381882
21753  1 26.705436 43.766421 46.401215
1062   1 25.777858 41.433010 50.428983
5121   1 27.483027 42.599516 48.415216
17594  1 25.005555 42.599516 48.415216
21852  1 26.590631 43.759684 50.437687
5220   1 27.352923 42.588271 52.451981
17693  1 24.875451 42.588271 52.451981
1161   1 25.620879 41.408343 54.466419
5319   1 27.196866 42.550510 56.490930
13635  1 28.098351 41.408344 54.466419
17792  1 24.719394 42.550510 56.490929
21951  1 26.454916 43.736601 54.476915
1260   1 25.451666 41.364323 58.505198
5418   1 27.064128 42.524943 60.530825
13734  1 27.929138 41.364323 58.505198
17891  1 24.586655 42.524943 60.530825
22050  1 26.316894 43.702592 58.515059
1359   1 25.333442 41.356056 62.551054
5517   1 26.977192 42.526185 64.578462
13833  1 27.810915 41.356056 62.551054
17990  1 24.499719 42.526185 64.578462
22149  1 26.216004 43.691968 62.556783
1458   1 25.261624 41.365229 66.604652
5616   1 26.927413 42.534132 68.631653
13932  1 27.739096 41.365230 66.604652
18089  1 24.449940 42.534132 68.631653
22248  1 26.152992 43.696609 66.605694
1557   1 25.226756 41.372358 70.659465
5715   1 26.910104 42.536914 72.685965
14031  1 27.704228 41.372358 70.659465
18188  1 24.432632 42.536914 72.685964
22347  1 26.121906 43.701632 70.658812
1656   1 25.224472 41.371246 74.713229
14130  1 27.701944 41.371246 74.713229
22446  1 26.120750 43.699959 74.712918
1755   1 25.253040 41.362157 78.767934
5814   1 26.923549 42.531393 76.740270
14229  1 27.730512 41.362157 78.767934
18287  1 24.446077 42.531393 76.740270
22545  1 26.149186 43.690913 78.766893
1854   1 25.313756 41.349318 82.825307
5913   1 26.967594 42.519736 80.795429
14328  1 27.791228 41.349319 82.825307
18386  1 24.490121 42.519736 80.795429
22644  1 26.207855 43.679461 82.820277
1953   1 25.410894 41.344302 86.882634
6012   1 27.044030 42.510046 84.850788
14427  1 27.888366 41.344302 86.882634
18485  1 24.566557 42.510046 84.850788
22743  1 26.299987 43.678094 86.871615
2052   1 25.553690 41.369783 90.933125
6111   1 27.158649 42.519470 88.902701
14526  1 28.031162 41.369783 90.933125
18584  1 24.681176 42.519469 88.902701
22842  1 26.433335 43.706799 90.918934
6210   1 27.318993 42.568621 92.948281
18683  1 24.841521 42.568621 92.948281
2151   1 25.877184 44.966671 12.040765
6309   1 27.470465 46.104627 10.010747
18782  1 24.992992 46.104627 10.010747
22941  1 26.748376 47.301970 12.025458
182    1 26.020884 48.490167 14.041392
2250   1 26.004126 44.997213 16.086341
6408   1 27.619808 46.154500 14.056476
18881  1 25.142335 46.154499 14.056476
23040  1 26.877026 47.333195 16.074015
281    1 26.128169 48.503194 18.095140
2349   1 26.087745 45.000152 20.133124
6507   1 27.724175 46.169340 18.105070
10664  1 24.483596 47.335904 20.127152
18980  1 25.246703 46.169340 18.105070
23139  1 26.961068 47.335904 20.127153
380    1 26.193082 48.498604 22.152946
2448   1 26.136202 44.993078 24.181497
6606   1 27.789098 46.165600 22.156023
10763  1 24.530601 47.329162 24.181857
19079  1 25.311626 46.165600 22.156023
23238  1 27.008073 47.329163 24.181857
479    1 26.221252 48.492381 26.209745
2547   1 26.154066 44.985577 28.229888
6705   1 27.820726 46.158111 26.207379
10862  1 24.544257 47.323340 28.234546
19178  1 25.343253 46.158111 26.207378
23337  1 27.021730 47.323341 28.234546
578    1 26.215071 48.489474 30.261978
6804   1 27.821331 46.152235 30.256159
19277  1 25.343859 46.152235 30.256158
677    1 26.174630 48.485776 34.307337
2646   1 26.142520 44.978937 32.275351
6903   1 27.790514 46.145597 34.299667
10961  1 24.525519 47.319188 32.282141
19376  1 25.313041 46.145597 34.299667
23436  1 27.002992 47.319189 32.282142
776    1 26.096919 48.471267 38.345676
2745   1 26.100058 44.969200 36.315760
7002   1 27.725951 46.131889 38.337448
11060  1 24.472730 47.310431 36.323014
19475  1 25.248479 46.131889 38.337448
23535  1 26.950203 47.310432 36.323014
875    1 25.985345 48.442961 42.381637
2844   1 26.025581 44.952755 40.351840
7101   1 27.630916 46.110694 42.372838
19574  1 25.153443 46.110694 42.372837
23634  1 26.861785 47.289937 40.359070
974    1 25.866385 48.422489 46.419575
2943   1 25.927736 44.936261 44.387005
7200   1 27.522747 46.095406 46.409571
19673  1 25.045274 46.095406 46.409571
23733  1 26.750888 47.266445 44.395528
1073   1 25.753174 48.413096 50.457527
3042   1 25.819343 44.927477 48.423601
7299   1 27.409991 46.085958 50.447932
19772  1 24.932519 46.085958 50.447932
23832  1 26.638209 47.254148 48.433689
13547  1 28.230646 48.413097 50.457527
3141   1 25.698997 44.914569 52.462400
15615  1 28.176470 44.914569 52.462400
23931  1 26.524075 47.242574 52.472071
1172   1 25.641594 48.399319 54.494307
3240   1 25.567196 44.885414 56.500957
7398   1 27.288624 46.066890 54.486692
13646  1 28.119067 48.399319 54.494307
15714  1 28.044669 44.885415 56.500958
19871  1 24.811152 46.066890 54.486692
24030  1 26.408696 47.221302 56.509179
1271   1 25.539806 48.381126 58.530217
3339   1 25.455114 44.863977 60.539127
7497   1 27.171546 46.041449 58.523825
13745  1 28.017279 48.381126 58.530217
15813  1 27.932586 44.863977 60.539127
19970  1 24.694073 46.041449 58.523825
24129  1 26.312158 47.204418 60.546237
1370   1 25.464242 48.371802 62.568904
3438   1 25.379658 44.861744 64.582918
7596   1 27.084405 46.030920 62.563395
13844  1 27.941715 48.371802 62.568904
15912  1 27.857130 44.861744 64.582918
20069  1 24.606933 46.030920 62.563395
24228  1 26.246618 47.200502 64.588091
1469   1 25.417059 48.370911 66.613378
3537   1 25.336298 44.866299 68.632943
7695   1 27.029714 46.032206 66.609291
13943  1 27.894532 48.370912 66.613378
16011  1 27.813771 44.866299 68.632943
20168  1 24.552242 46.032206 66.609291
24327  1 26.209400 47.202283 68.635946
1568   1 25.394707 48.371592 70.662747
3636   1 25.321730 44.867648 72.686075
7794   1 27.003218 46.034824 70.660246
14042  1 27.872180 48.371592 70.662747
16110  1 27.799202 44.867648 72.686075
20267  1 24.525745 46.034824 70.660246
24426  1 26.197575 47.202228 72.687358
1667   1 25.395622 48.368920 74.713823
7893   1 27.003395 46.032499 74.712974
14141  1 27.873094 48.368920 74.713823
20366  1 24.525922 46.032499 74.712974
1766   1 25.420855 48.361548 78.762914
3735   1 25.335433 44.862027 76.739475
7992   1 27.030710 46.024082 78.764552
14240  1 27.898327 48.361549 78.762914
16209  1 27.812905 44.862027 76.739475
20465  1 24.553237 46.024082 78.764551
24525  1 26.210908 47.196856 76.738801
1865   1 25.473811 48.352429 82.807356
3834   1 25.377906 44.851242 80.791559
8091   1 27.086780 46.013932 82.813270
14339  1 27.951284 48.352429 82.807356
16308  1 27.855379 44.851243 80.791560
20564  1 24.609308 46.013931 82.813270
24624  1 26.251011 47.187231 80.787297
1964   1 25.560830 48.351062 86.847841
3933   1 25.451038 44.843552 84.841448
8190   1 27.175725 46.013688 86.859205
14438  1 28.038303 48.351063 86.847841
16407  1 27.928510 44.843553 84.841448
20663  1 24.698252 46.013687 86.859205
24723  1 26.321416 47.180249 84.831858
2063   1 25.691783 48.376054 90.889068
4032   1 25.560620 44.855304 88.888755
8289   1 27.305409 46.042102 90.903939
14537  1 28.169255 48.376055 90.889068
16506  1 28.038092 44.855304 88.888755
20762  1 24.827936 46.042101 90.903939
24822  1 26.429137 47.190929 88.874646
83     1 25.864567 48.439383  9.994952
4131   1 25.712339 44.903727 92.933788
16605  1 28.189811 44.903727 92.933788
24921  1 26.580898 47.237602 92.918510
2162   1 26.042983 51.976140 11.992869
4241   1 27.628793 49.638430 12.009113
16714  1 25.151320 49.638429 12.009113
2261   1 26.195236 51.996174 16.050510
4340   1 27.765334 49.666660 16.060992
16813  1 25.287861 49.666660 16.060992
20972  1 26.913511 50.825142 14.026240
2360   1 26.285997 51.990575 20.117457
4439   1 27.852035 49.666327 20.120886
8596   1 24.550484 50.832245 18.086425
16912  1 25.374562 49.666326 20.120886
21071  1 27.027957 50.832245 18.086425
2459   1 26.327215 51.984497 24.181224
4538   1 27.897057 49.659673 24.181560
8695   1 24.615820 50.825620 22.150484
17011  1 25.419585 49.659673 24.181560
21170  1 27.093293 50.825620 22.150484
2558   1 26.326605 51.984984 28.239852
4637   1 27.904516 49.656631 28.238320
8794   1 24.638836 50.821335 26.211101
17110  1 25.427044 49.656630 28.238320
21269  1 27.116308 50.821335 26.211101
8893   1 24.623834 50.822600 30.266459
21368  1 27.101306 50.822600 30.266459
2657   1 26.287731 51.990066 32.293775
4736   1 27.876511 49.656526 32.288892
8992   1 24.571797 50.823553 34.314973
17209  1 25.399039 49.656526 32.288892
21467  1 27.049269 50.823554 34.314973
2756   1 26.208152 51.988433 36.340180
4835   1 27.811510 49.650258 36.331621
17308  1 25.334038 49.650258 36.331621
21566  1 26.955548 50.809653 38.355108
2855   1 26.079723 51.960076 40.378069
4934   1 27.705871 49.625549 40.368262
17407  1 25.228399 49.625549 40.368262
21665  1 26.821385 50.773020 42.391477
2954   1 25.925428 51.920459 44.415050
5033   1 27.577296 49.594324 44.405466
17506  1 25.099824 49.594323 44.405466
21764  1 26.686928 50.748705 46.429168
15428  1 28.402901 51.920459 44.415050
3053   1 25.794819 51.908791 48.450095
5132   1 27.457436 49.580823 48.443255
17605  1 24.979964 49.580823 48.443255
21863  1 26.570777 50.742135 50.464447
15527  1 28.272292 51.908791 48.450095
3152   1 25.685995 51.906018 52.482085
5231   1 27.346703 49.572854 52.479265
15626  1 28.163468 51.906018 52.482085
17704  1 24.869230 49.572854 52.479265
3251   1 25.593406 51.897639 56.515398
5330   1 27.243426 49.558637 56.514346
15725  1 28.070879 51.897640 56.515398
17803  1 24.765953 49.558637 56.514346
21962  1 26.466478 50.734162 54.498238
3350   1 25.521874 51.888204 60.552589
5429   1 27.159746 49.545929 60.550913
15824  1 27.999346 51.888204 60.552589
17902  1 24.682273 49.545929 60.550913
22061  1 26.377399 50.721806 58.533273
3449   1 25.474146 51.883531 64.594884
5528   1 27.103220 49.541377 64.592330
15923  1 27.951618 51.883531 64.594885
18001  1 24.625747 49.541376 64.592330
22160  1 26.312539 50.713916 62.572283
3548   1 25.447401 51.882225 68.641904
5627   1 27.071499 49.541226 68.639230
16022  1 27.924873 51.882225 68.641904
18100  1 24.594026 49.541226 68.639229
22259  1 26.272350 50.711740 66.616709
3647   1 25.438866 51.880826 72.691556
5726   1 27.061719 49.540229 72.689368
16121  1 27.916338 51.880827 72.691556
18199  1 24.584247 49.540229 72.689368
22358  1 26.253434 50.711162 70.665406
22457  1 26.254182 50.708568 74.715429
3746   1 25.448386 51.877089 76.740627
5825   1 27.073704 49.535512 76.739170
16220  1 27.925859 51.877089 76.740627
18298  1 24.596231 49.535512 76.739170
22556  1 26.275959 50.702644 78.763100
3845   1 25.479156 51.870853 80.785559
5924   1 27.110193 49.527351 80.784956
16319  1 27.956629 51.870853 80.785559
18397  1 24.632720 49.527351 80.784956
22655  1 26.323893 50.694829 82.804897
3944   1 25.539739 51.864259 84.822929
6023   1 27.177300 49.520315 84.824839
16418  1 28.017212 51.864260 84.822929
18496  1 24.699827 49.520314 84.824839
22754  1 26.408057 50.691195 86.840143
4043   1 25.646432 51.865278 88.853772
6122   1 27.285134 49.527023 88.862116
16517  1 28.123905 51.865278 88.853772
18595  1 24.807661 49.527023 88.862116
22853  1 26.544043 50.709370 90.875666
20873  1 26.739131 50.775231  9.978855
4142   1 25.824074 51.901912 92.889060
6221   1 27.445355 49.570350 92.903224
16616  1 28.301547 51.901912 92.889060
18694  1 24.967883 49.570350 92.903223
22952  1 26.953969 54.313951 11.979261
193    1 26.297220 55.481331 14.013217
6419   1 27.826066 53.157522 14.014190
10576  1 24.652858 54.318270 16.048580
18892  1 25.348593 53.157522 14.014190
23051  1 27.130331 54.318270 16.048580
292    1 26.423916 55.470015 18.090002
6518   1 27.950816 53.154755 18.083346
10675  1 24.742435 54.308840 20.119535
18991  1 25.473343 53.154754 18.083346
23150  1 27.219908 54.308841 20.119534
391    1 26.473999 55.465003 22.151343
6617   1 28.013627 53.146903 22.150234
10774  1 24.775074 54.305075 24.180208
19090  1 25.536155 53.146903 22.150234
23249  1 27.252547 54.305075 24.180208
490    1 26.480470 55.465765 26.206120
6716   1 28.029121 53.145285 26.210334
10873  1 24.766301 54.308468 28.236936
19189  1 25.551648 53.145285 26.210334
23348  1 27.243773 54.308469 28.236936
589    1 26.449484 55.473597 30.261436
6815   1 28.004574 53.150856 30.267272
19288  1 25.527102 53.150856 30.267272
688    1 26.373163 55.486871 34.319977
6914   1 27.939561 53.157956 34.320409
10972  1 24.717255 54.318461 32.293729
19387  1 25.462088 53.157955 34.320409
23447  1 27.194727 54.318462 32.293729
787    1 26.233992 55.484145 38.371757
7013   1 27.825739 53.147349 38.364385
11071  1 24.620963 54.324107 36.346535
19486  1 25.348267 53.147349 38.364385
23546  1 27.098435 54.324108 36.346536
886    1 26.013863 55.426649 42.408259
7112   1 27.658460 53.100980 42.400882
19585  1 25.180988 53.100980 42.400882
23645  1 26.938153 54.294074 40.387252
985    1 25.824644 55.404403 46.437400
7211   1 27.501552 53.075304 46.436176
19684  1 25.024079 53.075304 46.436176
23744  1 26.744231 54.245609 44.422372
13459  1 28.302117 55.404403 46.437400
1084   1 25.701426 55.410418 50.460429
7310   1 27.380897 53.074211 50.466319
19783  1 24.903424 53.074211 50.466319
23843  1 26.599434 54.239745 48.451339
13558  1 28.178898 55.410419 50.460429
23942  1 26.493902 54.242522 52.478657
1183   1 25.616155 55.411095 54.490622
7409   1 27.284016 53.071574 54.497122
13657  1 28.093628 55.411096 54.490622
19882  1 24.806544 53.071574 54.497122
24041  1 26.413724 54.238025 56.512047
1282   1 25.554691 55.405113 58.529062
7508   1 27.207690 53.063334 58.532648
13756  1 28.032163 55.405113 58.529062
19981  1 24.730218 53.063334 58.532648
24140  1 26.355121 54.230756 60.551522
1381   1 25.512086 55.399459 62.572446
7607   1 27.153687 53.056655 62.573317
13855  1 27.989559 55.399460 62.572446
20080  1 24.676215 53.056654 62.573317
24239  1 26.316334 54.226282 64.595692
1480   1 25.485375 55.396605 66.619420
7706   1 27.120287 53.053854 66.618742
13954  1 27.962847 55.396605 66.619420
20179  1 24.642814 53.053854 66.618742
24338  1 26.294214 54.224482 68.643540
1579   1 25.471677 55.395331 70.668835
7805   1 27.104202 53.052659 70.667578
14053  1 27.949150 55.395331 70.668835
20278  1 24.626730 53.052659 70.667578
24437  1 26.286261 54.223143 72.693343
1678   1 25.469596 55.393897 74.718857
7904   1 27.103888 53.050519 74.717345
14152  1 27.947068 55.393897 74.718857
20377  1 24.626416 53.050518 74.717345
1777   1 25.480174 55.391354 78.766973
8003   1 27.120744 53.046247 78.764817
14251  1 27.957646 55.391354 78.766973
20476  1 24.643271 53.046247 78.764817
24536  1 26.292267 54.220589 76.742531
1876   1 25.508157 55.387686 82.810223
8102   1 27.160156 53.040507 82.806735
14350  1 27.985629 55.387686 82.810224
20575  1 24.682683 53.040507 82.806735
24635  1 26.315265 54.216385 80.788000
1975   1 25.564372 55.384754 86.846876
8201   1 27.235953 53.035606 86.839283
14449  1 28.041844 55.384754 86.846876
20674  1 24.758480 53.035606 86.839283
24734  1 26.363229 54.211788 84.827007
2074   1 25.692194 55.383799 90.866027
8300   1 27.376456 53.043780 90.866237
14548  1 28.169666 55.383800 90.866027
20773  1 24.898983 53.043779 90.866237
24833  1 26.459263 54.208627 88.853950
94     1 26.022326 55.452829  9.950202
6320   1 27.616527 53.112899  9.963396
18793  1 25.139055 53.112899  9.963396
24932  1 26.661052 54.232343 92.878190
2173   1 26.551667 58.946747 12.018692
4252   1 27.914451 56.644156 11.978193
16725  1 25.436979 56.644156 11.978193
2272   1 26.635948 58.940829 16.076312
4351   1 28.104827 56.629789 16.062368
8508   1 24.835253 57.787223 14.037658
16824  1 25.627355 56.629788 16.062368
20983  1 27.312725 57.787224 14.037658
2371   1 26.659823 58.941894 20.126010
4450   1 28.172703 56.624747 20.124476
8607   1 24.920430 57.783610 18.099668
16923  1 25.695231 56.624747 20.124476
21082  1 27.397902 57.783610 18.099668
2470   1 26.661065 58.943466 24.171970
4549   1 28.191375 56.624065 24.177343
8706   1 24.946305 57.783039 22.150935
17022  1 25.713902 56.624065 24.177343
21181  1 27.423777 57.783039 22.150935
2569   1 26.644808 58.947197 28.217030
4648   1 28.177165 56.628338 28.228507
8805   1 24.943507 57.785136 26.198734
17121  1 25.699693 56.628337 28.228507
21280  1 27.420979 57.785136 26.198734
8904   1 24.913227 57.791833 30.248294
21379  1 27.390699 57.791833 30.248294
9003   1 24.837092 57.806615 34.307757
2668   1 26.602067 58.955173 32.266203
4747   1 28.124670 56.639922 32.284724
17220  1 25.647197 56.639921 32.284724
21478  1 27.314565 57.806615 34.307757
9102   1 24.670016 57.817533 38.373469
2767   1 26.494526 58.972660 36.331271
4846   1 28.013172 56.654499 36.346659
17319  1 25.535700 56.654498 36.346659
21577  1 27.147488 57.817534 38.373469
2866   1 26.212577 58.960119 40.397264
4945   1 27.805035 56.627958 40.394390
17418  1 25.327562 56.627957 40.394390
21676  1 26.830365 57.749723 42.411150
2965   1 25.823727 58.903881 44.415679
5044   1 27.544803 56.571635 44.424412
17517  1 25.067331 56.571634 44.424412
21775  1 26.597976 57.739686 46.427470
15439  1 28.301199 58.903882 44.415679
3064   1 25.671545 58.918190 48.421784
5143   1 27.386300 56.575814 48.443033
17616  1 24.908828 56.575814 48.443033
21874  1 26.484425 57.750740 50.445406
15538  1 28.149018 58.918191 48.421784
3163   1 25.604298 58.921926 52.455398
5242   1 27.291550 56.581951 52.468385
15637  1 28.081770 58.921926 52.455398
17715  1 24.814077 56.581951 52.468385
3262   1 25.562231 58.919038 56.498715
5341   1 27.228386 56.578831 56.505628
15736  1 28.039704 58.919039 56.498715
17814  1 24.750914 56.578831 56.505628
21973  1 26.419665 57.751184 54.481071
3361   1 25.532398 58.914722 60.545325
5440   1 27.183870 56.573038 60.548684
15835  1 28.009871 58.914723 60.545325
17913  1 24.706397 56.573038 60.548684
22072  1 26.375322 57.746440 58.524146
3460   1 25.511641 58.911846 64.593650
5539   1 27.154137 56.569136 64.595110
15934  1 27.989113 58.911846 64.593650
18012  1 24.676665 56.569136 64.595110
22171  1 26.344431 57.741953 62.570457
3559   1 25.498028 58.910678 68.643326
5638   1 27.136380 56.567414 68.644003
16033  1 27.975500 58.910679 68.643326
18111  1 24.658908 56.567414 68.644003
22270  1 26.324267 57.739582 66.618936
3658   1 25.490034 58.910401 72.693701
5737   1 27.128546 56.566478 72.694191
16132  1 27.967506 58.910401 72.693701
18210  1 24.651074 56.566478 72.694191
22369  1 26.312650 57.738663 70.668923
22468  1 26.308347 57.738077 74.719215
3757   1 25.486970 58.910314 76.743520
5836   1 27.130242 56.565168 76.743842
16231  1 27.964442 58.910314 76.743520
18309  1 24.652769 56.565168 76.743841
22567  1 26.311672 57.737193 78.768025
3856   1 25.489340 58.910203 80.791011
5935   1 27.143566 56.563056 80.790548
16330  1 27.966813 58.910203 80.791011
18408  1 24.666093 56.563055 80.790548
22666  1 26.325377 57.735885 82.812979
3955   1 25.499628 58.910118 84.833455
6034   1 27.174967 56.560153 84.831327
16429  1 27.977101 58.910119 84.833455
18507  1 24.697495 56.560153 84.831327
22765  1 26.357220 57.733682 86.850281
4054   1 25.524762 58.908608 88.863192
6133   1 27.237410 56.559628 88.866740
16528  1 28.002235 58.908609 88.863192
18606  1 24.759937 56.559628 88.866740
22864  1 26.414191 57.737814 90.885097
20884  1 26.949513 57.784704  9.950024
4153   1 25.466042 58.923719 92.871905
6232   1 27.436749 56.564998 92.873930
16627  1 27.943514 58.923719 92.871905
18705  1 24.959277 56.564998 92.873930
10488  1 25.264474 61.243137 12.013497
22963  1 27.741946 61.243137 12.013498
105    1 26.981899 62.406605 14.027494
6430   1 28.385966 60.096831 14.052439
10587  1 25.180975 61.256097 16.070925
18903  1 25.908493 60.096830 14.052439
23062  1 27.658447 61.256098 16.070925
204    1 26.895407 62.416196 18.088432
6529   1 28.384961 60.099819 18.100608
10686  1 25.151552 61.260225 20.119874
19002  1 25.907489 60.099818 18.100608
23161  1 27.629025 61.260226 20.119874
303    1 26.859845 62.421553 22.137766
6628   1 28.379816 60.102211 22.146524
10785  1 25.134579 61.263537 24.164460
19101  1 25.902343 60.102210 22.146524
23260  1 27.612051 61.263537 24.164460
402    1 26.840781 62.425140 26.182007
6727   1 28.368298 60.104955 26.189941
10884  1 25.118793 61.266651 28.206746
19200  1 25.890826 60.104954 26.189941
23359  1 27.596266 61.266651 28.206746
501    1 26.828661 62.427708 30.224282
6826   1 28.345254 60.109299 30.233543
19299  1 25.867782 60.109299 30.233543
10983  1 25.096444 61.270500 32.249618
600    1 26.820214 62.429738 34.267716
6925   1 28.293855 60.117025 34.282534
19398  1 25.816382 60.117025 34.282534
23458  1 27.573917 61.270501 32.249618
11082  1 25.045431 61.275507 36.297404
699    1 26.817545 62.433102 38.312193
7024   1 28.130797 60.136251 38.354094
19497  1 25.653324 60.136251 38.354094
23557  1 27.522904 61.275507 36.297404
798    1 28.042165 62.431749 42.380354
7123   1 27.579094 60.073681 42.409572
13271  1 25.564693 62.431749 42.380354
19596  1 25.101622 60.073681 42.409571
23656  1 27.198486 61.264741 40.369521
897    1 28.034403 62.431330 46.379249
7222   1 27.328136 60.085622 46.397927
13370  1 25.556931 62.431329 46.379249
19695  1 24.850663 60.085622 46.397927
23755  1 26.488858 61.254792 44.376025
996    1 28.027306 62.430280 50.420989
7321   1 27.257444 60.091410 50.428843
13469  1 25.549834 62.430279 50.420989
19794  1 24.779972 60.091409 50.428843
23854  1 26.419658 61.260600 48.402326
23953  1 26.391478 61.260602 52.446122
1095   1 25.542179 62.428683 54.468304
7420   1 27.220104 60.090415 54.472521
13569  1 28.019651 62.428683 54.468304
19893  1 24.742632 60.090414 54.472521
24052  1 26.372149 61.258342 56.493801
1194   1 25.534250 62.426972 58.517026
7519   1 27.193922 60.086986 58.519698
13668  1 28.011723 62.426973 58.517026
19992  1 24.716450 60.086986 58.519698
24151  1 26.357000 61.255852 60.542515
1293   1 25.526512 62.425870 62.566113
7618   1 27.174696 60.084037 62.568149
13767  1 28.003984 62.425870 62.566114
24250  1 26.345038 61.254402 64.591778
1392   1 25.518945 62.425695 66.615589
7717   1 27.160897 60.082611 66.617570
13866  1 27.996418 62.425695 66.615589
24349  1 26.335414 61.254141 68.641637
1491   1 25.511027 62.426382 70.665365
7816   1 27.151166 60.082381 70.667745
13965  1 27.988499 62.426382 70.665365
24448  1 26.327140 61.254719 72.691706
1590   1 25.501838 62.427802 74.714725
7915   1 27.144425 60.082744 74.717883
14064  1 27.979311 62.427802 74.714725
1689   1 25.489826 62.429994 78.762314
8014   1 27.140047 60.083405 78.766632
14163  1 27.967298 62.429995 78.762314
24547  1 26.319192 61.255861 76.740966
1788   1 25.471777 62.433418 82.806085
8113   1 27.137798 60.084518 82.812045
14262  1 27.949249 62.433418 82.806085
24646  1 26.310243 61.257637 80.787839
1887   1 25.439874 62.439646 86.842403
8212   1 27.137617 60.086604 86.849943
14361  1 27.917347 62.439646 86.842403
24745  1 26.297601 61.260728 84.829728
1986   1 25.386552 62.442619 90.876472
8311   1 27.139048 60.090153 90.857087
14460  1 27.864025 62.442620 90.876472
24844  1 26.274089 61.267797 88.859006
12479  1 24.862132 62.401227  9.940518
6      1 27.339604 62.401227  9.940518
6331   1 28.385061 60.092529  9.982024
18804  1 25.907589 60.092529  9.982024
24943  1 26.336298 61.261261 92.867205
2086   1 30.861634  2.844215 11.957649
4164   1 27.423113  0.512801 11.964083
14559  1 28.384161  2.844215 11.957649
16638  1 29.900586  0.512801 11.964084
2185   1 30.690386  2.846073 16.024614
8421   1 29.043233  1.679646 13.994301
14658  1 28.212914  2.846072 16.024613
16737  1 29.713127  0.533911 16.046871
2284   1 30.598681  2.860013 20.092697
8520   1 28.917018  1.696568 18.068836
14757  1 28.121209  2.860013 20.092696
16836  1 29.640827  0.544030 20.106867
2383   1 30.555574  2.868236 24.149492
8619   1 28.859213  1.706144 22.127024
14856  1 28.078102  2.868235 24.149492
16935  1 29.608067  0.549657 24.156251
2482   1 30.544597  2.871125 28.200887
8718   1 28.834697  1.711047 26.176761
14955  1 28.067125  2.871125 28.200887
17034  1 29.594252  0.552645 28.201057
8817   1 28.834147  1.712095 30.223973
2581   1 30.567938  2.868091 32.253944
8916   1 28.868520  1.708711 34.275093
15054  1 28.090466  2.868091 32.253944
17133  1 29.596512  0.553349 32.245398
2680   1 30.660283  2.855037 36.321383
9015   1 29.017196  1.693908 38.347991
15153  1 28.182810  2.855037 36.321383
17232  1 29.633580  0.552546 36.293863
2779   1 30.924833  2.868486 40.389555
4857   1 27.459428  0.563274 40.366848
9114   1 29.548069  1.755784 42.404210
15252  1 28.447360  2.868486 40.389555
17331  1 29.936901  0.563274 40.366848
21687  1 27.308896  1.743309 46.394329
4956   1 28.154589  0.574722 44.373656
9213   1 29.786368  1.743310 46.394330
15351  1 28.820944  2.925348 44.409736
17430  1 30.632062  0.574722 44.373656
21786  1 27.364890  1.735566 50.425919
5055   1 28.209703  0.567540 48.400777
9312   1 29.842362  1.735566 50.425920
15450  1 28.958723  2.909883 48.417077
17529  1 30.687176  0.567541 48.400778
3076   1 29.010665  2.903624 52.451115
5155   1 30.700554  0.564890 52.444692
17628  1 28.223082  0.564889 52.444692
9411   1 27.386732  1.733387 54.469649
3175   1 29.036648  2.903000 56.494338
5254   1 30.704123  0.563655 56.492324
17727  1 28.226651  0.563655 56.492324
21886  1 29.864205  1.733388 54.469649
9510   1 27.396919  1.733383 58.516635
3274   1 29.050506  2.904370 60.540506
5353   1 30.703508  0.563186 60.540879
17826  1 28.226036  0.563185 60.540879
21985  1 29.874392  1.733383 58.516635
9609   1 27.400601  1.734163 62.564629
3373   1 29.055972  2.906092 64.587899
5452   1 30.700235  0.563358 64.589817
17925  1 28.222762  0.563357 64.589817
22084  1 29.878074  1.734163 62.564629
9708   1 27.399272  1.735320 66.613197
3472   1 29.054369  2.908013 68.635977
5551   1 30.694562  0.564192 68.639117
18024  1 28.217090  0.564192 68.639117
22183  1 29.876744  1.735321 66.613198
9807   1 27.393241  1.737023 70.661996
3571   1 29.045849  2.910629 72.683914
5650   1 30.686047  0.565766 72.688317
18123  1 28.208574  0.565766 72.688317
22282  1 29.870714  1.737023 70.661996
9906   1 27.381824  1.739599 74.710063
22381  1 29.859297  1.739599 74.710063
10005  1 27.362796  1.743385 78.755720
3670   1 29.029071  2.914457 76.730181
5749   1 30.673403  0.568216 76.736262
18222  1 28.195931  0.568215 76.736262
22480  1 29.840268  1.743386 78.755720
10104  1 27.330972  1.748816 82.796670
3769   1 29.000250  2.919861 80.772614
5848   1 30.653731  0.571852 80.781125
18321  1 28.176258  0.571852 80.781125
22579  1 29.808444  1.748817 82.796670
10203  1 27.275604  1.755312 86.831562
3868   1 28.951286  2.926578 84.809144
5947   1 30.620408  0.577482 84.820307
18420  1 28.142935  0.577482 84.820307
22678  1 29.753077  1.755312 86.831562
3967   1 28.859448  2.934348 88.834541
6046   1 30.560484  0.583290 88.854522
18519  1 28.083012  0.583289 88.854522
22777  1 29.631073  1.762759 90.849826
8322   1 29.310822  1.700932  9.933014
4066   1 28.667005  2.918270 92.857904
6145   1 30.368383  0.585566 92.861406
18618  1 27.890910  0.585565 92.861406
16540  1 31.144478  2.918270 92.857904
10401  1 29.297425  5.183195 11.964904
117    1 30.911841  6.337766 13.994692
6342   1 27.517011  4.004508 13.988057
10500  1 29.153104  5.168706 16.020163
12590  1 28.434369  6.337765 13.994692
18816  1 29.994484  4.004508 13.988057
216    1 30.803840  6.334048 18.052852
6441   1 27.395263  4.012032 18.054530
10599  1 29.063575  5.177534 20.084669
12689  1 28.326367  6.334047 18.052852
18915  1 29.872736  4.012032 18.054530
315    1 30.739080  6.342416 22.115555
6540   1 27.328217  4.023519 22.118398
10698  1 29.017464  5.186409 24.146249
12788  1 28.261607  6.342415 22.115555
19014  1 29.805690  4.023520 22.118398
414    1 30.713003  6.348008 26.176519
10797  1 29.009467  5.188755 28.204492
12887  1 28.235531  6.348007 26.176519
19113  1 29.778797  4.029434 26.175055
513    1 30.726607  6.345741 30.237505
12986  1 28.249134  6.345741 30.237504
19212  1 29.787649  4.028546 30.230385
612    1 30.788095  6.337110 34.300553
6837   1 27.369790  4.018474 34.293623
10896  1 29.044455  5.182370 32.265779
13085  1 28.310623  6.337109 34.300553
19311  1 29.847262  4.018474 34.293623
711    1 30.913470  6.343132 38.356205
6936   1 27.522148  4.011229 38.362220
10995  1 29.141285  5.172099 36.331444
13184  1 28.435997  6.343132 38.356205
19410  1 29.999620  4.011229 38.362220
810    1 31.118461  6.401587 42.396111
7035   1 27.822640  4.079175 42.402650
11094  1 29.334053  5.200162 40.382632
13283  1 28.640989  6.401587 42.396111
19509  1 30.300112  4.079175 42.402650
7134   1 28.040402  4.089076 46.420662
11193  1 29.579219  5.257209 44.415203
13382  1 28.815416  6.424109 46.427591
19608  1 30.517874  4.089077 46.420662
7233   1 28.138787  4.076267 50.439555
11292  1 29.722797  5.252221 48.435351
13481  1 28.923116  6.416676 50.451842
19707  1 30.616259  4.076268 50.439555
23866  1 29.801686  5.243707 52.461344
11490  1 27.370667  5.243264 56.498529
1107   1 28.991642  6.412899 54.482367
7333   1 30.665000  4.072700 54.475402
19806  1 28.187527  4.072699 54.475402
23965  1 29.848139  5.243264 56.498530
11589  1 27.398782  5.246128 60.540953
1206   1 29.035987  6.415316 58.520469
7432   1 30.692928  4.073971 58.518166
19905  1 28.215455  4.073970 58.518166
24064  1 29.876254  5.246128 60.540953
11688  1 27.413129  5.249112 64.585957
1305   1 29.062538  6.419065 62.562744
7531   1 30.708079  4.076391 62.563634
20004  1 28.230607  4.076391 62.563634
24163  1 29.890602  5.249112 64.585958
11787  1 27.415875  5.251907 68.632425
1404   1 29.074244  6.422240 66.607561
7630   1 30.713143  4.078728 66.610515
20103  1 28.235671  4.078728 66.610515
24262  1 29.893348  5.251908 68.632425
11886  1 27.407834  5.255449 72.679067
1503   1 29.072972  6.425573 70.653670
7729   1 30.709261  4.081379 70.657970
20202  1 28.231789  4.081379 70.657970
24361  1 29.885307  5.255450 72.679067
1602   1 29.058957  6.430291 74.699274
7828   1 30.696128  4.085116 74.704609
20301  1 28.218656  4.085116 74.704609
11985  1 27.387910  5.260581 76.723944
1701   1 29.030070  6.436943 78.742058
7927   1 30.671308  4.090462 78.748377
20400  1 28.193836  4.090462 78.748377
24460  1 29.865383  5.260582 76.723944
12084  1 27.352253  5.267440 80.764722
1800   1 28.980730  6.444824 82.779676
8026   1 30.628999  4.097306 82.786988
20499  1 28.151527  4.097306 82.786988
24559  1 29.829726  5.267441 80.764722
1899   1 28.900965  6.449952 86.812211
8125   1 30.555553  4.104915 86.817250
20598  1 28.078080  4.104915 86.817250
24658  1 29.769616  5.275142 84.798904
1998   1 28.775818  6.437354 90.846545
8224   1 30.423091  4.102839 90.842992
20697  1 27.945618  4.102839 90.842992
24757  1 29.669213  5.277923 88.827920
14472  1 31.253291  6.437355 90.846545
18     1 31.073378  6.380488  9.949045
6243   1 27.717109  4.041926  9.939286
12491  1 28.595906  6.380488  9.949044
18717  1 30.194582  4.041926  9.939286
24856  1 29.503481  5.249045 92.862377
4175   1 27.715591  7.521876 11.976475
2097   1 31.079425  9.859046 11.990266
14570  1 28.601953  9.859046 11.990266
16649  1 30.193064  7.521876 11.976475
2196   1 30.967387  9.830782 16.038837
4274   1 27.590863  7.498188 16.026812
8432   1 29.334164  8.673171 14.006704
14669  1 28.489915  9.830782 16.038837
16748  1 30.068336  7.498188 16.026812
2295   1 30.893622  9.826622 20.093598
4373   1 27.509796  7.499684 20.085893
8531   1 29.237616  8.661559 18.060069
14768  1 28.416149  9.826622 20.093598
16847  1 29.987268  7.499684 20.085894
2394   1 30.853923  9.830548 24.151956
4472   1 27.466406  7.506395 24.147411
8630   1 29.178665  8.665223 22.119112
14867  1 28.376451  9.830548 24.151955
16946  1 29.943879  7.506395 24.147412
2493   1 30.847779  9.832292 28.211022
4571   1 27.460361  7.508078 28.208680
8729   1 29.154823  8.669422 26.179780
14966  1 28.370306  9.832292 28.211022
17045  1 29.937833  7.508078 28.208681
8828   1 29.167646  8.667994 30.240204
2592   1 30.876993  9.830601 32.267802
4670   1 27.495243  7.502822 32.270132
8927   1 29.220670  8.664878 34.297368
15065  1 28.399521  9.830601 32.267802
17144  1 29.972715  7.502822 32.270133
2691   1 30.945842  9.835486 36.317866
4769   1 27.578431  7.501100 36.327140
9026   1 29.322158  8.678513 38.345367
15164  1 28.468370  9.835486 36.317866
17243  1 30.055904  7.501101 36.327140
2790   1 31.061994  9.865995 40.359621
4868   1 27.724844  7.533123 40.371731
9125   1 29.475623  8.726377 42.385562
15263  1 28.584522  9.865994 40.359621
17342  1 30.202317  7.533123 40.371731
2889   1 31.202548  9.907049 44.400066
4967   1 27.904205  7.582650 44.410004
9224   1 29.617980  8.752823 46.423694
15362  1 28.725075  9.907049 44.400066
17441  1 30.381677  7.582650 44.410005
2988   1 31.318156  9.919068 48.437521
5066   1 28.033924  7.588233 48.440975
9323   1 29.722840  8.752999 50.455403
15461  1 28.840684  9.919067 48.437521
17540  1 30.511397  7.588233 48.440976
3087   1 28.932490  9.920020 52.470597
5166   1 30.600510  7.583296 52.469148
17639  1 28.123038  7.583295 52.469148
3186   1 29.006233  9.924469 56.504039
5265   1 30.663066  7.584105 56.502563
17738  1 28.185594  7.584104 56.502563
21897  1 29.802101  8.752554 54.486679
3285   1 29.059842  9.930926 60.540530
5364   1 30.704626  7.588444 60.541324
17837  1 28.227153  7.588443 60.541324
21996  1 29.860300  8.757035 58.521912
3384   1 29.092002  9.935437 64.580881
5463   1 30.727928  7.592333 64.583740
17936  1 28.250455  7.592333 64.583740
22095  1 29.897829  8.762019 62.561334
9719   1 27.438955  8.765580 66.604254
3483   1 29.104744  9.938610 68.624694
5562   1 30.735428  7.595598 68.628630
18035  1 28.257955  7.595598 68.628630
22194  1 29.916427  8.765580 66.604254
9818   1 27.440930  8.769122 70.649447
3582   1 29.100063  9.942810 72.670402
5661   1 30.728599  7.599741 72.674395
18134  1 28.251126  7.599741 72.674395
22293  1 29.918402  8.769123 70.649447
9917   1 27.427139  8.774412 74.694896
22392  1 29.904611  8.774412 74.694896
3681   1 29.078060  9.949442 76.715683
5760   1 30.706876  7.605876 76.718806
18233  1 28.229404  7.605876 76.718806
22491  1 29.873608  8.781924 78.738183
3780   1 29.036647  9.957571 80.758472
5859   1 30.666975  7.613765 80.759482
18332  1 28.189502  7.613764 80.759482
22590  1 29.821394  8.789661 82.777742
3879   1 28.971614  9.962263 84.798710
5958   1 30.602429  7.620464 84.795572
18431  1 28.124957  7.620463 84.795572
22689  1 29.741507  8.790793 86.815167
3978   1 28.876467  9.952411 88.839460
6057   1 30.503632  7.616361 88.830909
18530  1 28.026159  7.616361 88.830909
22788  1 29.625124  8.770551 90.855416
8333   1 29.472823  8.717066  9.961144
4077   1 28.745809  9.913642 92.883347
6156   1 30.359173  7.580896 92.871465
18629  1 27.881700  7.580895 92.871465
16551  1 31.223281  9.913643 92.883347
10412  1 29.481677 12.194792 12.005279
6353   1 27.745171 11.008680 14.021154
4285   1 27.775267 14.499948 16.067408
128    1 31.101965 13.343833 14.036437
10511  1 29.376753 12.164844 16.053041
12601  1 28.624492 13.343833 14.036437
18827  1 30.222644 11.008681 14.021154
6452   1 27.656087 10.992664 18.071710
4384   1 27.707219 14.492463 20.114626
227    1 31.016498 13.326429 18.084652
10610  1 29.307325 12.157676 20.104098
12700  1 28.539026 13.326429 18.084652
18926  1 30.133560 10.992665 18.071710
4483   1 27.669435 14.494669 24.162781
326    1 30.963982 13.325151 22.134780
6551   1 27.601615 10.992804 22.126494
10709  1 29.269543 12.159982 24.157658
12799  1 28.486509 13.325151 22.134779
19025  1 30.079088 10.992804 22.126495
425    1 30.940787 13.328367 26.186023
6650   1 27.578902 10.996025 26.183243
10808  1 29.261711 12.162521 28.211564
12898  1 28.463314 13.328367 26.186023
19124  1 30.056375 10.996026 26.183243
4582   1 27.659279 14.498291 28.211018
524    1 30.946188 13.331013 30.236086
6749   1 27.588228 10.996648 30.239011
12997  1 28.468716 13.331013 30.236086
19223  1 30.065700 10.996648 30.239011
623    1 30.981970 13.335929 34.281972
6848   1 27.631865 10.998460 34.290030
10907  1 29.284709 12.164182 32.262577
13096  1 28.504498 13.335929 34.281972
19322  1 30.109338 10.998460 34.290030
4681   1 27.676963 14.502222 32.256921
722    1 31.052009 13.352125 38.322663
6947   1 27.715326 11.014890 38.333634
11006  1 29.341930 12.172648 36.307659
13195  1 28.574537 13.352124 38.322663
19421  1 30.192799 11.014891 38.333634
821    1 31.152926 13.382172 42.362039
7046   1 27.837093 11.053299 42.373719
11105  1 29.437235 12.199304 40.347694
13294  1 28.675453 13.382171 42.362039
19520  1 30.314565 11.053299 42.373719
920    1 31.258634 13.404468 46.403432
7145   1 27.957535 11.078917 46.414575
11204  1 29.553154 12.232285 44.388483
13393  1 28.781161 13.404468 46.403432
19619  1 30.435007 11.078918 46.414576
1019   1 31.355657 13.414407 50.443707
7244   1 28.057683 11.085211 50.451758
11303  1 29.658254 12.246850 48.429062
13492  1 28.878185 13.414407 50.443706
19718  1 30.535156 11.085211 50.451759
23877  1 29.751271 12.253482 52.466424
1118   1 28.969551 13.425177 54.481317
7344   1 30.620735 11.090127 54.486177
19817  1 28.143262 11.090126 54.486177
23976  1 29.834007 12.263362 56.501771
1217   1 29.049780 13.438662 58.517191
7443   1 30.690283 11.098366 58.521022
19916  1 28.212811 11.098366 58.521022
24075  1 29.898555 12.272982 60.537713
1316   1 29.107631 13.446932 62.554533
7542   1 30.738140 11.104825 62.558736
20015  1 28.260667 11.104825 62.558736
24174  1 29.939439 12.277913 64.577052
1415   1 29.140761 13.449679 66.596137
7641   1 30.763853 11.108268 66.600466
20114  1 28.286380 11.108268 66.600466
24273  1 29.957986 12.280303 68.620673
1514   1 29.151663 13.451515 70.642117
7740   1 30.769850 11.111361 70.645548
20213  1 28.292377 11.111361 70.645548
24372  1 29.956507 12.283834 72.667372
1613   1 29.142030 13.455997 74.690753
7839   1 30.757524 11.116614 74.692014
20312  1 28.280052 11.116613 74.692014
1712   1 29.111926 13.463460 78.739855
7938   1 30.726319 11.124344 78.737561
20411  1 28.248846 11.124344 78.737561
24471  1 29.935684 12.290317 76.714942
1811   1 29.059983 13.469792 82.787922
8037   1 30.673817 11.131287 82.780960
20510  1 28.196345 11.131287 82.780960
24570  1 29.894518 12.298200 80.761440
1910   1 28.982655 13.465470 86.834806
8136   1 30.595489 11.128923 86.823369
20609  1 28.118017 11.128923 86.823368
24669  1 29.830220 12.301184 84.806444
2009   1 28.875006 13.437836 90.881238
8235   1 30.485251 11.103883 90.867370
20708  1 28.007778 11.103883 90.867370
24768  1 29.737663 12.287639 88.851314
14483  1 31.352478 13.437837 90.881238
6254   1 27.870619 11.052351  9.974944
29     1 31.221467 13.386790  9.989792
12502  1 28.743995 13.386790  9.989791
18728  1 30.348091 11.052352  9.974944
24867  1 29.614269 12.247010 92.897076
4186   1 27.877876 14.529434 12.020659
6265   1 28.004790 18.054057 10.019663
2108   1 31.222443 16.863292 12.035564
8344   1 29.614881 15.720652 10.004948
14581  1 28.744971 16.863291 12.035564
16660  1 30.355349 14.529435 12.020659
18739  1 30.482263 18.054057 10.019663
6364   1 27.878265 18.013932 14.064785
2207   1 31.117830 16.836295 16.080419
8443   1 29.494980 15.678769 14.051349
14680  1 28.640358 16.836295 16.080419
16759  1 30.252739 14.499948 16.067409
18838  1 30.355738 18.013933 14.064786
6463   1 27.790632 18.001596 18.106331
2306   1 31.048917 16.830851 20.123259
8542   1 29.409762 15.662659 18.096752
14779  1 28.571444 16.830851 20.123259
16858  1 30.184692 14.492463 20.114626
18937  1 30.268105 18.001596 18.106331
6562   1 27.736831 18.002981 22.146541
2405   1 31.010121 16.834064 24.166218
8641   1 29.357085 15.661998 22.141931
14878  1 28.532649 16.834064 24.166217
16957  1 30.146907 14.494669 24.162781
19036  1 30.214304 18.002981 22.146541
6661   1 27.711034 18.007760 26.187904
2504   1 30.997809 16.838633 28.209756
8740   1 29.332509 15.665917 26.187688
14977  1 28.520336 16.838633 28.209756
17056  1 30.136752 14.498291 28.211018
19135  1 30.188506 18.007760 26.187905
6760   1 27.710340 18.012596 30.229747
8839   1 29.334430 15.670035 30.232789
19234  1 30.187812 18.012597 30.229748
2603   1 31.011276 16.843683 32.252079
6859   1 27.734899 18.019036 34.269904
8938   1 29.364002 15.676337 34.274958
15076  1 28.533803 16.843682 32.252078
17155  1 30.154436 14.502222 32.256922
19333  1 30.212371 18.019036 34.269904
2702   1 31.052357 16.852861 36.291416
4780   1 27.725180 14.511840 36.298458
6958   1 27.786551 18.030527 38.307430
9037   1 29.423871 15.690568 38.313599
15175  1 28.574885 16.852861 36.291415
17254  1 30.202653 14.511840 36.298459
19432  1 30.264024 18.030528 38.307430
2801   1 31.121877 16.869609 40.328635
4879   1 27.805676 14.533670 40.336995
7057   1 27.862793 18.046191 42.344139
9136   1 29.510512 15.713056 42.351742
15274  1 28.644404 16.869609 40.328635
17353  1 30.283149 14.533670 40.336996
19531  1 30.340265 18.046192 42.344139
2900   1 31.210604 16.887705 44.367010
4978   1 27.905366 14.559034 44.376989
7156   1 27.952610 18.057988 46.382545
9235   1 29.606542 15.730573 46.392221
15373  1 28.733131 16.887705 44.367009
17452  1 30.382838 14.559035 44.376990
19630  1 30.430083 18.057989 46.382545
2999   1 31.305264 16.899207 48.407598
5077   1 28.003665 14.573202 48.418434
7255   1 28.050869 18.067797 50.423176
9334   1 29.702897 15.741659 50.433582
15472  1 28.827792 16.899206 48.407598
17551  1 30.481137 14.573203 48.418435
19729  1 30.528341 18.067798 50.423177
3098   1 28.928202 16.912684 52.448927
5177   1 30.576636 14.584164 52.458576
15572  1 31.405674 16.912684 52.448927
17650  1 28.099164 14.584164 52.458576
3197   1 29.032964 16.935975 56.488247
5276   1 30.668965 14.600468 56.496140
7355   1 30.638257 18.088677 54.464300
17749  1 28.191492 14.600468 56.496140
19828  1 28.160785 18.088676 54.464299
21908  1 29.801865 15.757907 54.473522
3296   1 29.121487 16.954145 60.525806
5375   1 30.744626 14.614125 60.532648
7454   1 30.746431 18.115771 58.502788
17848  1 28.267154 14.614124 60.532648
19927  1 28.268959 18.115770 58.502787
22007  1 29.894261 15.777732 58.510806
3395   1 29.180888 16.958587 64.566669
5474   1 30.794397 14.619159 64.572182
7553   1 30.826932 18.127189 62.542255
17947  1 28.316925 14.619159 64.572181
20026  1 28.349460 18.127189 62.542255
22106  1 29.962648 15.787847 62.548814
3494   1 29.213268 16.956839 68.613143
5573   1 30.819437 14.619950 68.616692
7652   1 30.876904 18.125959 66.587182
18046  1 28.341964 14.619949 68.616692
20125  1 28.399431 18.125958 66.587181
22205  1 30.003751 15.789134 66.591478
3593   1 29.221398 16.956585 72.664352
5672   1 30.822255 14.621982 72.665366
7751   1 30.900456 18.122672 70.637544
18145  1 28.344782 14.621981 72.665365
20224  1 28.422983 18.122672 70.637544
22304  1 30.020523 15.788821 70.639318
7850   1 30.899176 18.123636 74.691737
20323  1 28.421703 18.123635 74.691737
22403  1 30.014647 15.791821 74.690814
3692   1 29.205931 16.961142 76.718583
5771   1 30.803723 14.627728 76.716199
7949   1 30.872915 18.129997 78.748493
18244  1 28.326251 14.627727 76.716199
20422  1 28.395443 18.129997 78.748493
22502  1 29.986286 15.798791 78.743994
3791   1 29.166512 16.968868 80.774102
5870   1 30.763448 14.635375 80.767192
8048   1 30.820770 18.137593 82.806167
18343  1 28.285975 14.635375 80.767192
20521  1 28.343297 18.137593 82.806167
22601  1 29.934610 15.805281 82.796960
3890   1 29.101622 16.972371 84.828691
5969   1 30.699477 14.637815 84.816995
8147   1 30.740054 18.135775 86.861540
18442  1 28.222004 14.637814 84.816994
20620  1 28.262581 18.135775 86.861540
22700  1 29.856660 15.801048 86.847995
3989   1 29.006986 16.958377 88.879838
6068   1 30.607286 14.622832 88.865121
8246   1 30.625263 18.108680 90.911359
18541  1 28.129814 14.622832 88.865121
20719  1 28.147791 18.108680 90.911358
22799  1 29.747654 15.772678 90.896156
16463  1 31.484458 16.958378 88.879838
4088   1 28.880035 16.915460 92.926988
6167   1 30.485175 14.580914 92.911871
18640  1 28.007702 14.580914 92.911871
16562  1 31.357507 16.915460 92.926988
4197   1 27.973423 21.530049 12.060200
40     1 31.344329 20.386937 10.033193
10423  1 29.603845 19.196663 12.049122
12513  1 28.866857 20.386937 10.033193
16671  1 30.450895 21.530049 12.060200
4296   1 27.854192 21.515728 16.095972
139    1 31.204407 20.350130 14.075418
10522  1 29.493355 19.174520 16.090590
12612  1 28.726935 20.350129 14.075417
16770  1 30.331665 21.515729 16.095973
4395   1 27.783036 21.518446 20.128945
238    1 31.112988 20.343777 18.111695
10621  1 29.422602 19.172860 20.128458
12711  1 28.635516 20.343777 18.111694
16869  1 30.260509 21.518447 20.128946
4494   1 27.745425 21.523689 24.165613
337    1 31.058963 20.347628 22.147618
10720  1 29.383229 19.177405 24.167223
12810  1 28.581490 20.347628 22.147617
16968  1 30.222897 21.523689 24.165613
4593   1 27.732385 21.528346 28.205699
436    1 31.033399 20.352781 26.186553
10819  1 29.369735 19.182391 28.207916
12909  1 28.555926 20.352781 26.186553
17067  1 30.209857 21.528346 28.205699
535    1 31.031226 20.357550 30.227233
13008  1 28.553753 20.357550 30.227233
4692   1 27.740179 21.533009 32.246642
634    1 31.051448 20.363353 34.267198
10918  1 29.379965 19.187602 32.248603
13107  1 28.573976 20.363353 34.267197
17166  1 30.217652 21.533009 32.246642
4791   1 27.769173 21.539326 36.286247
733    1 31.095566 20.372042 38.304914
11017  1 29.414896 19.195503 36.287257
13206  1 28.618093 20.372042 38.304913
17265  1 30.246645 21.539326 36.286247
832    1 31.162988 20.381866 42.340647
4890   1 27.820900 21.547328 40.323312
11116  1 29.475413 19.207473 40.323758
13305  1 28.685515 20.381866 42.340646
17364  1 30.298372 21.547328 40.323313
931    1 31.248405 20.387508 46.376136
4989   1 27.894213 21.552712 44.357913
11215  1 29.556142 19.218749 44.360066
13404  1 28.770932 20.387507 46.376135
17463  1 30.371685 21.552712 44.357913
1030   1 31.350912 20.393572 50.414054
5088   1 27.987605 21.553836 48.392132
11314  1 29.649591 19.225737 48.398210
13503  1 28.873439 20.393571 50.414053
17562  1 30.465078 21.553837 48.392132
5188   1 30.584909 21.565084 52.430211
17661  1 28.107437 21.565083 52.430210
23888  1 29.757964 19.239526 52.439022
1129   1 28.999131 20.417747 54.454954
5287   1 30.732610 21.604008 56.470428
13603  1 31.476603 20.417747 54.454955
17760  1 28.255138 21.604007 56.470428
23987  1 29.880168 19.270316 56.479316
1228   1 29.129251 20.453167 58.494212
5386   1 30.859114 21.630602 60.510891
17859  1 28.381642 21.630602 60.510891
24086  1 29.984957 19.293016 60.518127
1327   1 29.224500 20.464506 62.536089
5485   1 30.942297 21.629328 64.558469
17958  1 28.464824 21.629327 64.558469
24185  1 30.055347 19.295588 64.561518
1426   1 29.284385 20.459444 66.584602
5584   1 30.991315 21.619998 68.611477
18057  1 28.513843 21.619998 68.611477
24284  1 30.095916 19.290353 68.610911
1525   1 29.315142 20.452740 70.637632
5683   1 31.011198 21.614347 72.666246
18156  1 28.533725 21.614347 72.666246
24383  1 30.110059 19.287307 72.664483
1624   1 29.318854 20.451485 74.693202
1723   1 29.295302 20.456986 78.751640
5782   1 31.003510 21.615758 76.722675
18255  1 28.526037 21.615758 76.722675
24482  1 30.098259 19.290352 76.721042
1822   1 29.242564 20.466167 82.813123
5881   1 30.966992 21.623596 80.782991
18354  1 28.489519 21.623595 80.782991
24581  1 30.059705 19.298369 80.780152
1921   1 29.156959 20.469112 86.873678
5980   1 30.897356 21.633243 84.847029
18453  1 28.419883 21.633242 84.847028
24680  1 29.992529 19.304539 84.839605
2020   1 29.031102 20.446118 90.926113
6079   1 30.787766 21.630173 88.907442
18552  1 28.310294 21.630173 88.907442
24779  1 29.892175 19.294338 88.894416
14494  1 31.508574 20.446119 90.926113
6178   1 30.627347 21.587714 92.955577
18651  1 28.149874 21.587714 92.955577
24878  1 29.753275 19.250910 92.941748
6276   1 28.075361 25.050131 10.052159
2119   1 31.277985 23.864912 12.066600
8355   1 29.719719 22.719024 10.044646
14592  1 28.800513 23.864912 12.066600
18750  1 30.552834 25.050131 10.052159
6375   1 27.887446 25.033011 14.077664
2218   1 31.151306 23.861353 16.093898
8454   1 29.558676 22.688919 14.081035
14691  1 28.673833 23.861352 16.093897
18849  1 30.364918 25.033012 14.077664
6474   1 27.802202 25.039206 18.104028
2317   1 31.085776 23.866970 20.124552
8553   1 29.465331 22.689761 18.111059
14790  1 28.608304 23.866970 20.124552
18948  1 30.279674 25.039207 18.104028
2416   1 31.053926 23.871673 24.162181
8652   1 29.414831 22.695099 22.145000
14889  1 28.576453 23.871672 24.162180
19047  1 30.239272 25.044021 22.140235
2515   1 31.043081 23.875397 28.203469
8751   1 29.392025 22.699754 26.184007
14988  1 28.565609 23.875397 28.203468
19146  1 30.221701 25.047611 26.181031
8850   1 29.389557 22.703805 30.225385
19245  1 30.220028 25.050460 30.224334
2614   1 31.049104 23.878996 32.246085
8949   1 29.405760 22.708504 34.266752
15087  1 28.571631 23.878995 32.246085
19344  1 30.232385 25.053726 34.268090
2713   1 31.071953 23.883634 36.288004
9048   1 29.441983 22.714746 38.306257
15186  1 28.594480 23.883634 36.288004
19443  1 30.259926 25.057849 38.310686
7068   1 27.828160 25.060593 42.350025
2812   1 31.113685 23.888731 40.327498
9147   1 29.499869 22.720177 42.342522
15285  1 28.636213 23.888731 40.327498
19542  1 30.305632 25.060594 42.350026
2911   1 31.177273 23.889993 44.362306
7167   1 27.898888 25.056878 46.382215
9246   1 29.580239 22.720134 46.375170
15384  1 28.699801 23.889993 44.362305
19641  1 30.376360 25.056878 46.382216
3010   1 31.268917 23.885048 48.392000
7266   1 28.010458 25.049163 50.408069
9345   1 29.688359 22.720033 50.408034
15483  1 28.791445 23.885048 48.392000
19740  1 30.487930 25.049163 50.408069
3109   1 28.926028 23.889975 52.424058
15583  1 31.403500 23.889976 52.424059
3208   1 29.112992 23.937587 56.462497
7366   1 30.668681 25.070597 54.440497
19839  1 28.191209 25.070597 54.440497
21919  1 29.836702 22.745144 54.446596
15682  1 31.590464 23.937588 56.462498
3307   1 29.269972 23.966095 60.505980
7465   1 30.882857 25.126837 58.480176
19938  1 28.405384 25.126836 58.480176
22018  1 29.999152 22.790261 58.486189
3406   1 29.367526 23.958455 64.560231
7564   1 31.019946 25.128267 62.534115
20037  1 28.542473 25.128267 62.534115
22117  1 30.112904 22.798882 62.532274
3505   1 29.423129 23.945590 68.616559
7663   1 31.098347 25.113145 66.593309
20136  1 28.620874 25.113144 66.593309
22216  1 30.183199 22.788760 66.585833
3604   1 29.446433 23.938654 72.670079
7762   1 31.136879 25.102801 70.647303
20235  1 28.659406 25.102801 70.647302
22315  1 30.220048 22.779147 70.640725
7861   1 31.147190 25.099311 74.697840
9939   1 27.750622 22.776193 74.695204
20334  1 28.669717 25.099311 74.697840
22414  1 30.228095 22.776194 74.695204
3703   1 29.442860 23.938671 76.723300
7960   1 31.133482 25.101594 78.750007
20433  1 28.656010 25.101594 78.750007
22513  1 30.208614 22.780292 78.752063
3802   1 29.411686 23.944926 80.780894
8059   1 31.090686 25.109346 82.808929
20532  1 28.613214 25.109345 82.808929
22612  1 30.157632 22.790113 82.814789
3901   1 29.343651 23.956488 84.846963
8158   1 31.000528 25.122784 86.879651
20631  1 28.523056 25.122784 86.879650
22711  1 30.066573 22.799350 86.881531
4000   1 29.222760 23.963826 88.916136
8257   1 30.831980 25.124153 90.949488
20730  1 28.354507 25.124152 90.949488
22810  1 29.922959 22.785029 90.939525
4099   1 29.025314 23.926583 92.967882
16573  1 31.502786 23.926583 92.967882
51     1 31.325270 27.383179 10.052469
10434  1 29.588670 26.205466 12.063359
12524  1 28.847798 27.383179 10.052469
16682  1 30.306153 28.559704 12.041231
150    1 31.137116 27.384730 14.061618
10533  1 29.472235 26.211725 16.083118
12623  1 28.659643 27.384729 14.061618
16781  1 30.258103 28.562004 16.076182
249    1 31.083134 27.389404 18.096482
10632  1 29.423935 26.216668 20.118231
12722  1 28.605661 27.389404 18.096482
16880  1 30.232505 28.567030 20.112582
348    1 31.057322 27.393502 22.135281
10731  1 29.401248 26.220341 24.158233
12821  1 28.579849 27.393502 22.135281
16979  1 30.222232 28.568984 24.155397
447    1 31.047239 27.395567 26.178664
10830  1 29.394196 26.222695 28.201759
12920  1 28.569767 27.395566 26.178664
17078  1 30.220143 28.569743 28.201152
546    1 31.047214 27.396919 30.224234
13019  1 28.569741 27.396918 30.224234
645    1 31.055870 27.398476 34.270533
10929  1 29.398980 26.224867 32.246696
13118  1 28.578397 27.398476 34.270533
17177  1 30.224064 28.570254 32.248216
744    1 31.074130 27.400497 38.316582
11028  1 29.415448 26.227691 36.291566
13217  1 28.596658 27.400497 38.316582
17276  1 30.234059 28.571037 36.295758
843    1 31.104904 27.401523 42.360794
11127  1 29.445622 26.230591 40.334944
13316  1 28.627431 27.401523 42.360793
17375  1 30.251669 28.571800 40.343072
942    1 31.156740 27.397665 46.398548
11226  1 29.494395 26.230126 44.373754
13415  1 28.679268 27.397664 46.398548
17474  1 30.281058 28.570716 44.388120
1041   1 31.259313 27.384542 50.419381
11325  1 29.576526 26.221402 48.401602
13514  1 28.781840 27.384542 50.419380
17573  1 30.336739 28.564013 48.424223
5199   1 30.479472 28.548263 52.433500
17672  1 28.002000 28.548262 52.433500
23899  1 29.725233 26.215959 52.423348
1140   1 29.005875 27.393708 54.438953
5298   1 30.860099 28.604084 56.455121
17771  1 28.382626 28.604083 56.455121
23998  1 29.977975 26.271448 56.456677
13614  1 31.483348 27.393708 54.438953
1239   1 29.315252 27.460394 58.479673
5397   1 31.134049 28.615806 60.523222
17870  1 28.656576 28.615806 60.523222
24097  1 30.180869 26.296777 60.507100
1338   1 29.477933 27.449040 62.547194
5496   1 31.237699 28.598164 64.589309
17969  1 28.760227 28.598164 64.589309
24196  1 30.290972 26.281187 64.570392
1437   1 29.552873 27.433417 66.607255
5595   1 31.278563 28.589643 68.638183
11820  1 27.868450 26.267985 68.626500
18068  1 28.801091 28.589643 68.638183
24295  1 30.345923 26.267986 68.626500
1536   1 29.585193 27.425536 70.655912
5694   1 31.295219 28.585361 72.681488
11919  1 27.890626 26.261831 72.675572
18167  1 28.817747 28.585361 72.681488
24394  1 30.368098 26.261832 72.675572
1635   1 29.595301 27.422436 74.701023
1734   1 29.588684 27.422949 78.747384
5793   1 31.298317 28.583885 76.724317
12018  1 27.890676 26.260926 76.723534
18266  1 28.820844 28.583884 76.724317
24493  1 30.368148 26.260926 76.723535
1833   1 29.561536 27.426933 82.798927
5892   1 31.289144 28.584811 80.769940
12117  1 27.868948 26.264512 80.775208
18365  1 28.811672 28.584811 80.769940
24592  1 30.346421 26.264513 80.775208
1932   1 29.493679 27.435884 86.861479
5991   1 31.260422 28.588353 84.821266
18464  1 28.782949 28.588353 84.821266
24691  1 30.291621 26.273171 84.835938
2031   1 29.310846 27.455700 90.946776
6090   1 31.178854 28.596588 88.884658
18563  1 28.701382 28.596587 88.884658
24790  1 30.168601 26.289171 88.913137
6189   1 30.828842 28.602239 92.974095
18662  1 28.351370 28.602238 92.974095
24889  1 29.905741 26.267977 92.977357
2130   1 31.025144 30.913091 12.065387
8366   1 29.350675 29.741526 10.052649
10445  1 29.267231 33.266318 12.041912
14603  1 28.547671 30.913090 12.065387
18761  1 30.214383 32.079652 10.052128
22920  1 31.744703 33.266318 12.041912
2229   1 31.032239 30.916223 16.072979
8465   1 29.418441 29.734784 14.061393
10544  1 29.329085 33.270484 16.077184
14702  1 28.554766 30.916222 16.072979
18860  1 30.162113 32.095064 14.061883
23019  1 31.806557 33.270484 16.077184
2328   1 31.037511 30.917466 20.110711
8564   1 29.400485 29.741024 18.091086
10643  1 29.365391 33.267820 20.114093
14801  1 28.560038 30.917466 20.110711
18959  1 30.192209 32.093083 18.091685
23118  1 31.842863 33.267820 20.114093
2427   1 31.041641 30.917331 24.155067
8663   1 29.394255 29.742914 22.132456
10742  1 29.384000 33.265483 24.157788
14900  1 28.564169 30.917331 24.155067
19058  1 30.207744 32.092113 22.133411
23217  1 31.861472 33.265483 24.157789
2526   1 31.045116 30.916410 28.202088
8762   1 29.393209 29.743230 26.177912
10841  1 29.393065 33.262799 28.204707
14999  1 28.567643 30.916410 28.202088
19157  1 30.216294 32.090584 26.179384
23316  1 31.870538 33.262799 28.204708
8861   1 29.395349 29.742939 30.225219
19256  1 30.220773 32.088568 30.227342
2625   1 31.048364 30.915117 32.250431
8960   1 29.400425 29.742567 34.273442
10940  1 29.395619 33.259644 32.253186
15098  1 28.570891 30.915117 32.250431
19355  1 30.222295 32.086139 34.276365
23415  1 31.873092 33.259644 32.253186
2724   1 31.051873 30.913645 36.299591
9059   1 29.409153 29.742262 38.322175
11039  1 29.392552 33.255847 36.302505
15197  1 28.574401 30.913644 36.299591
19454  1 30.221380 32.083310 38.326182
23514  1 31.870024 33.255847 36.302505
2823   1 31.056522 30.911985 40.349380
9158   1 29.423474 29.741497 42.370760
11138  1 29.384017 33.251613 40.352404
15296  1 28.579049 30.911984 40.349380
19553  1 30.218696 32.080370 42.376550
23613  1 31.861489 33.251613 40.352405
2922   1 31.064386 30.909910 44.398962
9257   1 29.449084 29.738729 46.416582
11237  1 29.369710 33.248174 44.402059
15395  1 28.586914 30.909909 44.398962
19652  1 30.215299 32.077946 46.426069
23712  1 31.847183 33.248174 44.402059
3021   1 31.081719 30.906645 48.445117
9356   1 29.509354 29.730531 50.450240
11336  1 29.345593 33.247468 48.448239
15494  1 28.604247 30.906645 48.445117
19751  1 30.212220 32.076372 50.470094
23811  1 31.823066 33.247469 48.448239
3120   1 28.663967 30.899086 52.474182
11435  1 29.280418 33.252882 52.477012
15594  1 31.141440 30.899086 52.474182
23910  1 31.757891 33.252883 52.477012
3219   1 29.363575 30.910445 56.483246
11534  1 28.571738 33.242407 56.487542
19850  1 30.210155 32.075983 54.470904
21930  1 29.753252 29.717672 54.442310
24009  1 31.049211 33.242407 56.487542
3318   1 29.677442 30.919953 60.557394
7476   1 31.446335 32.076517 58.541976
11633  1 28.257711 33.232186 60.560555
19949  1 28.968863 32.076516 58.541976
22029  1 30.293055 29.779708 58.499593
24108  1 30.735184 33.232186 60.560555
3417   1 29.722596 30.915711 64.605432
7575   1 31.444901 32.075691 62.587095
9653   1 27.972288 29.760983 62.572674
11732  1 28.212456 33.234961 64.608339
20048  1 28.967428 32.075690 62.587095
22128  1 30.449761 29.760983 62.572674
24207  1 30.689929 33.234961 64.608339
3516   1 29.738741 30.912356 68.647046
7674   1 31.445735 32.074783 66.629457
9752   1 28.019232 29.753333 66.621688
11831  1 28.199749 33.235958 68.649869
20147  1 28.968262 32.074783 66.629457
22227  1 30.496704 29.753334 66.621688
24306  1 30.677222 33.235959 68.649869
3615   1 29.747182 30.909834 72.686403
7773   1 31.448476 32.073303 70.668757
9851   1 28.038549 29.748925 70.663872
11930  1 28.199053 33.234882 72.689318
20246  1 28.971003 32.073303 70.668757
22326  1 30.516022 29.748925 70.663872
24405  1 30.676526 33.234882 72.689318
7872   1 31.453732 32.071231 74.707770
9950   1 28.046666 29.746442 74.704465
20345  1 28.976259 32.071231 74.707770
22425  1 30.524139 29.746442 74.704465
3714   1 29.752908 30.907845 76.726355
7971   1 31.462820 32.068778 78.748787
10049  1 28.047843 29.745449 78.746502
12029  1 28.207127 33.232210 76.729741
20444  1 28.985347 32.068778 78.748786
22524  1 30.525315 29.745449 78.746502
24504  1 30.684599 33.232210 76.729741
3813   1 29.757807 30.906493 80.768946
8070   1 31.478983 32.066341 82.793680
10148  1 28.041457 29.746025 82.792086
12128  1 28.226006 33.228430 80.773716
20543  1 29.001510 32.066340 82.793680
22623  1 30.518930 29.746025 82.792087
24603  1 30.703479 33.228430 80.773716
3912   1 29.762877 30.906119 84.815541
8169   1 31.512022 32.064568 86.843897
10247  1 28.019088 29.748203 86.842757
12227  1 28.264878 33.223994 84.823934
20642  1 29.034549 32.064567 86.843896
22722  1 30.496560 29.748204 86.842757
24702  1 30.742350 33.223994 84.823935
4011   1 29.768219 30.906766 88.865265
8268   1 31.600950 32.056321 90.902225
10346  1 27.939408 29.758955 90.902892
12326  1 28.357625 33.217658 88.886185
20741  1 29.123478 32.056320 90.902225
22821  1 30.416880 29.758956 90.902892
24801  1 30.835098 33.217658 88.886185
4110   1 29.774704 30.910623 92.937453
12425  1 28.727993 33.218913 92.975182
24900  1 31.205465 33.218914 92.975182
62     1 30.716896 34.439273 10.054683
8377   1 29.010314 36.772937 10.055409
12535  1 28.239424 34.439272 10.054683
16693  1 29.983984 35.621143 12.065508
20852  1 31.487786 36.772937 10.055409
161    1 30.921189 34.445167 14.062854
8476   1 29.216119 36.797290 14.080148
12634  1 28.443716 34.445167 14.062854
16792  1 30.115651 35.620817 16.085096
20951  1 31.693591 36.797290 14.080148
260    1 30.987611 34.444660 18.098296
8575   1 29.314860 36.794750 18.107087
12733  1 28.510139 34.444659 18.098296
16891  1 30.175034 35.617932 20.121278
21050  1 31.792333 36.794750 18.107087
359    1 31.022938 34.441242 22.138152
8674   1 29.365137 36.790153 22.145041
12832  1 28.545465 34.441242 22.138152
16990  1 30.206263 35.613543 24.163014
21149  1 31.842609 36.790153 22.145042
458    1 31.040620 34.437770 26.183068
8773   1 29.390466 36.784784 26.188332
12931  1 28.563147 34.437770 26.183068
17089  1 30.220354 35.609033 28.208801
21248  1 31.867938 36.784784 26.188332
557    1 31.047266 34.433982 30.230534
8872   1 29.398699 36.779288 30.234615
13030  1 28.569793 34.433981 30.230534
21347  1 31.876172 36.779288 30.234615
656    1 31.045084 34.429520 34.279104
8971   1 29.392438 36.773016 34.281734
13129  1 28.567611 34.429519 34.279104
17188  1 30.221933 35.604077 32.256396
21446  1 31.869911 36.773016 34.281735
755    1 31.034308 34.424201 38.328109
9070   1 29.371439 36.765507 38.328314
13228  1 28.556836 34.424201 38.328109
17287  1 30.212015 35.598111 36.304441
21545  1 31.848912 36.765507 38.328314
854    1 31.014327 34.419100 42.376863
9169   1 29.334092 36.758661 42.372785
13327  1 28.536854 34.419100 42.376863
17386  1 30.189990 35.591504 40.352061
21644  1 31.811565 36.758662 42.372785
953    1 30.981619 34.417075 46.422781
9268   1 29.274237 36.757871 46.410632
13426  1 28.504146 34.417074 46.422781
17485  1 30.153538 35.587117 44.397281
21743  1 31.751710 36.757871 46.410632
1052   1 30.914792 34.422347 50.456324
9367   1 29.164248 36.768413 50.431315
13525  1 28.437319 34.422347 50.456323
17584  1 30.090458 35.590054 48.433398
21842  1 31.641721 36.768413 50.431316
17683  1 29.941446 35.604019 52.442470
13624  1 28.187931 34.434554 54.448392
1151   1 30.665404 34.434554 54.448392
9466   1 28.933465 36.758822 54.450900
17782  1 29.553813 35.548816 56.464680
21941  1 31.410938 36.758822 54.450900
1250   1 30.119837 34.373571 58.506326
5408   1 31.754617 35.536960 60.532298
9565   1 28.618942 36.692945 58.491423
17881  1 29.277144 35.536960 60.532297
22040  1 31.096414 36.692946 58.491423
1349   1 29.961823 34.390717 62.578605
5507   1 31.650682 35.553106 64.597786
9664   1 28.454052 36.703489 62.558464
17980  1 29.173210 35.553105 64.597786
22139  1 30.931525 36.703490 62.558465
1448   1 29.916397 34.396532 66.627331
5606   1 31.612912 35.559250 68.646456
9763   1 28.380072 36.717329 66.618132
18079  1 29.135439 35.559250 68.646456
22238  1 30.857545 36.717329 66.618132
1547   1 29.902402 34.397941 70.669497
5705   1 31.603651 35.559805 72.689964
9862   1 28.352527 36.722164 70.666747
18178  1 29.126179 35.559805 72.689964
22337  1 30.830000 36.722164 70.666747
1646   1 29.904605 34.396148 74.710527
9961   1 28.352042 36.720733 74.712395
22436  1 30.829515 36.720734 74.712395
1745   1 29.921134 34.391920 78.754061
5804   1 31.613760 35.556261 76.733863
10060  1 28.374769 36.714429 78.760580
18277  1 29.136288 35.556261 76.733863
22535  1 30.852241 36.714429 78.760581
1844   1 29.957966 34.385786 82.803616
5903   1 31.644860 35.549456 80.782521
10159  1 28.427002 36.704042 82.816461
18376  1 29.167388 35.549456 80.782521
22634  1 30.904474 36.704042 82.816461
1943   1 30.036673 34.377136 86.864761
6002   1 31.709804 35.539512 84.841128
10258  1 28.528474 36.690224 86.885310
18475  1 29.232331 35.539511 84.841128
22733  1 31.005947 36.690224 86.885310
2042   1 30.233693 34.360199 90.949406
6101   1 31.845377 35.524855 88.917254
10357  1 28.712012 36.691920 90.954085
18574  1 29.367904 35.524855 88.917253
22832  1 31.189485 36.691920 90.954085
18673  1 29.649075 35.552139 92.980483
2141   1 30.771984 37.962286 12.069916
10456  1 29.122230 40.297887 12.064575
14614  1 28.294512 37.962286 12.069916
18772  1 29.842849 39.104554 10.049161
22931  1 31.599702 40.297888 12.064575
2240   1 30.915174 37.971416 16.097112
10555  1 29.259374 40.317333 16.100304
14713  1 28.437702 37.971415 16.097112
18871  1 30.023298 39.141905 14.084652
23030  1 31.736847 40.317333 16.100305
2339   1 30.992560 37.967203 20.129165
10654  1 29.343220 40.315106 20.135188
14812  1 28.515087 37.967203 20.129165
18970  1 30.131204 39.144091 18.115468
23129  1 31.820692 40.315106 20.135188
2438   1 31.033250 37.961240 24.169358
10753  1 29.390046 40.307836 24.175239
14911  1 28.555778 37.961240 24.169358
19069  1 30.192145 39.138195 22.151779
23228  1 31.867519 40.307836 24.175239
2537   1 31.051164 37.955028 28.213880
10852  1 29.410047 40.300350 28.219361
15010  1 28.573692 37.955028 28.213880
19168  1 30.222874 39.131250 26.194177
23327  1 31.887520 40.300350 28.219362
19267  1 30.231659 39.124361 30.239359
2636   1 31.051171 37.948530 32.260069
10951  1 29.407551 40.292846 32.264321
15109  1 28.573699 37.948529 32.260069
19366  1 30.220715 39.116729 34.284595
23426  1 31.885024 40.292846 32.264321
2735   1 31.033964 37.940769 36.305842
11050  1 29.382539 40.283809 36.307562
15208  1 28.556491 37.940769 36.305841
19465  1 30.189154 39.107425 38.327928
23525  1 31.860012 40.283809 36.307563
2834   1 30.998241 37.932153 40.349636
11149  1 29.333389 40.273247 40.347431
15307  1 28.520768 37.932153 40.349636
19564  1 30.135249 39.098945 42.367466
23624  1 31.810862 40.273247 40.347431
2933   1 30.941122 37.927228 44.388585
11248  1 29.259425 40.266688 44.382156
15406  1 28.463650 37.927228 44.388585
19663  1 30.054957 39.098210 46.399586
23723  1 31.736897 40.266688 44.382157
3032   1 30.850456 37.932484 48.416348
11347  1 29.157598 40.268563 48.411462
15505  1 28.372983 37.932483 48.416347
19762  1 29.934672 39.103811 50.425072
23822  1 31.635070 40.268563 48.411463
15604  1 28.216801 37.936592 52.437787
3131   1 30.694274 37.936592 52.437787
11446  1 29.014245 40.262907 52.442750
23921  1 31.491717 40.262907 52.442750
3230   1 30.435020 37.881639 56.470714
11545  1 28.820076 40.216053 56.480332
19861  1 29.746398 39.082316 54.456874
24020  1 31.297549 40.216053 56.480332
3329   1 30.228063 37.856651 60.520842
7487   1 32.003957 39.026919 58.496018
11644  1 28.657968 40.188244 60.523398
19960  1 29.526484 39.026918 58.496018
24119  1 31.135441 40.188244 60.523398
3428   1 30.116756 37.871175 64.583759
7586   1 31.863560 39.025341 62.549692
11743  1 28.557998 40.195364 64.577499
20059  1 29.386087 39.025341 62.549692
24218  1 31.035470 40.195364 64.577499
3527   1 30.064112 37.882086 68.639660
7685   1 31.785070 39.039011 66.608664
11842  1 28.503411 40.206269 68.633749
20158  1 29.307597 39.039010 66.608664
24317  1 30.980883 40.206270 68.633749
3626   1 30.048467 37.884435 72.688858
7784   1 31.750231 39.046428 70.662580
11941  1 28.485058 40.209624 72.687118
20257  1 29.272759 39.046428 70.662580
24416  1 30.962530 40.209625 72.687118
7883   1 31.748079 39.045351 74.713232
20356  1 29.270607 39.045351 74.713232
3725   1 30.060172 37.880005 76.737606
7982   1 31.774945 39.037206 78.765838
12040  1 28.497856 40.204499 76.739878
20455  1 29.297472 39.037206 78.765838
24515  1 30.975328 40.204500 76.739878
3824   1 30.099988 37.870144 80.791320
8081   1 31.834866 39.024173 82.824849
12139  1 28.541739 40.192857 80.796045
20554  1 29.357394 39.024173 82.824849
24614  1 31.019211 40.192857 80.796045
3923   1 30.178175 37.856584 84.854551
8180   1 31.937412 39.013791 86.889062
12238  1 28.621238 40.180450 84.856586
20653  1 29.459940 39.013791 86.889062
24713  1 31.098711 40.180450 84.856586
4022   1 30.312181 37.850137 88.922116
12337  1 28.744469 40.183740 88.914783
20752  1 29.619302 39.031062 90.945552
24812  1 31.221942 40.183741 88.914783
4121   1 30.527785 37.893226 92.972505
12436  1 28.924149 40.231974 92.961404
24911  1 31.401621 40.231975 92.961405
73     1 30.695490 41.437158 10.038628
8388   1 29.080186 43.770577 10.025535
12546  1 28.218018 41.437157 10.038627
16704  1 29.970730 42.632177 12.054166
20863  1 31.557658 43.770577 10.025536
172    1 30.856969 41.481391 14.079930
8487   1 29.231407 43.818430 14.069813
12645  1 28.379497 41.481390 14.079930
16803  1 30.100984 42.658842 16.095823
20962  1 31.708879 43.818431 14.069813
271    1 30.964141 41.489857 18.117381
8586   1 29.336259 43.831532 18.113246
12744  1 28.486669 41.489857 18.117381
16902  1 30.185353 42.659724 20.136386
21061  1 31.813732 43.831532 18.113246
370    1 31.029218 41.484413 22.156474
8685   1 29.401740 43.827254 22.157720
12843  1 28.551745 41.484412 22.156474
17001  1 30.234263 42.652246 24.179473
21160  1 31.879213 43.827254 22.157720
469    1 31.062791 41.476385 26.199634
8784   1 29.435364 43.819093 26.204088
12942  1 28.585319 41.476385 26.199633
17100  1 30.254306 42.644213 28.224778
21259  1 31.912836 43.819094 26.204088
568    1 31.070687 41.468745 30.244588
8883   1 29.440619 43.811682 30.250219
13041  1 28.593215 41.468745 30.244587
21358  1 31.918092 43.811682 30.250219
667    1 31.054251 41.460436 34.288223
8982   1 29.417666 43.803613 34.293166
13140  1 28.576778 41.460436 34.288222
17199  1 30.248061 42.636555 32.269360
21457  1 31.895139 43.803613 34.293166
766    1 31.011981 41.449596 38.328542
9081   1 29.364570 43.791287 38.331552
13239  1 28.534508 41.449596 38.328541
17298  1 30.214695 42.626824 36.310622
21556  1 31.842043 43.791288 38.331552
865    1 30.943424 41.438544 42.364735
9180   1 29.283007 43.775942 42.366700
13338  1 28.465952 41.438544 42.364735
17397  1 30.152794 42.613768 40.347797
21655  1 31.760480 43.775943 42.366700
964    1 30.851281 41.434390 46.396953
9279   1 29.182909 43.766421 46.401215
13437  1 28.373809 41.434390 46.396952
17496  1 30.066223 42.603163 44.381882
21754  1 31.660381 43.766421 46.401216
1063   1 30.732803 41.433011 50.428984
9378   1 29.068104 43.759684 50.437687
13536  1 28.255330 41.433010 50.428984
17595  1 29.960500 42.599517 48.415216
21853  1 31.545576 43.759684 50.437687
17694  1 29.830396 42.588272 52.451981
1162   1 30.575824 41.408344 54.466419
9477   1 28.932388 43.736602 54.476916
17793  1 29.674339 42.550510 56.490930
21952  1 31.409861 43.736602 54.476916
1261   1 30.406611 41.364324 58.505198
5419   1 32.019073 42.524944 60.530825
9576   1 28.794367 43.702593 58.515059
17892  1 29.541601 42.524943 60.530825
22051  1 31.271839 43.702593 58.515059
1360   1 30.288387 41.356056 62.551054
5518   1 31.932137 42.526185 64.578463
9675   1 28.693477 43.691968 62.556784
17991  1 29.454665 42.526185 64.578462
22150  1 31.170949 43.691968 62.556784
1459   1 30.216569 41.365230 66.604652
5617   1 31.882358 42.534132 68.631653
9774   1 28.630464 43.696610 66.605694
18090  1 29.404885 42.534132 68.631653
22249  1 31.107937 43.696610 66.605694
1558   1 30.181701 41.372358 70.659465
5716   1 31.865049 42.536914 72.685965
9873   1 28.599378 43.701633 70.658812
18189  1 29.387577 42.536914 72.685965
22348  1 31.076851 43.701633 70.658812
1657   1 30.179417 41.371246 74.713229
9972   1 28.598222 43.699959 74.712919
22447  1 31.075695 43.699960 74.712919
1756   1 30.207985 41.362157 78.767934
5815   1 31.878494 42.531394 76.740270
10071  1 28.626658 43.690913 78.766893
18288  1 29.401022 42.531394 76.740270
22546  1 31.104131 43.690914 78.766893
1855   1 30.268701 41.349319 82.825307
5914   1 31.922539 42.519737 80.795429
10170  1 28.685327 43.679462 82.820277
18387  1 29.445066 42.519736 80.795429
22645  1 31.162800 43.679462 82.820278
1954   1 30.365839 41.344303 86.882634
6013   1 31.998974 42.510047 84.850789
10269  1 28.777459 43.678095 86.871615
18486  1 29.521502 42.510047 84.850788
22744  1 31.254932 43.678095 86.871615
2053   1 30.508635 41.369784 90.933126
10368  1 28.910808 43.706799 90.918935
18585  1 29.636121 42.519470 88.902702
22843  1 31.388280 43.706800 90.918935
18684  1 29.796466 42.568622 92.948282
2152   1 30.832129 44.966672 12.040766
10467  1 29.225848 47.301970 12.025458
14625  1 28.354657 44.966671 12.040766
18783  1 29.947937 46.104628 10.010747
22942  1 31.703321 47.301971 12.025458
2251   1 30.959071 44.997214 16.086341
10566  1 29.354498 47.333196 16.074016
12656  1 28.498356 48.490167 14.041392
14724  1 28.481599 44.997213 16.086341
18882  1 30.097280 46.154501 14.056476
23041  1 31.831971 47.333196 16.074016
2350   1 31.042690 45.000152 20.133124
10665  1 29.438541 47.335904 20.127153
12755  1 28.605642 48.503195 18.095140
14823  1 28.565217 45.000152 20.133124
18981  1 30.201648 46.169341 18.105071
23140  1 31.916013 47.335905 20.127153
2449   1 31.091147 44.993079 24.181498
10764  1 29.485546 47.329163 24.181857
12854  1 28.670555 48.498604 22.152946
14922  1 28.613674 44.993079 24.181498
19080  1 30.266571 46.165601 22.156024
23239  1 31.963018 47.329163 24.181858
2548   1 31.109011 44.985578 28.229888
10863  1 29.499202 47.323341 28.234547
12953  1 28.698724 48.492382 26.209745
15021  1 28.631538 44.985577 28.229888
19179  1 30.298198 46.158111 26.207379
23338  1 31.976675 47.323342 28.234547
13052  1 28.692543 48.489474 30.261978
19278  1 30.298804 46.152235 30.256159
2647   1 31.097465 44.978938 32.275352
10962  1 29.480464 47.319189 32.282142
13151  1 28.652102 48.485776 34.307337
15120  1 28.619993 44.978938 32.275352
19377  1 30.267986 46.145598 34.299667
23437  1 31.957937 47.319189 32.282142
777    1 31.051864 48.471268 38.345676
2746   1 31.055003 44.969201 36.315760
11061  1 29.427675 47.310432 36.323014
13250  1 28.574391 48.471268 38.345676
15219  1 28.577531 44.969201 36.315760
19476  1 30.203423 46.131890 38.337448
23536  1 31.905148 47.310433 36.323014
876    1 30.940290 48.442962 42.381637
2845   1 30.980526 44.952756 40.351840
11160  1 29.339257 47.289937 40.359071
13349  1 28.462817 48.442961 42.381637
15318  1 28.503054 44.952756 40.351840
19575  1 30.108388 46.110695 42.372838
23635  1 31.816730 47.289938 40.359070
975    1 30.821330 48.422490 46.419575
2944   1 30.882681 44.936262 44.387005
11259  1 29.228361 47.266445 44.395528
13448  1 28.343857 48.422490 46.419575
15417  1 28.405209 44.936261 44.387005
19674  1 30.000219 46.095407 46.409571
23734  1 31.705833 47.266445 44.395528
1074   1 30.708119 48.413097 50.457527
3043   1 30.774288 44.927478 48.423602
11358  1 29.115681 47.254149 48.433690
15516  1 28.296815 44.927478 48.423602
19773  1 29.887464 46.085958 50.447932
23833  1 31.593154 47.254149 48.433690
3142   1 30.653943 44.914570 52.462401
11457  1 29.001547 47.242574 52.472071
23932  1 31.479020 47.242575 52.472072
1173   1 30.596539 48.399319 54.494307
3241   1 30.522141 44.885415 56.500958
11556  1 28.886168 47.221302 56.509179
19872  1 29.766097 46.066891 54.486692
24031  1 31.363641 47.221303 56.509179
1272   1 30.494751 48.381126 58.530218
3340   1 30.410059 44.863978 60.539127
11655  1 28.789630 47.204419 60.546237
19971  1 29.649018 46.041449 58.523825
24130  1 31.267102 47.204419 60.546238
7498   1 32.126491 46.041450 58.523825
1371   1 30.419187 48.371802 62.568904
3439   1 30.334603 44.861745 64.582918
11754  1 28.724090 47.200503 64.588091
20070  1 29.561878 46.030920 62.563395
24229  1 31.201563 47.200503 64.588091
7597   1 32.039350 46.030920 62.563395
1470   1 30.372005 48.370912 66.613378
3538   1 30.291244 44.866300 68.632943
7696   1 31.984660 46.032206 66.609291
11853  1 28.686873 47.202283 68.635946
20169  1 29.507187 46.032206 66.609291
24328  1 31.164345 47.202283 68.635946
1569   1 30.349653 48.371593 70.662747
3637   1 30.276675 44.867649 72.686075
7795   1 31.958163 46.034825 70.660246
11952  1 28.675048 47.202228 72.687358
20268  1 29.480690 46.034824 70.660246
24427  1 31.152521 47.202228 72.687358
1668   1 30.350567 48.368920 74.713823
7894   1 31.958340 46.032500 74.712974
20367  1 29.480867 46.032499 74.712974
1767   1 30.375800 48.361549 78.762914
3736   1 30.290378 44.862027 76.739475
7993   1 31.985655 46.024082 78.764552
12051  1 28.688381 47.196856 76.738801
20466  1 29.508182 46.024082 78.764552
24526  1 31.165853 47.196856 76.738802
1866   1 30.428756 48.352429 82.807356
3835   1 30.332851 44.851243 80.791560
8092   1 32.041725 46.013932 82.813270
12150  1 28.728484 47.187232 80.787297
20565  1 29.564253 46.013932 82.813270
24625  1 31.205957 47.187232 80.787297
1965   1 30.515775 48.351063 86.847841
3934   1 30.405983 44.843553 84.841448
8191   1 32.130670 46.013689 86.859205
12249  1 28.798889 47.180249 84.831858
20664  1 29.653197 46.013688 86.859205
24724  1 31.276362 47.180249 84.831858
2064   1 30.646728 48.376055 90.889068
4033   1 30.515565 44.855305 88.888755
12348  1 28.906610 47.190930 88.874646
20763  1 29.782881 46.042102 90.903939
24823  1 31.384082 47.190930 88.874646
84     1 30.819512 48.439383  9.994952
12557  1 28.342039 48.439383  9.994952
4132   1 30.667284 44.903728 92.933788
12447  1 29.058371 47.237603 92.918510
24922  1 31.535843 47.237603 92.918510
2163   1 30.997929 51.976141 11.992869
14636  1 28.520456 51.976141 11.992869
16715  1 30.106265 49.638430 12.009113
183    1 30.975829 48.490168 14.041393
2262   1 31.150181 51.996174 16.050510
8498   1 29.390984 50.825142 14.026240
14735  1 28.672709 51.996174 16.050510
16814  1 30.242806 49.666661 16.060992
20973  1 31.868457 50.825143 14.026240
282    1 31.083114 48.503195 18.095140
2361   1 31.240942 51.990576 20.117457
8597   1 29.505429 50.832246 18.086425
14834  1 28.763469 51.990575 20.117457
16913  1 30.329507 49.666327 20.120886
21072  1 31.982902 50.832246 18.086426
381    1 31.148027 48.498604 22.152946
2460   1 31.282160 51.984498 24.181224
8696   1 29.570765 50.825621 22.150484
14933  1 28.804687 51.984498 24.181224
17012  1 30.374530 49.659674 24.181560
21171  1 32.048237 50.825621 22.150484
480    1 31.176196 48.492382 26.209745
2559   1 31.281550 51.984985 28.239852
8795   1 29.593781 50.821336 26.211102
15032  1 28.804078 51.984984 28.239852
17111  1 30.381989 49.656631 28.238321
21270  1 32.071253 50.821336 26.211102
579    1 31.170016 48.489474 30.261978
8894   1 29.578778 50.822600 30.266459
21369  1 32.056250 50.822601 30.266459
678    1 31.129575 48.485777 34.307337
2658   1 31.242676 51.990067 32.293775
8993   1 29.526742 50.823554 34.314973
15131  1 28.765204 51.990067 32.293775
17210  1 30.353983 49.656527 32.288892
21468  1 32.004214 50.823555 34.314973
2757   1 31.163097 51.988434 36.340180
9092   1 29.433020 50.809654 38.355108
15230  1 28.685625 51.988434 36.340180
17309  1 30.288982 49.650259 36.331621
21567  1 31.910492 50.809654 38.355108
2856   1 31.034669 51.960076 40.378069
9191   1 29.298858 50.773021 42.391477
15329  1 28.557196 51.960076 40.378069
17408  1 30.183344 49.625549 40.368262
21666  1 31.776331 50.773021 42.391477
2955   1 30.880373 51.920459 44.415050
9290   1 29.164400 50.748705 46.429168
17507  1 30.054769 49.594324 44.405466
21765  1 31.641873 50.748705 46.429168
3054   1 30.749764 51.908791 48.450095
9389   1 29.048250 50.742136 50.464447
17606  1 29.934909 49.580823 48.443255
21864  1 31.525722 50.742136 50.464447
3153   1 30.640940 51.906019 52.482085
17705  1 29.824175 49.572854 52.479265
3252   1 30.548351 51.897640 56.515398
9488   1 28.943951 50.734162 54.498238
17804  1 29.720898 49.558637 56.514347
21963  1 31.421423 50.734163 54.498238
5331   1 32.198371 49.558638 56.514347
3351   1 30.476819 51.888205 60.552589
9587   1 28.854872 50.721806 58.533273
17903  1 29.637218 49.545929 60.550913
22062  1 31.332344 50.721806 58.533273
5430   1 32.114690 49.545929 60.550913
3450   1 30.429091 51.883531 64.594885
9686   1 28.790011 50.713917 62.572283
18002  1 29.580692 49.541377 64.592330
22161  1 31.267484 50.713917 62.572283
5529   1 32.058165 49.541377 64.592330
3549   1 30.402346 51.882225 68.641904
5628   1 32.026444 49.541227 68.639230
9785   1 28.749823 50.711740 66.616709
18101  1 29.548971 49.541227 68.639230
22260  1 31.227295 50.711740 66.616709
3648   1 30.393811 51.880827 72.691556
5727   1 32.016664 49.540229 72.689368
9884   1 28.730907 50.711162 70.665406
18200  1 29.539192 49.540229 72.689368
22359  1 31.208380 50.711163 70.665405
9983   1 28.731654 50.708568 74.715429
22458  1 31.209127 50.708568 74.715429
3747   1 30.403331 51.877090 76.740627
5826   1 32.028649 49.535512 76.739171
10082  1 28.753432 50.702644 78.763100
18299  1 29.551177 49.535512 76.739170
22557  1 31.230904 50.702644 78.763100
3846   1 30.434101 51.870853 80.785559
5925   1 32.065138 49.527351 80.784957
10181  1 28.801366 50.694829 82.804897
18398  1 29.587665 49.527351 80.784956
22656  1 31.278839 50.694830 82.804897
3945   1 30.494684 51.864260 84.822929
6024   1 32.132245 49.520315 84.824839
10280  1 28.885529 50.691196 86.840143
18497  1 29.654773 49.520315 84.824839
22755  1 31.363002 50.691196 86.840143
4044   1 30.601378 51.865278 88.853772
6123   1 32.240079 49.527024 88.862116
10379  1 29.021515 50.709371 90.875666
18596  1 29.762606 49.527024 88.862116
22854  1 31.498988 50.709371 90.875666
8399   1 29.216604 50.775231  9.978855
20874  1 31.694076 50.775231  9.978855
4143   1 30.779020 51.901913 92.889060
18695  1 29.922828 49.570350 92.903224
10478  1 29.431442 54.313951 11.979261
22953  1 31.908914 54.313952 11.979261
194    1 31.252165 55.481332 14.013217
10577  1 29.607803 54.318271 16.048580
12667  1 28.774692 55.481331 14.013217
18893  1 30.303538 53.157523 14.014190
23052  1 32.085276 54.318271 16.048580
293    1 31.378861 55.470015 18.090002
10676  1 29.697380 54.308841 20.119534
12766  1 28.901389 55.470015 18.090002
18992  1 30.428288 53.154755 18.083346
23151  1 32.174853 54.308841 20.119535
392    1 31.428944 55.465004 22.151343
10775  1 29.730019 54.305075 24.180208
12865  1 28.951471 55.465003 22.151343
19091  1 30.491100 53.146903 22.150234
23250  1 32.207491 54.305076 24.180208
491    1 31.435414 55.465766 26.206121
10874  1 29.721245 54.308469 28.236936
12964  1 28.957942 55.465765 26.206121
19190  1 30.506593 53.145286 26.210334
23349  1 32.198718 54.308469 28.236937
590    1 31.404429 55.473598 30.261436
13063  1 28.926956 55.473597 30.261436
19289  1 30.482046 53.150857 30.267272
689    1 31.328108 55.486872 34.319977
10973  1 29.672199 54.318462 32.293730
13162  1 28.850635 55.486871 34.319977
19388  1 30.417033 53.157956 34.320409
23448  1 32.149672 54.318463 32.293730
788    1 31.188936 55.484146 38.371757
11072  1 29.575907 54.324108 36.346536
13261  1 28.711464 55.484145 38.371757
19487  1 30.303212 53.147350 38.364385
23547  1 32.053380 54.324109 36.346536
887    1 30.968808 55.426650 42.408259
11171  1 29.415625 54.294075 40.387252
13360  1 28.491336 55.426650 42.408259
19586  1 30.135933 53.100981 42.400882
23646  1 31.893098 54.294075 40.387252
986    1 30.779590 55.404403 46.437400
11270  1 29.221704 54.245609 44.422372
19685  1 29.979025 53.075304 46.436176
23745  1 31.699176 54.245609 44.422372
1085   1 30.656371 55.410419 50.460429
11369  1 29.076907 54.239745 48.451339
19784  1 29.858369 53.074211 50.466319
23844  1 31.554380 54.239745 48.451339
11468  1 28.971375 54.242523 52.478657
23943  1 31.448848 54.242523 52.478657
1184   1 30.571100 55.411096 54.490622
11567  1 28.891196 54.238026 56.512047
19883  1 29.761489 53.071574 54.497122
24042  1 31.368669 54.238026 56.512047
7410   1 32.238961 53.071575 54.497122
1283   1 30.509636 55.405113 58.529062
11666  1 28.832593 54.230756 60.551522
19982  1 29.685162 53.063334 58.532648
24141  1 31.310066 54.230757 60.551522
7509   1 32.162635 53.063334 58.532648
1382   1 30.467031 55.399460 62.572446
11765  1 28.793806 54.226282 64.595692
20081  1 29.631160 53.056655 62.573318
24240  1 31.271279 54.226282 64.595692
7608   1 32.108632 53.056655 62.573318
1481   1 30.440319 55.396605 66.619420
11864  1 28.771687 54.224482 68.643540
20180  1 29.597759 53.053854 66.618742
24339  1 31.249159 54.224482 68.643540
7707   1 32.075232 53.053854 66.618742
1580   1 30.426622 55.395331 70.668836
7806   1 32.059147 53.052659 70.667578
11963  1 28.763734 54.223143 72.693343
20279  1 29.581675 53.052659 70.667578
24438  1 31.241206 54.223143 72.693343
1679   1 30.424541 55.393897 74.718858
7905   1 32.058834 53.050519 74.717345
20378  1 29.581361 53.050519 74.717345
1778   1 30.435119 55.391354 78.766973
8004   1 32.075689 53.046248 78.764817
12062  1 28.769739 54.220589 76.742532
20477  1 29.598217 53.046248 78.764817
24537  1 31.247212 54.220589 76.742532
1877   1 30.463102 55.387686 82.810224
8103   1 32.115101 53.040508 82.806735
12161  1 28.792738 54.216385 80.788000
20576  1 29.637629 53.040508 82.806735
24636  1 31.270211 54.216385 80.788001
1976   1 30.519317 55.384755 86.846877
8202   1 32.190898 53.035607 86.839283
12260  1 28.840702 54.211789 84.827007
20675  1 29.713425 53.035606 86.839283
24735  1 31.318174 54.211789 84.827007
2075   1 30.647139 55.383800 90.866027
12359  1 28.936735 54.208627 88.853950
20774  1 29.853928 53.043780 90.866237
24834  1 31.414208 54.208627 88.853950
95     1 30.977272 55.452829  9.950202
12568  1 28.499799 55.452829  9.950202
18794  1 30.094000 53.112899  9.963396
12458  1 29.138525 54.232343 92.878190
24933  1 31.615997 54.232343 92.878190
2174   1 31.506613 58.946748 12.018692
14647  1 29.029140 58.946747 12.018692
16726  1 30.391924 56.644157 11.978194
2273   1 31.590893 58.940830 16.076312
8509   1 29.790198 57.787224 14.037658
14746  1 29.113420 58.940830 16.076312
16825  1 30.582300 56.629789 16.062368
20984  1 32.267670 57.787225 14.037658
2372   1 31.614767 58.941895 20.126010
8608   1 29.875375 57.783611 18.099668
14845  1 29.137295 58.941895 20.126010
16924  1 30.650175 56.624747 20.124476
21083  1 32.352847 57.783611 18.099668
2471   1 31.616009 58.943467 24.171970
8707   1 29.901249 57.783039 22.150935
14944  1 29.138537 58.943466 24.171970
17023  1 30.668847 56.624066 24.177343
21182  1 32.378721 57.783040 22.150935
2570   1 31.599753 58.947197 28.217030
8806   1 29.898452 57.785136 26.198734
15043  1 29.122280 58.947197 28.217030
17122  1 30.654638 56.628338 28.228507
21281  1 32.375924 57.785137 26.198735
8905   1 29.868172 57.791834 30.248294
21380  1 32.345644 57.791834 30.248294
2669   1 31.557012 58.955174 32.266203
9004   1 29.792037 57.806616 34.307757
15142  1 29.079540 58.955174 32.266203
17221  1 30.602142 56.639922 32.284724
21479  1 32.269509 57.806616 34.307757
2768   1 31.449471 58.972661 36.331271
9103   1 29.624961 57.817534 38.373470
15241  1 28.971999 58.972661 36.331271
17320  1 30.490645 56.654499 36.346659
21578  1 32.102433 57.817535 38.373470
2867   1 31.167522 58.960120 40.397264
9202   1 29.307837 57.749724 42.411151
15340  1 28.690050 58.960120 40.397264
17419  1 30.282507 56.627958 40.394391
21677  1 31.785310 57.749724 42.411151
2966   1 30.778672 58.903882 44.415679
9301   1 29.075448 57.739686 46.427470
17518  1 30.022276 56.571635 44.424413
21776  1 31.552921 57.739686 46.427471
3065   1 30.626491 58.918191 48.421784
9400   1 28.961897 57.750740 50.445406
17617  1 29.863773 56.575815 48.443034
21875  1 31.439370 57.750740 50.445406
5144   1 32.341245 56.575815 48.443034
3164   1 30.559243 58.921927 52.455398
17716  1 29.769022 56.581952 52.468385
5243   1 32.246495 56.581952 52.468385
3263   1 30.517176 58.919039 56.498715
9499   1 28.897138 57.751185 54.481071
17815  1 29.705859 56.578832 56.505628
21974  1 31.374610 57.751185 54.481071
5342   1 32.183331 56.578832 56.505628
3362   1 30.487343 58.914723 60.545325
9598   1 28.852794 57.746440 58.524146
17914  1 29.661342 56.573038 60.548684
22073  1 31.330267 57.746441 58.524146
5441   1 32.138815 56.573039 60.548684
3461   1 30.466586 58.911846 64.593650
9697   1 28.821903 57.741954 62.570456
18013  1 29.631610 56.569136 64.595110
22172  1 31.299375 57.741954 62.570456
5540   1 32.109082 56.569136 64.595110
3560   1 30.452973 58.910679 68.643326
9796   1 28.801739 57.739582 66.618936
18112  1 29.613853 56.567414 68.644003
22271  1 31.279212 57.739582 66.618936
5639   1 32.091325 56.567414 68.644003
3659   1 30.444978 58.910402 72.693701
5738   1 32.083491 56.566478 72.694192
9895   1 28.790122 57.738663 70.668923
18211  1 29.606018 56.566478 72.694192
22370  1 31.267595 57.738663 70.668923
9994   1 28.785819 57.738077 74.719215
22469  1 31.263292 57.738078 74.719215
3758   1 30.441915 58.910314 76.743521
5837   1 32.085187 56.565169 76.743842
10093  1 28.789145 57.737193 78.768025
18310  1 29.607715 56.565169 76.743842
22568  1 31.266617 57.737193 78.768025
3857   1 30.444285 58.910204 80.791011
5936   1 32.098511 56.563056 80.790549
10192  1 28.802850 57.735885 82.812979
18409  1 29.621038 56.563056 80.790549
22667  1 31.280322 57.735886 82.812979
3956   1 30.454573 58.910119 84.833456
6035   1 32.129912 56.560154 84.831328
10291  1 28.834693 57.733683 86.850281
18508  1 29.652440 56.560154 84.831328
22766  1 31.312165 57.733683 86.850281
4055   1 30.479707 58.908609 88.863192
6134   1 32.192354 56.559629 88.866740
10390  1 28.891664 57.737815 90.885097
18607  1 29.714882 56.559629 88.866740
22865  1 31.369136 57.737815 90.885097
8410   1 29.426985 57.784704  9.950024
20885  1 31.904458 57.784705  9.950025
4154   1 30.420986 58.923720 92.871906
6233   1 32.391694 56.564999 92.873931
18706  1 29.914222 56.564999 92.873930
10489  1 30.219419 61.243138 12.013498
106    1 31.936844 62.406606 14.027495
10588  1 30.135920 61.256098 16.070925
12579  1 29.459372 62.406606 14.027494
18904  1 30.863438 60.096831 14.052439
205    1 31.850351 62.416197 18.088432
10687  1 30.106497 61.260226 20.119874
12678  1 29.372879 62.416197 18.088432
19003  1 30.862434 60.099819 18.100609
304    1 31.814790 62.421553 22.137767
10786  1 30.089523 61.263537 24.164460
12777  1 29.337317 62.421553 22.137766
19102  1 30.857288 60.102211 22.146525
403    1 31.795726 62.425140 26.182007
10885  1 30.073738 61.266651 28.206746
12876  1 29.318253 62.425140 26.182007
19201  1 30.845770 60.104955 26.189941
502    1 31.783606 62.427709 30.224282
12975  1 29.306134 62.427708 30.224282
19300  1 30.822727 60.109300 30.233543
601    1 31.775159 62.429739 34.267716
10984  1 30.051389 61.270501 32.249619
13074  1 29.297686 62.429738 34.267716
19399  1 30.771327 60.117025 34.282534
700    1 31.772490 62.433102 38.312194
11083  1 30.000376 61.275507 36.297404
13173  1 29.295017 62.433102 38.312194
19498  1 30.608269 60.136252 38.354095
23558  1 32.477849 61.275508 36.297404
11182  1 29.675959 61.264742 40.369522
13272  1 30.519638 62.431750 42.380355
19597  1 30.056567 60.073682 42.409572
23657  1 32.153432 61.264742 40.369522
11281  1 28.966330 61.254792 44.376026
13371  1 30.511875 62.431330 46.379249
19696  1 29.805608 60.085623 46.397927
23756  1 31.443802 61.254792 44.376026
7223   1 32.283080 60.085623 46.397927
11380  1 28.897131 61.260601 48.402326
13470  1 30.504779 62.430280 50.420989
19795  1 29.734917 60.091410 50.428844
23855  1 31.374603 61.260601 48.402327
7322   1 32.212389 60.091411 50.428844
11479  1 28.868951 61.260602 52.446123
23954  1 31.346423 61.260603 52.446123
1096   1 30.497124 62.428684 54.468304
11578  1 28.849622 61.258342 56.493801
19894  1 29.697577 60.090415 54.472521
24053  1 31.327094 61.258342 56.493801
7421   1 32.175049 60.090416 54.472522
1195   1 30.489195 62.426973 58.517027
11677  1 28.834472 61.255853 60.542515
19993  1 29.671394 60.086987 58.519698
24152  1 31.311945 61.255853 60.542515
7520   1 32.148867 60.086987 58.519698
1294   1 30.481457 62.425871 62.566114
11776  1 28.822510 61.254402 64.591778
20092  1 29.652168 60.084037 62.568149
24251  1 31.299983 61.254403 64.591778
7619   1 32.129641 60.084037 62.568149
1393   1 30.473891 62.425696 66.615589
11875  1 28.812887 61.254141 68.641637
20191  1 29.638370 60.082612 66.617570
24350  1 31.290359 61.254142 68.641637
7718   1 32.115842 60.082612 66.617570
1492   1 30.465972 62.426382 70.665365
11974  1 28.804612 61.254720 72.691706
20290  1 29.628639 60.082381 70.667745
24449  1 31.282085 61.254720 72.691706
7817   1 32.106111 60.082381 70.667745
1591   1 30.456783 62.427802 74.714725
7916   1 32.099370 60.082744 74.717883
20389  1 29.621898 60.082744 74.717883
1690   1 30.444771 62.429995 78.762314
8015   1 32.094992 60.083406 78.766632
12073  1 28.796665 61.255861 76.740966
20488  1 29.617520 60.083406 78.766632
24548  1 31.274137 61.255862 76.740966
1789   1 30.426721 62.433418 82.806085
8114   1 32.092742 60.084518 82.812045
12172  1 28.787716 61.257637 80.787839
20587  1 29.615270 60.084518 82.812045
24647  1 31.265188 61.257637 80.787839
1888   1 30.394819 62.439647 86.842403
8213   1 32.092562 60.086605 86.849943
12271  1 28.775074 61.260728 84.829728
20686  1 29.615090 60.086605 86.849943
24746  1 31.252546 61.260729 84.829728
1987   1 30.341497 62.442620 90.876472
8312   1 32.093993 60.090153 90.857087
12370  1 28.751562 61.267797 88.859006
20785  1 29.616520 60.090153 90.857087
24845  1 31.229034 61.267798 88.859007
7      1 32.294549 62.401228  9.940519
12480  1 29.817077 62.401228  9.940519
18805  1 30.862534 60.092530  9.982024
12469  1 28.813771 61.261262 92.867205
24944  1 31.291243 61.261262 92.867205
4165   1 32.378058  0.512801 11.964084
14560  1 33.339106  2.844216 11.957649
16639  1 34.855531  0.512802 11.964084
4264   1 32.190599  0.533911 16.046872
8422   1 33.998178  1.679647 13.994301
14659  1 33.167859  2.846073 16.024614
16738  1 34.668072  0.533911 16.046872
20896  1 31.520706  1.679647 13.994301
4363   1 32.118299  0.544031 20.106867
8521   1 33.871963  1.696569 18.068837
14758  1 33.076154  2.860014 20.092697
16837  1 34.595771  0.544031 20.106867
20995  1 31.394491  1.696569 18.068837
4462   1 32.085539  0.549657 24.156251
8620   1 33.814158  1.706145 22.127025
14857  1 33.033046  2.868236 24.149492
16936  1 34.563011  0.549658 24.156251
21094  1 31.336685  1.706144 22.127024
4561   1 32.071724  0.552646 28.201058
8719   1 33.789641  1.711047 26.176761
14956  1 33.022070  2.871126 28.200887
17035  1 34.549196  0.552646 28.201058
21193  1 31.312169  1.711047 26.176761
8818   1 33.789092  1.712096 30.223974
21292  1 31.311619  1.712095 30.223974
4660   1 32.073985  0.553349 32.245398
8917   1 33.823465  1.708712 34.275094
15055  1 33.045411  2.868092 32.253944
17134  1 34.551458  0.553350 32.245399
21391  1 31.345993  1.708712 34.275094
4759   1 32.111053  0.552547 36.293864
9016   1 33.972141  1.693908 38.347992
15154  1 33.137756  2.855037 36.321384
17233  1 34.588526  0.552547 36.293864
21490  1 31.494668  1.693908 38.347991
4858   1 32.414374  0.563274 40.366849
9115   1 34.503014  1.755784 42.404210
15253  1 33.402305  2.868486 40.389556
17332  1 34.891846  0.563275 40.366849
21589  1 32.025541  1.755784 42.404210
2878   1 31.298417  2.925349 44.409736
4957   1 33.109534  0.574722 44.373656
9214   1 34.741313  1.743310 46.394330
15352  1 33.775889  2.925349 44.409736
21688  1 32.263841  1.743310 46.394330
2977   1 31.436195  2.909884 48.417077
5056   1 33.164648  0.567541 48.400778
9313   1 34.797308  1.735567 50.425920
15451  1 33.913668  2.909884 48.417077
21787  1 32.319835  1.735567 50.425920
15550  1 31.488138  2.903625 52.451116
3077   1 33.965610  2.903625 52.451116
17629  1 33.178027  0.564890 52.444692
15649  1 31.514121  2.903000 56.494339
3176   1 33.991594  2.903001 56.494339
9412   1 32.341677  1.733388 54.469649
17728  1 33.181596  0.563655 56.492324
21887  1 34.819150  1.733388 54.469649
15748  1 31.527979  2.904370 60.540506
3275   1 34.005451  2.904370 60.540506
9511   1 32.351864  1.733384 58.516636
17827  1 33.180981  0.563186 60.540879
21986  1 34.829337  1.733384 58.516636
15847  1 31.533444  2.906092 64.587899
3374   1 34.010917  2.906092 64.587899
9610   1 32.355546  1.734163 62.564629
17926  1 33.177707  0.563358 64.589817
22085  1 34.833019  1.734164 62.564629
3473   1 34.009314  2.908014 68.635977
9709   1 32.354217  1.735321 66.613198
15946  1 31.531841  2.908014 68.635977
18025  1 33.172035  0.564192 68.639117
22184  1 34.831689  1.735321 66.613198
3572   1 34.000794  2.910629 72.683914
9808   1 32.348186  1.737023 70.661996
16045  1 31.523322  2.910629 72.683914
18124  1 33.163519  0.565766 72.688317
22283  1 34.825658  1.737023 70.661996
9907   1 32.336769  1.739599 74.710063
22382  1 34.814242  1.739599 74.710063
3671   1 33.984016  2.914458 76.730181
10006  1 32.317740  1.743386 78.755720
16144  1 31.506544  2.914458 76.730181
18223  1 33.150876  0.568216 76.736262
22481  1 34.795213  1.743386 78.755719
3770   1 33.955195  2.919862 80.772614
10105  1 32.285917  1.748817 82.796670
16243  1 31.477722  2.919861 80.772614
18322  1 33.131203  0.571853 80.781125
22580  1 34.763389  1.748817 82.796670
3869   1 33.906231  2.926578 84.809144
10204  1 32.230549  1.755312 86.831562
16342  1 31.428759  2.926578 84.809144
18421  1 33.097880  0.577482 84.820307
22679  1 34.708022  1.755313 86.831562
3968   1 33.814393  2.934348 88.834541
10303  1 32.108545  1.762760 90.849826
16441  1 31.336920  2.934348 88.834541
18520  1 33.037957  0.583290 88.854522
22778  1 34.586018  1.762760 90.849826
8323   1 34.265768  1.700933  9.933014
20797  1 31.788295  1.700932  9.933014
4067   1 33.621951  2.918270 92.857904
18619  1 32.845855  0.585566 92.861406
10402  1 34.252371  5.183195 11.964904
22876  1 31.774898  5.183195 11.964904
6343   1 32.471956  4.004509 13.988058
10501  1 34.108050  5.168707 16.020164
12591  1 33.389314  6.337766 13.994692
18817  1 34.949429  4.004509 13.988058
22975  1 31.630577  5.168706 16.020164
6442   1 32.350208  4.012032 18.054530
10600  1 34.018520  5.177534 20.084669
12690  1 33.281312  6.334048 18.052852
18916  1 34.827680  4.012033 18.054530
23074  1 31.541047  5.177534 20.084669
6541   1 32.283162  4.023520 22.118398
10699  1 33.972409  5.186409 24.146249
12789  1 33.216552  6.342416 22.115555
19015  1 34.760634  4.023520 22.118398
23173  1 31.494937  5.186409 24.146249
6640   1 32.256269  4.029434 26.175055
10798  1 33.964412  5.188756 28.204492
12888  1 33.190476  6.348008 26.176519
19114  1 34.733742  4.029434 26.175056
23272  1 31.486940  5.188755 28.204492
6739   1 32.265122  4.028547 30.230385
12987  1 33.204079  6.345741 30.237505
19213  1 34.742595  4.028547 30.230385
6838   1 32.324735  4.018474 34.293623
10897  1 33.999400  5.182371 32.265780
13086  1 33.265568  6.337110 34.300554
19312  1 34.802208  4.018475 34.293624
23371  1 31.521927  5.182370 32.265779
6937   1 32.477092  4.011229 38.362220
10996  1 34.096230  5.172100 36.331445
13185  1 33.390942  6.343133 38.356205
19411  1 34.954565  4.011229 38.362221
23470  1 31.618757  5.172099 36.331445
7036   1 32.777585  4.079175 42.402651
11095  1 34.288999  5.200163 40.382632
13284  1 33.595934  6.401587 42.396112
23569  1 31.811526  5.200162 40.382632
909    1 31.292888  6.424109 46.427592
7135   1 32.995346  4.089077 46.420662
11194  1 34.534164  5.257210 44.415204
13383  1 33.770360  6.424109 46.427592
23668  1 32.056692  5.257210 44.415204
1008   1 31.400589  6.416676 50.451843
7234   1 33.093732  4.076268 50.439555
11293  1 34.677742  5.252221 48.435352
13482  1 33.878061  6.416677 50.451843
23767  1 32.200270  5.252221 48.435351
11392  1 32.279159  5.243707 52.461345
23867  1 34.756632  5.243708 52.461345
13581  1 31.469115  6.412900 54.482368
1108   1 33.946588  6.412900 54.482368
11491  1 32.325612  5.243264 56.498530
19807  1 33.142472  4.072700 54.475402
23966  1 34.803085  5.243265 56.498530
13680  1 31.513460  6.415316 58.520469
1207   1 33.990933  6.415317 58.520469
11590  1 32.353727  5.246128 60.540953
19906  1 33.170400  4.073971 58.518166
24065  1 34.831199  5.246128 60.540953
13779  1 31.540010  6.419065 62.562744
1306   1 34.017483  6.419066 62.562744
11689  1 32.368074  5.249112 64.585958
20005  1 33.185552  4.076391 62.563634
24164  1 34.845547  5.249112 64.585957
1405   1 34.029189  6.422241 66.607560
11788  1 32.370820  5.251908 68.632425
13878  1 31.551716  6.422240 66.607561
20104  1 33.190616  4.078728 66.610515
24263  1 34.848293  5.251908 68.632425
1504   1 34.027916  6.425573 70.653670
11887  1 32.362779  5.255450 72.679067
13977  1 31.550444  6.425573 70.653670
20203  1 33.186734  4.081379 70.657970
24362  1 34.840251  5.255450 72.679067
1603   1 34.013902  6.430291 74.699274
14076  1 31.536430  6.430291 74.699274
20302  1 33.173600  4.085116 74.704609
1702   1 33.985015  6.436943 78.742058
11986  1 32.342855  5.260582 76.723944
14175  1 31.507542  6.436943 78.742058
20401  1 33.148781  4.090462 78.748376
24461  1 34.820328  5.260582 76.723944
1801   1 33.935675  6.444825 82.779675
12085  1 32.307198  5.267441 80.764722
14274  1 31.458203  6.444825 82.779675
20500  1 33.106472  4.097307 82.786988
24560  1 34.784671  5.267441 80.764722
1900   1 33.855910  6.449953 86.812211
12184  1 32.247089  5.275143 84.798904
14373  1 31.378438  6.449953 86.812211
20599  1 33.033026  4.104916 86.817250
24659  1 34.724561  5.275143 84.798904
1999   1 33.730763  6.437355 90.846545
12283  1 32.146685  5.277923 88.827920
20698  1 32.900563  4.102839 90.842992
24758  1 34.624158  5.277923 88.827920
6244   1 32.672054  4.041927  9.939286
12492  1 33.550851  6.380488  9.949044
12382  1 31.980954  5.249045 92.862377
24857  1 34.458427  5.249046 92.862377
4176   1 32.670536  7.521876 11.976475
14571  1 33.556898  9.859046 11.990266
16650  1 35.148009  7.521876 11.976475
4275   1 32.545808  7.498188 16.026812
8433   1 34.289110  8.673171 14.006704
14670  1 33.444860  9.830783 16.038837
16749  1 35.023281  7.498188 16.026812
20907  1 31.811637  8.673171 14.006704
4374   1 32.464741  7.499685 20.085894
8532   1 34.192562  8.661560 18.060070
14769  1 33.371094  9.826622 20.093598
16848  1 34.942213  7.499685 20.085894
21006  1 31.715089  8.661559 18.060070
4473   1 32.421351  7.506395 24.147412
8631   1 34.133610  8.665223 22.119113
14868  1 33.331396  9.830548 24.151956
16947  1 34.898824  7.506395 24.147412
21105  1 31.656137  8.665223 22.119113
4572   1 32.415306  7.508078 28.208681
8730   1 34.109769  8.669422 26.179780
14967  1 33.325251  9.832292 28.211023
17046  1 34.892778  7.508079 28.208681
21204  1 31.632296  8.669422 26.179780
8829   1 34.122591  8.667994 30.240204
21303  1 31.645118  8.667994 30.240204
4671   1 32.450188  7.502822 32.270133
8928   1 34.175615  8.664878 34.297368
15066  1 33.354466  9.830602 32.267802
17145  1 34.927661  7.502823 32.270133
21402  1 31.698142  8.664878 34.297368
4770   1 32.533376  7.501101 36.327141
9027   1 34.277103  8.678513 38.345368
15165  1 33.423315  9.835486 36.317866
17244  1 35.010848  7.501101 36.327141
21501  1 31.799631  8.678513 38.345368
4869   1 32.679789  7.533123 40.371731
9126   1 34.430568  8.726378 42.385563
15264  1 33.539467  9.865995 40.359621
17343  1 35.157262  7.533124 40.371732
21600  1 31.953095  8.726377 42.385563
4968   1 32.859150  7.582650 44.410005
9225   1 34.572925  8.752824 46.423695
15363  1 33.680020  9.907049 44.400067
21699  1 32.095453  8.752823 46.423694
5067   1 32.988869  7.588234 48.440976
9324   1 34.677785  8.753000 50.455404
15462  1 33.795629  9.919068 48.437521
21798  1 32.200312  8.752999 50.455404
15561  1 31.409963  9.920020 52.470598
3088   1 33.887436  9.920021 52.470598
17640  1 33.077983  7.583296 52.469148
15660  1 31.483705  9.924469 56.504039
3187   1 33.961178  9.924470 56.504039
9423   1 32.279574  8.752555 54.486680
17739  1 33.140539  7.584105 56.502563
21898  1 34.757047  8.752555 54.486680
15759  1 31.537315  9.930926 60.540530
3286   1 34.014787  9.930926 60.540530
9522   1 32.337773  8.757035 58.521912
17838  1 33.182098  7.588444 60.541324
21997  1 34.815245  8.757035 58.521912
3385   1 34.046947  9.935438 64.580881
9621   1 32.375302  8.762020 62.561334
15858  1 31.569475  9.935438 64.580881
17937  1 33.205400  7.592333 64.583740
22096  1 34.852774  8.762020 62.561334
3484   1 34.059689  9.938611 68.624694
9720   1 32.393899  8.765580 66.604254
15957  1 31.582217  9.938610 68.624694
18036  1 33.212900  7.595598 68.628630
22195  1 34.871372  8.765580 66.604254
3583   1 34.055008  9.942810 72.670402
9819   1 32.395875  8.769123 70.649447
16056  1 31.577535  9.942810 72.670402
18135  1 33.206071  7.599741 72.674395
22294  1 34.873347  8.769123 70.649447
9918   1 32.382083  8.774412 74.694896
22393  1 34.859556  8.774413 74.694896
3682   1 34.033004  9.949443 76.715683
10017  1 32.351080  8.781924 78.738183
16155  1 31.555532  9.949443 76.715683
18234  1 33.184349  7.605876 76.718806
22492  1 34.828552  8.781924 78.738183
3781   1 33.991592  9.957572 80.758472
10116  1 32.298867  8.789661 82.777742
16254  1 31.514120  9.957572 80.758472
18333  1 33.144447  7.613765 80.759482
22591  1 34.776339  8.789661 82.777742
3880   1 33.926559  9.962263 84.798710
10215  1 32.218979  8.790794 86.815167
16353  1 31.449086  9.962263 84.798710
18432  1 33.079902  7.620464 84.795572
22690  1 34.696452  8.790794 86.815166
3979   1 33.831412  9.952412 88.839460
10314  1 32.102596  8.770551 90.855415
16452  1 31.353940  9.952411 88.839460
18531  1 32.981104  7.616362 88.830909
22789  1 34.580069  8.770551 90.855415
8334   1 34.427768  8.717066  9.961144
20808  1 31.950296  8.717066  9.961144
4078   1 33.700754  9.913643 92.883347
18630  1 32.836645  7.580896 92.871465
10413  1 34.436622 12.194793 12.005279
22887  1 31.959149 12.194793 12.005279
6354   1 32.700116 11.008681 14.021155
10512  1 34.331698 12.164845 16.053041
12602  1 33.579437 13.343833 14.036437
18828  1 35.177589 11.008681 14.021155
22986  1 31.854225 12.164845 16.053041
6453   1 32.611033 10.992665 18.071711
10611  1 34.262270 12.157676 20.104098
12701  1 33.493971 13.326429 18.084652
18927  1 35.088505 10.992665 18.071711
23085  1 31.784798 12.157676 20.104098
6552   1 32.556561 10.992804 22.126495
10710  1 34.224488 12.159983 24.157659
12800  1 33.441455 13.325151 22.134780
19026  1 35.034033 10.992804 22.126495
23184  1 31.747016 12.159983 24.157659
6651   1 32.533848 10.996026 26.183244
10809  1 34.216656 12.162521 28.211564
12899  1 33.418260 13.328367 26.186023
19125  1 35.011320 10.996026 26.183244
23283  1 31.739183 12.162521 28.211564
6750   1 32.543173 10.996648 30.239011
12998  1 33.423661 13.331014 30.236087
19224  1 35.020645 10.996648 30.239012
6849   1 32.586810 10.998460 34.290030
10908  1 34.239654 12.164182 32.262578
13097  1 33.459442 13.335930 34.281973
19323  1 35.064282 10.998461 34.290030
23382  1 31.762182 12.164182 32.262578
6948   1 32.670272 11.014891 38.333634
11007  1 34.296875 12.172648 36.307660
13196  1 33.529482 13.352125 38.322664
19422  1 35.147744 11.014891 38.333635
23481  1 31.819403 12.172648 36.307660
7047   1 32.792038 11.053299 42.373719
11106  1 34.392180 12.199305 40.347695
13295  1 33.630398 13.382172 42.362039
23580  1 31.914708 12.199305 40.347694
7146   1 32.912480 11.078918 46.414576
11205  1 34.508099 12.232285 44.388484
13394  1 33.736106 13.404468 46.403433
23679  1 32.030626 12.232285 44.388484
7245   1 33.012628 11.085212 50.451759
11304  1 34.613199 12.246850 48.429063
13493  1 33.833130 13.414407 50.443707
23778  1 32.135727 12.246850 48.429063
11403  1 32.228744 12.253482 52.466425
23878  1 34.706217 12.253482 52.466425
13592  1 31.447023 13.425178 54.481317
1119   1 33.924496 13.425179 54.481317
11502  1 32.311480 12.263362 56.501771
19818  1 33.098207 11.090127 54.486177
23977  1 34.788952 12.263363 56.501771
13691  1 31.527253 13.438662 58.517191
1218   1 34.004725 13.438662 58.517192
11601  1 32.376028 12.272983 60.537713
19917  1 33.167756 11.098367 58.521022
24076  1 34.853500 12.272983 60.537713
1317   1 34.062576 13.446933 62.554533
11700  1 32.416912 12.277913 64.577052
13790  1 31.585104 13.446932 62.554533
20016  1 33.215612 11.104825 62.558736
24175  1 34.894384 12.277913 64.577052
1416   1 34.095706 13.449680 66.596137
11799  1 32.435458 12.280304 68.620673
13889  1 31.618233 13.449680 66.596137
20115  1 33.241325 11.108269 66.600466
24274  1 34.912931 12.280304 68.620673
1515   1 34.106608 13.451515 70.642118
11898  1 32.433980 12.283834 72.667372
13988  1 31.629136 13.451515 70.642118
20214  1 33.247322 11.111362 70.645548
24373  1 34.911452 12.283834 72.667372
1614   1 34.096975 13.455998 74.690753
14087  1 31.619503 13.455998 74.690753
20313  1 33.234997 11.116614 74.692014
1713   1 34.066870 13.463461 78.739855
11997  1 32.413156 12.290317 76.714942
14186  1 31.589398 13.463460 78.739855
20412  1 33.203791 11.124344 78.737561
24472  1 34.890629 12.290317 76.714942
1812   1 34.014928 13.469793 82.787922
12096  1 32.371991 12.298200 80.761440
14285  1 31.537456 13.469792 82.787922
20511  1 33.151290 11.131288 82.780960
24571  1 34.849463 12.298200 80.761440
1911   1 33.937600 13.465471 86.834806
12195  1 32.307692 12.301184 84.806444
14384  1 31.460128 13.465471 86.834806
20610  1 33.072962 11.128923 86.823368
24670  1 34.785165 12.301185 84.806444
2010   1 33.829951 13.437837 90.881238
12294  1 32.215135 12.287639 88.851314
20709  1 32.962723 11.103883 90.867370
24769  1 34.692608 12.287639 88.851313
6255   1 32.825564 11.052352  9.974944
12503  1 33.698940 13.386790  9.989791
12393  1 32.091742 12.247010 92.897076
24868  1 34.569214 12.247010 92.897076
4187   1 32.832821 14.529435 12.020659
6266   1 32.959735 18.054057 10.019663
8345   1 34.569826 15.720652 10.004948
14582  1 33.699916 16.863292 12.035564
16661  1 35.310294 14.529435 12.020659
20819  1 32.092353 15.720652 10.004948
4286   1 32.730212 14.499948 16.067409
6365   1 32.833210 18.013933 14.064786
8444   1 34.449925 15.678770 14.051349
14681  1 33.595303 16.836296 16.080419
16760  1 35.207685 14.499948 16.067409
18839  1 35.310682 18.013933 14.064786
20918  1 31.972452 15.678770 14.051349
4385   1 32.662165 14.492463 20.114626
6464   1 32.745577 18.001596 18.106332
8543   1 34.364707 15.662660 18.096752
14780  1 33.526389 16.830852 20.123259
16859  1 35.139637 14.492464 20.114626
18938  1 35.223050 18.001597 18.106331
21017  1 31.887234 15.662659 18.096752
4484   1 32.624380 14.494669 24.162781
6563   1 32.691777 18.002981 22.146542
8642   1 34.312030 15.661998 22.141931
14879  1 33.487594 16.834064 24.166218
16958  1 35.101852 14.494669 24.162781
19037  1 35.169249 18.002982 22.146541
21116  1 31.834558 15.661998 22.141931
4583   1 32.614224 14.498292 28.211019
6662   1 32.665979 18.007760 26.187905
8741   1 34.287454 15.665917 26.187688
14978  1 33.475281 16.838633 28.209756
17057  1 35.091697 14.498292 28.211019
19136  1 35.143452 18.007760 26.187905
21215  1 31.809981 15.665917 26.187688
6761   1 32.665285 18.012597 30.229748
8840   1 34.289375 15.670035 30.232789
19235  1 35.142758 18.012597 30.229748
21314  1 31.811902 15.670035 30.232789
4682   1 32.631908 14.502222 32.256922
6860   1 32.689844 18.019037 34.269905
8939   1 34.318947 15.676337 34.274959
15077  1 33.488748 16.843683 32.252079
17156  1 35.109381 14.502222 32.256922
19334  1 35.167316 18.019037 34.269905
21413  1 31.841474 15.676337 34.274958
4781   1 32.680125 14.511840 36.298460
6959   1 32.741496 18.030528 38.307431
9038   1 34.378816 15.690569 38.313600
15176  1 33.529830 16.852861 36.291416
17255  1 35.157598 14.511840 36.298460
19433  1 35.218969 18.030528 38.307431
21512  1 31.901344 15.690568 38.313599
4880   1 32.760621 14.533670 40.336996
7058   1 32.817738 18.046192 42.344140
9137   1 34.465458 15.713057 42.351742
15275  1 33.599349 16.869609 40.328636
17354  1 35.238094 14.533671 40.336997
19532  1 35.295210 18.046192 42.344140
21611  1 31.987985 15.713057 42.351742
4979   1 32.860311 14.559035 44.376990
7157   1 32.907555 18.057989 46.382546
9236   1 34.561487 15.730574 46.392222
15374  1 33.688076 16.887705 44.367010
17453  1 35.337783 14.559035 44.376991
19631  1 35.385028 18.057990 46.382546
21710  1 32.084014 15.730574 46.392221
5078   1 32.958610 14.573203 48.418435
7256   1 33.005814 18.067798 50.423177
9335   1 34.657842 15.741660 50.433583
15473  1 33.782737 16.899207 48.407598
21809  1 32.180370 15.741660 50.433582
3099   1 33.883147 16.912685 52.448927
17651  1 33.054109 14.584165 52.458577
15671  1 31.510437 16.935976 56.488247
3198   1 33.987909 16.935976 56.488247
9434   1 32.279338 15.757908 54.473522
17750  1 33.146438 14.600469 56.496141
19829  1 33.115730 18.088678 54.464300
21909  1 34.756810 15.757908 54.473522
3297   1 34.076432 16.954145 60.525807
9533   1 32.371733 15.777732 58.510807
15770  1 31.598959 16.954145 60.525807
17849  1 33.222098 14.614125 60.532648
19928  1 33.223903 18.115771 58.502788
22008  1 34.849206 15.777732 58.510807
3396   1 34.135833 16.958587 64.566669
9632   1 32.440120 15.787848 62.548815
15869  1 31.658360 16.958587 64.566669
17948  1 33.271870 14.619160 64.572182
20027  1 33.304405 18.127189 62.542255
22107  1 34.917592 15.787848 62.548815
3495   1 34.168213 16.956839 68.613143
9731   1 32.481223 15.789134 66.591478
15968  1 31.690740 16.956839 68.613143
18047  1 33.296909 14.619950 68.616692
20126  1 33.354376 18.125959 66.587182
22206  1 34.958696 15.789134 66.591478
3594   1 34.176343 16.956585 72.664352
9830   1 32.497995 15.788821 70.639318
16067  1 31.698871 16.956585 72.664352
18146  1 33.299727 14.621982 72.665366
20225  1 33.377928 18.122672 70.637544
22305  1 34.975468 15.788821 70.639318
9929   1 32.492119 15.791822 74.690814
20324  1 33.376648 18.123636 74.691737
22404  1 34.969592 15.791822 74.690814
3693   1 34.160876 16.961142 76.718583
10028  1 32.463759 15.798791 78.743994
16166  1 31.683403 16.961142 76.718583
18245  1 33.281196 14.627728 76.716199
20423  1 33.350388 18.129997 78.748493
22503  1 34.941231 15.798791 78.743994
3792   1 34.121457 16.968869 80.774102
10127  1 32.412082 15.805281 82.796960
16265  1 31.643984 16.968869 80.774102
18344  1 33.240920 14.635375 80.767192
20522  1 33.298242 18.137593 82.806167
22602  1 34.889555 15.805282 82.796960
3891   1 34.056567 16.972371 84.828691
10226  1 32.334133 15.801048 86.847995
16364  1 31.579094 16.972371 84.828692
18443  1 33.176949 14.637815 84.816994
20621  1 33.217526 18.135775 86.861540
22701  1 34.811605 15.801049 86.847995
3990   1 33.961931 16.958378 88.879838
10325  1 32.225127 15.772678 90.896156
18542  1 33.084759 14.622832 88.865121
20720  1 33.102736 18.108680 90.911359
22800  1 34.702599 15.772678 90.896156
4089   1 33.834980 16.915460 92.926988
18641  1 32.962648 14.580915 92.911871
4198   1 32.928368 21.530049 12.060200
10424  1 34.558790 19.196663 12.049122
12514  1 33.821802 20.386937 10.033193
16672  1 35.405840 21.530050 12.060200
22898  1 32.081317 19.196663 12.049122
4297   1 32.809137 21.515729 16.095973
10523  1 34.448300 19.174521 16.090590
12613  1 33.681880 20.350130 14.075418
16771  1 35.286609 21.515729 16.095973
22997  1 31.970828 19.174521 16.090590
4396   1 32.737981 21.518447 20.128946
10622  1 34.377547 19.172860 20.128458
12712  1 33.590461 20.343777 18.111695
16870  1 35.215454 21.518447 20.128946
23096  1 31.900075 19.172860 20.128458
4495   1 32.700370 21.523689 24.165613
10721  1 34.338175 19.177405 24.167223
12811  1 33.536435 20.347628 22.147618
16969  1 35.177843 21.523689 24.165613
23195  1 31.860702 19.177405 24.167223
4594   1 32.687330 21.528346 28.205699
10820  1 34.324681 19.182391 28.207917
12910  1 33.510872 20.352781 26.186553
17068  1 35.164802 21.528346 28.205699
23294  1 31.847208 19.182391 28.207916
13009  1 33.508698 20.357550 30.227234
4693   1 32.695124 21.533009 32.246643
10919  1 34.334910 19.187602 32.248604
13108  1 33.528920 20.363353 34.267198
17167  1 35.172597 21.533009 32.246643
23393  1 31.857437 19.187602 32.248604
4792   1 32.724118 21.539327 36.286247
11018  1 34.369841 19.195503 36.287258
13207  1 33.573038 20.372042 38.304914
17266  1 35.201590 21.539327 36.286247
23492  1 31.892368 19.195503 36.287258
4891   1 32.775845 21.547328 40.323313
11117  1 34.430358 19.207474 40.323759
13306  1 33.640460 20.381866 42.340647
17365  1 35.253317 21.547329 40.323313
23591  1 31.952886 19.207473 40.323759
4990   1 32.849158 21.552713 44.357914
11216  1 34.511087 19.218749 44.360067
13405  1 33.725877 20.387508 46.376136
17464  1 35.326630 21.552713 44.357914
23690  1 32.033614 19.218749 44.360067
5089   1 32.942550 21.553837 48.392132
11315  1 34.604536 19.225738 48.398211
13504  1 33.828384 20.393572 50.414054
17563  1 35.420023 21.553838 48.392133
23789  1 32.127064 19.225738 48.398210
11414  1 32.235436 19.239527 52.439022
17662  1 33.062382 21.565084 52.430211
23889  1 34.712909 19.239527 52.439023
1130   1 33.954076 20.417748 54.454955
11513  1 32.357641 19.270316 56.479316
17761  1 33.210083 21.604008 56.470429
23988  1 34.835113 19.270317 56.479316
1229   1 34.084196 20.453168 58.494213
11612  1 32.462430 19.293017 60.518128
13702  1 31.606724 20.453168 58.494212
17860  1 33.336587 21.630603 60.510892
24087  1 34.939902 19.293017 60.518128
1328   1 34.179445 20.464507 62.536090
11711  1 32.532820 19.295588 64.561518
13801  1 31.701972 20.464507 62.536090
17959  1 33.419769 21.629328 64.558470
24186  1 35.010292 19.295588 64.561519
1427   1 34.239331 20.459445 66.584603
11810  1 32.573389 19.290353 68.610911
13900  1 31.761858 20.459445 66.584602
18058  1 33.468788 21.619998 68.611477
24285  1 35.050861 19.290353 68.610911
1526   1 34.270087 20.452740 70.637632
11909  1 32.587531 19.287307 72.664483
13999  1 31.792614 20.452740 70.637632
18157  1 33.488670 21.614348 72.666246
24384  1 35.065004 19.287307 72.664483
1625   1 34.273799 20.451485 74.693202
14098  1 31.796327 20.451485 74.693202
1724   1 34.250247 20.456986 78.751640
12008  1 32.575731 19.290352 76.721042
14197  1 31.772774 20.456986 78.751640
18256  1 33.480982 21.615758 76.722675
24483  1 35.053204 19.290352 76.721042
1823   1 34.197509 20.466167 82.813123
12107  1 32.537178 19.298370 80.780152
14296  1 31.720036 20.466167 82.813123
18355  1 33.444465 21.623596 80.782991
24582  1 35.014650 19.298370 80.780152
1922   1 34.111905 20.469113 86.873678
12206  1 32.470002 19.304539 84.839605
14395  1 31.634432 20.469113 86.873678
18454  1 33.374828 21.633243 84.847029
24681  1 34.947475 19.304539 84.839605
2021   1 33.986047 20.446119 90.926113
12305  1 32.369648 19.294338 88.894416
18553  1 33.265239 21.630174 88.907442
24780  1 34.847120 19.294338 88.894416
12404  1 32.230748 19.250910 92.941748
18652  1 33.104819 21.587714 92.955577
24879  1 34.708220 19.250910 92.941748
6277   1 33.030306 25.050131 10.052159
8356   1 34.674664 22.719025 10.044646
14593  1 33.755458 23.864912 12.066600
18751  1 35.507779 25.050132 10.052159
20830  1 32.197191 22.719025 10.044646
6376   1 32.842391 25.033012 14.077664
8455   1 34.513621 22.688920 14.081035
14692  1 33.628778 23.861353 16.093898
18850  1 35.319863 25.033013 14.077664
20929  1 32.036149 22.688919 14.081035
6475   1 32.757147 25.039207 18.104028
8554   1 34.420276 22.689762 18.111059
14791  1 33.563248 23.866970 20.124552
18949  1 35.234619 25.039207 18.104028
21028  1 31.942804 22.689762 18.111059
6574   1 32.716745 25.044021 22.140235
8653   1 34.369776 22.695100 22.145001
14890  1 33.531398 23.871673 24.162181
19048  1 35.194217 25.044021 22.140235
21127  1 31.892303 22.695100 22.145001
6673   1 32.699173 25.047611 26.181032
8752   1 34.346970 22.699754 26.184007
14989  1 33.520554 23.875397 28.203469
19147  1 35.176646 25.047611 26.181031
21226  1 31.869498 22.699754 26.184007
6772   1 32.697501 25.050460 30.224334
8851   1 34.344502 22.703806 30.225385
19246  1 35.174973 25.050460 30.224334
21325  1 31.867029 22.703805 30.225385
6871   1 32.709857 25.053726 34.268090
8950   1 34.360705 22.708505 34.266753
15088  1 33.526576 23.878996 32.246085
19345  1 35.187330 25.053726 34.268090
21424  1 31.883233 22.708505 34.266753
6970   1 32.737399 25.057849 38.310686
9049   1 34.396928 22.714747 38.306257
15187  1 33.549426 23.883634 36.288004
19444  1 35.214871 25.057849 38.310686
21523  1 31.919455 22.714746 38.306257
7069   1 32.783105 25.060594 42.350026
9148   1 34.454814 22.720177 42.342523
15286  1 33.591158 23.888731 40.327498
19543  1 35.260577 25.060595 42.350026
21622  1 31.977341 22.720177 42.342523
7168   1 32.853833 25.056879 46.382216
9247   1 34.535184 22.720135 46.375171
15385  1 33.654746 23.889994 44.362306
19642  1 35.331305 25.056879 46.382216
21721  1 32.057711 22.720134 46.375170
7267   1 32.965403 25.049164 50.408069
9346   1 34.643304 22.720034 50.408035
15484  1 33.746390 23.885048 48.392000
19741  1 35.442875 25.049164 50.408069
21820  1 32.165832 22.720034 50.408035
3110   1 33.880973 23.889977 52.424059
3209   1 34.067937 23.937588 56.462498
9445   1 32.314174 22.745145 54.446597
19840  1 33.146154 25.070598 54.440497
21920  1 34.791647 22.745145 54.446597
3308   1 34.224917 23.966095 60.505980
9544   1 32.476624 22.790262 58.486189
15781  1 31.747444 23.966095 60.505980
19939  1 33.360329 25.126837 58.480176
22019  1 34.954097 22.790262 58.486189
3407   1 34.322472 23.958456 64.560231
9643   1 32.590377 22.798883 62.532274
15880  1 31.844999 23.958456 64.560231
20038  1 33.497418 25.128268 62.534115
22118  1 35.067849 22.798883 62.532274
3506   1 34.378074 23.945591 68.616559
9742   1 32.660672 22.788760 66.585833
15979  1 31.900602 23.945590 68.616559
20137  1 33.575819 25.113145 66.593309
22217  1 35.138145 22.788760 66.585833
3605   1 34.401378 23.938654 72.670079
9841   1 32.697521 22.779147 70.640725
16078  1 31.923905 23.938654 72.670079
20236  1 33.614351 25.102801 70.647303
22316  1 35.174993 22.779147 70.640725
9940   1 32.705567 22.776194 74.695204
20335  1 33.624662 25.099311 74.697840
22415  1 35.183040 22.776194 74.695204
3704   1 34.397805 23.938672 76.723300
10039  1 32.686087 22.780293 78.752062
16177  1 31.920332 23.938671 76.723300
20434  1 33.610955 25.101594 78.750007
22514  1 35.163560 22.780293 78.752062
3803   1 34.366631 23.944926 80.780894
10138  1 32.635104 22.790113 82.814789
16276  1 31.889158 23.944926 80.780894
20533  1 33.568159 25.109346 82.808929
22613  1 35.112577 22.790113 82.814789
3902   1 34.298596 23.956489 84.846963
10237  1 32.544045 22.799350 86.881531
16375  1 31.821124 23.956489 84.846963
20632  1 33.478001 25.122784 86.879651
22712  1 35.021518 22.799350 86.881531
4001   1 34.177706 23.963827 88.916136
10336  1 32.400432 22.785029 90.939525
16474  1 31.700233 23.963827 88.916136
20731  1 33.309452 25.124153 90.949488
22811  1 34.877904 22.785030 90.939525
4100   1 33.980259 23.926584 92.967882
4209   1 32.783625 28.559705 12.041231
10435  1 34.543615 26.205466 12.063359
12525  1 33.802743 27.383180 10.052469
16683  1 35.261097 28.559705 12.041231
22909  1 32.066142 26.205466 12.063359
4308   1 32.735576 28.562004 16.076182
10534  1 34.427180 26.211726 16.083118
12624  1 33.614588 27.384730 14.061618
16782  1 35.213048 28.562005 16.076182
23008  1 31.949707 26.211725 16.083118
4407   1 32.709977 28.567031 20.112582
10633  1 34.378880 26.216669 20.118231
12723  1 33.560606 27.389405 18.096482
16881  1 35.187449 28.567031 20.112582
23107  1 31.901408 26.216668 20.118231
4506   1 32.699704 28.568984 24.155397
10732  1 34.356193 26.220342 24.158233
12822  1 33.534794 27.393502 22.135281
16980  1 35.177177 28.568984 24.155397
23206  1 31.878721 26.220341 24.158233
4605   1 32.697616 28.569744 28.201152
10831  1 34.349141 26.222695 28.201759
12921  1 33.524712 27.395567 26.178664
17079  1 35.175088 28.569744 28.201152
23305  1 31.871668 26.222695 28.201759
13020  1 33.524686 27.396919 30.224234
4704   1 32.701536 28.570254 32.248216
10930  1 34.353925 26.224867 32.246696
13119  1 33.533342 27.398477 34.270533
17178  1 35.179009 28.570254 32.248216
23404  1 31.876452 26.224867 32.246696
4803   1 32.711532 28.571037 36.295758
11029  1 34.370393 26.227691 36.291567
13218  1 33.551603 27.400497 38.316582
17277  1 35.189004 28.571037 36.295758
23503  1 31.892920 26.227691 36.291567
4902   1 32.729141 28.571800 40.343072
11128  1 34.400567 26.230592 40.334944
13317  1 33.582376 27.401523 42.360794
17376  1 35.206614 28.571800 40.343072
23602  1 31.923094 26.230592 40.334944
5001   1 32.758530 28.570717 44.388121
11227  1 34.449340 26.230126 44.373755
13416  1 33.634213 27.397665 46.398548
17475  1 35.236003 28.570717 44.388121
23701  1 31.971867 26.230126 44.373755
5100   1 32.814212 28.564013 48.424224
11326  1 34.531472 26.221403 48.401602
13515  1 33.736786 27.384543 50.419381
17574  1 35.291684 28.564013 48.424224
23800  1 32.053999 26.221403 48.401602
11425  1 32.202706 26.215960 52.423348
17673  1 32.956945 28.548263 52.433500
23900  1 34.680179 26.215960 52.423349
5200   1 35.434418 28.548264 52.433500
1141   1 33.960821 27.393709 54.438953
11524  1 32.455447 26.271449 56.456677
17772  1 33.337572 28.604084 56.455121
23999  1 34.932920 26.271449 56.456677
1240   1 34.270197 27.460395 58.479673
11623  1 32.658342 26.296777 60.507100
13713  1 31.792724 27.460394 58.479673
17871  1 33.611521 28.615806 60.523223
24098  1 35.135814 26.296777 60.507100
1339   1 34.432878 27.449041 62.547194
11722  1 32.768445 26.281187 64.570392
13812  1 31.955406 27.449041 62.547194
17970  1 33.715172 28.598165 64.589309
24197  1 35.245917 26.281187 64.570392
1438   1 34.507818 27.433418 66.607255
11821  1 32.823396 26.267986 68.626500
13911  1 32.030346 27.433417 66.607255
18069  1 33.756036 28.589643 68.638183
24296  1 35.300868 26.267986 68.626500
1537   1 34.540138 27.425536 70.655912
11920  1 32.845570 26.261832 72.675572
14010  1 32.062665 27.425536 70.655912
18168  1 33.772691 28.585361 72.681488
24395  1 35.323043 26.261832 72.675572
1636   1 34.550245 27.422437 74.701023
14109  1 32.072773 27.422437 74.701023
1735   1 34.543629 27.422949 78.747384
12019  1 32.845621 26.260926 76.723535
14208  1 32.066157 27.422949 78.747384
18267  1 33.775789 28.583885 76.724317
24494  1 35.323093 26.260926 76.723534
1834   1 34.516481 27.426933 82.798928
12118  1 32.823894 26.264513 80.775208
14307  1 32.039009 27.426933 82.798927
18366  1 33.766617 28.584811 80.769940
24593  1 35.301366 26.264513 80.775208
1933   1 34.448625 27.435885 86.861479
12217  1 32.769093 26.273171 84.835938
14406  1 31.971152 27.435884 86.861479
18465  1 33.737894 28.588353 84.821266
24692  1 35.246566 26.273172 84.835938
2032   1 34.265791 27.455701 90.946776
12316  1 32.646074 26.289171 88.913137
14505  1 31.788319 27.455700 90.946776
18564  1 33.656327 28.596588 88.884658
24791  1 35.123546 26.289171 88.913137
12415  1 32.383214 26.267977 92.977357
18663  1 33.306315 28.602239 92.974095
24890  1 34.860686 26.267977 92.977357
6288   1 32.691855 32.079653 10.052128
8367   1 34.305619 29.741526 10.052649
10446  1 34.222176 33.266319 12.041912
14604  1 33.502616 30.913091 12.065387
18762  1 35.169328 32.079653 10.052128
20841  1 31.828147 29.741526 10.052649
6387   1 32.639586 32.095065 14.061883
8466   1 34.373386 29.734785 14.061393
14703  1 33.509711 30.916223 16.072979
18861  1 35.117058 32.095065 14.061883
20940  1 31.895913 29.734784 14.061393
6486   1 32.669682 32.093084 18.091685
8565   1 34.355430 29.741024 18.091086
14802  1 33.514983 30.917467 20.110711
18960  1 35.147154 32.093084 18.091685
21039  1 31.877958 29.741024 18.091086
6585   1 32.685216 32.092114 22.133411
8664   1 34.349200 29.742914 22.132456
10743  1 34.338945 33.265484 24.157789
14901  1 33.519114 30.917331 24.155067
19059  1 35.162689 32.092114 22.133411
21138  1 31.871728 29.742914 22.132456
6684   1 32.693767 32.090585 26.179385
8763   1 34.348154 29.743231 26.177912
10842  1 34.348010 33.262799 28.204708
15000  1 33.522588 30.916410 28.202088
19158  1 35.171239 32.090585 26.179385
21237  1 31.870682 29.743231 26.177912
6783   1 32.698246 32.088569 30.227343
8862   1 34.350294 29.742940 30.225219
19257  1 35.175719 32.088569 30.227343
21336  1 31.872822 29.742940 30.225219
6882   1 32.699767 32.086139 34.276365
8961   1 34.355370 29.742567 34.273442
10941  1 34.350564 33.259644 32.253186
15099  1 33.525836 30.915117 32.250431
19356  1 35.177240 32.086140 34.276365
21435  1 31.877897 29.742567 34.273442
6981   1 32.698852 32.083310 38.326182
9060   1 34.364098 29.742263 38.322175
11040  1 34.347497 33.255847 36.302505
15198  1 33.529346 30.913645 36.299591
19455  1 35.176325 32.083310 38.326182
21534  1 31.886626 29.742262 38.322175
7080   1 32.696168 32.080370 42.376550
9159   1 34.378419 29.741498 42.370760
11139  1 34.338962 33.251613 40.352405
15297  1 33.533994 30.911985 40.349380
19554  1 35.173641 32.080371 42.376551
21633  1 31.900946 29.741497 42.370760
7179   1 32.692772 32.077947 46.426069
9258   1 34.404029 29.738729 46.416583
11238  1 34.324655 33.248174 44.402060
15396  1 33.541859 30.909910 44.398962
19653  1 35.170244 32.077947 46.426069
21732  1 31.926556 29.738729 46.416582
7278   1 32.689693 32.076373 50.470094
9357   1 34.464299 29.730532 50.450240
11337  1 34.300538 33.247469 48.448239
15495  1 33.559192 30.906646 48.445117
19752  1 35.167165 32.076373 50.470094
21831  1 31.986827 29.730532 50.450240
3121   1 33.618912 30.899087 52.474182
11436  1 34.235363 33.252883 52.477013
7377   1 32.687627 32.075983 54.470904
3220   1 34.318520 30.910446 56.483246
9456   1 32.230724 29.717672 54.442310
11535  1 33.526683 33.242408 56.487542
15693  1 31.841048 30.910446 56.483246
19851  1 35.165100 32.075984 54.470904
21931  1 34.708197 29.717673 54.442310
3319   1 34.632387 30.919954 60.557395
9555   1 32.770528 29.779709 58.499593
11634  1 33.212656 33.232187 60.560555
15792  1 32.154914 30.919953 60.557395
19950  1 33.923808 32.076518 58.541977
22030  1 35.248000 29.779709 58.499593
24109  1 35.690129 33.232187 60.560556
3418   1 34.677541 30.915711 64.605433
9654   1 32.927234 29.760984 62.572674
11733  1 33.167401 33.234961 64.608339
15891  1 32.200069 30.915711 64.605433
20049  1 33.922374 32.075691 62.587095
22129  1 35.404706 29.760984 62.572674
24208  1 35.644874 33.234962 64.608340
3517   1 34.693686 30.912357 68.647046
9753   1 32.974177 29.753334 66.621689
11832  1 33.154694 33.235959 68.649869
15990  1 32.216213 30.912356 68.647046
20148  1 33.923207 32.074784 66.629457
22228  1 35.451649 29.753334 66.621689
24307  1 35.632167 33.235959 68.649869
3616   1 34.702127 30.909835 72.686403
9852   1 32.993494 29.748925 70.663872
11931  1 33.153998 33.234883 72.689318
16089  1 32.224654 30.909835 72.686403
20247  1 33.925948 32.073304 70.668757
22327  1 35.470967 29.748926 70.663872
24406  1 35.631471 33.234883 72.689318
9951   1 33.001611 29.746442 74.704465
20346  1 33.931204 32.071231 74.707770
22426  1 35.479084 29.746442 74.704465
3715   1 34.707853 30.907845 76.726355
10050  1 33.002788 29.745449 78.746502
12030  1 33.162072 33.232210 76.729741
16188  1 32.230381 30.907845 76.726355
20445  1 33.940293 32.068778 78.748787
22525  1 35.480261 29.745449 78.746502
24505  1 35.639544 33.232210 76.729741
3814   1 34.712752 30.906493 80.768946
10149  1 32.996402 29.746025 82.792087
12129  1 33.180951 33.228431 80.773717
16287  1 32.235279 30.906493 80.768946
20544  1 33.956456 32.066341 82.793680
22624  1 35.473875 29.746025 82.792087
24604  1 35.658424 33.228431 80.773717
3913   1 34.717823 30.906120 84.815541
10248  1 32.974033 29.748204 86.842757
12228  1 33.219823 33.223994 84.823935
16386  1 32.240350 30.906119 84.815541
20643  1 33.989494 32.064568 86.843897
22723  1 35.451505 29.748205 86.842757
24703  1 35.697295 33.223994 84.823935
4012   1 34.723164 30.906767 88.865265
10347  1 32.894352 29.758956 90.902892
12327  1 33.312570 33.217659 88.886185
16485  1 32.245692 30.906767 88.865265
20742  1 34.078422 32.056321 90.902225
22822  1 35.371825 29.758956 90.902892
4111   1 34.729649 30.910624 92.937453
12426  1 33.682938 33.218914 92.975182
16584  1 32.252176 30.910623 92.937453
4220   1 32.461457 35.621143 12.065508
8378   1 33.965259 36.772938 10.055409
12536  1 33.194369 34.439273 10.054683
16694  1 34.938929 35.621144 12.065508
63     1 35.671841 34.439274 10.054683
10545  1 34.284030 33.270484 16.077184
4319   1 32.593123 35.620818 16.085096
8477   1 34.171064 36.797291 14.080148
12635  1 33.398661 34.445168 14.062854
16793  1 35.070596 35.620818 16.085095
10644  1 34.320336 33.267820 20.114093
4418   1 32.652507 35.617932 20.121278
8576   1 34.269805 36.794750 18.107087
12734  1 33.465084 34.444660 18.098296
16892  1 35.129979 35.617933 20.121278
4517   1 32.683735 35.613544 24.163014
8675   1 34.320081 36.790154 22.145042
12833  1 33.500410 34.441242 22.138152
16991  1 35.161208 35.613544 24.163014
4616   1 32.697826 35.609034 28.208801
8774   1 34.345411 36.784784 26.188332
12932  1 33.518092 34.437770 26.183068
17090  1 35.175298 35.609034 28.208801
8873   1 34.353644 36.779289 30.234615
13031  1 33.524738 34.433982 30.230534
4715   1 32.699405 35.604077 32.256397
8972   1 34.347383 36.773016 34.281735
13130  1 33.522556 34.429520 34.279104
17189  1 35.176878 35.604078 32.256397
4814   1 32.689487 35.598111 36.304441
9071   1 34.326384 36.765507 38.328314
13229  1 33.511781 34.424201 38.328110
17288  1 35.166960 35.598111 36.304442
4913   1 32.667462 35.591504 40.352061
9170   1 34.289037 36.758662 42.372785
13328  1 33.491799 34.419101 42.376864
17387  1 35.144935 35.591504 40.352062
5012   1 32.631011 35.587117 44.397281
9269   1 34.229182 36.757872 46.410632
13427  1 33.459091 34.417075 46.422781
17486  1 35.108483 35.587118 44.397282
5111   1 32.567931 35.590055 48.433398
9368   1 34.119193 36.768414 50.431316
13526  1 33.392264 34.422348 50.456324
17585  1 35.045403 35.590055 48.433398
5210   1 32.418919 35.604020 52.442470
17684  1 34.896392 35.604020 52.442470
5309   1 32.031286 35.548817 56.464681
1152   1 35.620350 34.434555 54.448392
9467   1 33.888410 36.758823 54.450900
13625  1 33.142877 34.434555 54.448392
17783  1 34.508758 35.548817 56.464681
1251   1 35.074782 34.373572 58.506326
9566   1 33.573887 36.692946 58.491423
13724  1 32.597310 34.373571 58.506326
17882  1 34.232089 35.536961 60.532298
1350   1 34.916768 34.390718 62.578605
9665   1 33.408997 36.703490 62.558465
13823  1 32.439296 34.390717 62.578605
17981  1 34.128155 35.553106 64.597786
1449   1 34.871342 34.396533 66.627332
9764   1 33.335017 36.717329 66.618132
13922  1 32.393870 34.396533 66.627331
18080  1 34.090385 35.559251 68.646456
22239  1 35.812490 36.717330 66.618132
1548   1 34.857347 34.397942 70.669498
9863   1 33.307473 36.722165 70.666747
14021  1 32.379875 34.397942 70.669498
18179  1 34.081124 35.559806 72.689965
22338  1 35.784945 36.722165 70.666747
1647   1 34.859550 34.396149 74.710528
9962   1 33.306987 36.720734 74.712396
14120  1 32.382077 34.396148 74.710528
22437  1 35.784459 36.720734 74.712396
1746   1 34.876079 34.391920 78.754061
10061  1 33.329714 36.714429 78.760581
14219  1 32.398607 34.391920 78.754061
18278  1 34.091233 35.556262 76.733863
22536  1 35.807186 36.714429 78.760581
1845   1 34.912911 34.385787 82.803617
10160  1 33.381947 36.704042 82.816461
14318  1 32.435439 34.385786 82.803616
18377  1 34.122333 35.549457 80.782521
1944   1 34.991618 34.377137 86.864761
10259  1 33.483419 36.690224 86.885310
14417  1 32.514146 34.377136 86.864761
18476  1 34.187276 35.539512 84.841128
2043   1 35.188638 34.360200 90.949406
10358  1 33.666957 36.691921 90.954086
14516  1 32.711165 34.360200 90.949406
18575  1 34.322849 35.524856 88.917254
6200   1 32.126547 35.552139 92.980483
18674  1 34.604020 35.552140 92.980484
6299   1 32.320321 39.104555 10.049161
10457  1 34.077175 40.297888 12.064575
14615  1 33.249456 37.962287 12.069917
18773  1 34.797794 39.104556 10.049161
2142   1 35.726929 37.962287 12.069917
6398   1 32.500771 39.141906 14.084652
10556  1 34.214319 40.317334 16.100305
14714  1 33.392647 37.971416 16.097112
18872  1 34.978243 39.141906 14.084652
2241   1 35.870119 37.971417 16.097112
6497   1 32.608676 39.144091 18.115469
10655  1 34.298165 40.315107 20.135188
14813  1 33.470032 37.967204 20.129165
18971  1 35.086149 39.144092 18.115469
6596   1 32.669617 39.138195 22.151779
10754  1 34.344991 40.307836 24.175239
14912  1 33.510723 37.961240 24.169358
19070  1 35.147090 39.138195 22.151779
6695   1 32.700346 39.131250 26.194177
10853  1 34.364993 40.300350 28.219362
15011  1 33.528636 37.955028 28.213881
19169  1 35.177819 39.131251 26.194177
6794   1 32.709132 39.124361 30.239359
19268  1 35.186604 39.124361 30.239359
6893   1 32.698187 39.116729 34.284595
10952  1 34.362496 40.292846 32.264321
15110  1 33.528644 37.948530 32.260069
19367  1 35.175659 39.116730 34.284595
6992   1 32.666627 39.107426 38.327928
11051  1 34.337484 40.283809 36.307563
15209  1 33.511436 37.940770 36.305842
19466  1 35.144099 39.107426 38.327928
7091   1 32.612721 39.098945 42.367467
11150  1 34.288334 40.273248 40.347432
15308  1 33.475713 37.932153 40.349636
19565  1 35.090193 39.098946 42.367467
7190   1 32.532429 39.098211 46.399587
11249  1 34.214370 40.266688 44.382157
15407  1 33.418594 37.927229 44.388585
19664  1 35.009902 39.098211 46.399587
3033   1 35.805401 37.932484 48.416348
7289   1 32.412145 39.103811 50.425072
11348  1 34.112543 40.268564 48.411463
15506  1 33.327929 37.932484 48.416348
19763  1 34.889618 39.103812 50.425072
3132   1 35.649219 37.936593 52.437787
11447  1 33.969190 40.262908 52.442750
15605  1 33.171747 37.936593 52.437787
3231   1 35.389966 37.881640 56.470714
7388   1 32.223870 39.082317 54.456875
11546  1 33.775022 40.216054 56.480332
15704  1 32.912493 37.881639 56.470714
19862  1 34.701343 39.082317 54.456875
3330   1 35.183008 37.856651 60.520843
11645  1 33.612914 40.188245 60.523398
15803  1 32.705535 37.856651 60.520843
19961  1 34.481429 39.026919 58.496018
3429   1 35.071701 37.871176 64.583760
11744  1 33.512943 40.195365 64.577499
15902  1 32.594228 37.871175 64.583759
20060  1 34.341033 39.025342 62.549692
3528   1 35.019057 37.882086 68.639660
11843  1 33.458356 40.206270 68.633749
16001  1 32.541585 37.882086 68.639660
20159  1 34.262542 39.039011 66.608664
3627   1 35.003411 37.884436 72.688859
11942  1 33.440003 40.209625 72.687119
16100  1 32.525939 37.884435 72.688859
20258  1 34.227704 39.046428 70.662580
24417  1 35.917475 40.209625 72.687119
20357  1 34.225551 39.045352 74.713232
3726   1 35.015117 37.880005 76.737607
12041  1 33.452801 40.204500 76.739878
16199  1 32.537644 37.880005 76.737606
20456  1 34.252417 39.037206 78.765838
3825   1 35.054933 37.870144 80.791321
12140  1 33.496684 40.192857 80.796045
16298  1 32.577460 37.870144 80.791320
20555  1 34.312339 39.024174 82.824850
3924   1 35.133120 37.856585 84.854551
12239  1 33.576183 40.180451 84.856586
16397  1 32.655647 37.856584 84.854551
20654  1 34.414885 39.013792 86.889062
8279   1 32.096774 39.031062 90.945552
4023   1 35.267126 37.850138 88.922117
12338  1 33.699414 40.183741 88.914783
16496  1 32.789654 37.850138 88.922116
20753  1 34.574247 39.031063 90.945552
4122   1 35.482730 37.893228 92.972505
12437  1 33.879094 40.231976 92.961405
16595  1 33.005258 37.893227 92.972505
4231   1 32.448202 42.632177 12.054167
8389   1 34.035131 43.770578 10.025536
12547  1 33.172963 41.437159 10.038628
16705  1 34.925674 42.632178 12.054167
74     1 35.650435 41.437159 10.038628
4330   1 32.578456 42.658843 16.095824
8488   1 34.186351 43.818432 14.069813
12646  1 33.334441 41.481391 14.079931
16804  1 35.055928 42.658843 16.095824
173    1 35.811914 41.481392 14.079931
4429   1 32.662826 42.659724 20.136386
8587   1 34.291204 43.831533 18.113247
12745  1 33.441613 41.489858 18.117381
16903  1 35.140298 42.659725 20.136387
272    1 35.919086 41.489858 18.117381
4528   1 32.711735 42.652246 24.179473
8686   1 34.356685 43.827254 22.157720
12844  1 33.506690 41.484413 22.156474
17002  1 35.189208 42.652247 24.179473
4627   1 32.731778 42.644213 28.224778
8785   1 34.390309 43.819094 26.204088
12943  1 33.540264 41.476386 26.199634
17101  1 35.209251 42.644213 28.224778
8884   1 34.395565 43.811682 30.250219
13042  1 33.548160 41.468745 30.244588
4726   1 32.725534 42.636555 32.269360
8983   1 34.372611 43.803613 34.293166
13141  1 33.531723 41.460436 34.288223
17200  1 35.203006 42.636555 32.269360
4825   1 32.692167 42.626824 36.310623
9082   1 34.319515 43.791288 38.331552
13240  1 33.489453 41.449597 38.328542
17299  1 35.169640 42.626824 36.310623
866    1 35.898369 41.438545 42.364736
4924   1 32.630267 42.613768 40.347798
9181   1 34.237952 43.775943 42.366700
13339  1 33.420896 41.438544 42.364736
17398  1 35.107739 42.613768 40.347798
965    1 35.806226 41.434391 46.396953
5023   1 32.543695 42.603164 44.381882
9280   1 34.137853 43.766422 46.401216
13438  1 33.328753 41.434391 46.396953
17497  1 35.021168 42.603164 44.381882
1064   1 35.687748 41.433012 50.428984
5122   1 32.437972 42.599517 48.415216
9379   1 34.023049 43.759685 50.437687
13537  1 33.210275 41.433011 50.428984
17596  1 34.915445 42.599518 48.415216
5221   1 32.307868 42.588272 52.451981
17695  1 34.785341 42.588273 52.451981
1163   1 35.530769 41.408345 54.466419
5320   1 32.151811 42.550511 56.490930
9478   1 33.887333 43.736603 54.476916
13636  1 33.053296 41.408345 54.466419
17794  1 34.629284 42.550511 56.490930
1262   1 35.361556 41.364324 58.505198
9577   1 33.749312 43.702593 58.515060
13735  1 32.884083 41.364324 58.505198
17893  1 34.496546 42.524944 60.530825
1361   1 35.243332 41.356057 62.551054
9676   1 33.648422 43.691968 62.556784
13834  1 32.765860 41.356057 62.551054
17992  1 34.409610 42.526185 64.578462
1460   1 35.171514 41.365230 66.604652
9775   1 33.585410 43.696610 66.605694
13933  1 32.694042 41.365230 66.604652
18091  1 34.359831 42.534133 68.631653
1559   1 35.136646 41.372359 70.659465
9874   1 33.554323 43.701633 70.658813
14032  1 32.659173 41.372359 70.659465
18190  1 34.342521 42.536914 72.685965
1658   1 35.134361 41.371247 74.713229
9973   1 33.553167 43.699960 74.712919
14131  1 32.656889 41.371247 74.713229
1757   1 35.162929 41.362157 78.767935
10072  1 33.581603 43.690914 78.766893
14230  1 32.685457 41.362157 78.767934
18289  1 34.355967 42.531394 76.740270
1856   1 35.223645 41.349319 82.825308
10171  1 33.640272 43.679462 82.820278
14329  1 32.746173 41.349319 82.825307
18388  1 34.400011 42.519737 80.795430
1955   1 35.320784 41.344304 86.882635
10270  1 33.732404 43.678096 86.871616
14428  1 32.843311 41.344303 86.882635
18487  1 34.476447 42.510048 84.850789
6112   1 32.113594 42.519471 88.902702
2054   1 35.463580 41.369785 90.933126
10369  1 33.865753 43.706800 90.918935
14527  1 32.986107 41.369784 90.933126
18586  1 34.591066 42.519471 88.902702
6211   1 32.273938 42.568622 92.948282
18685  1 34.751411 42.568623 92.948282
6310   1 32.425410 46.104628 10.010748
10468  1 34.180793 47.301971 12.025458
14626  1 33.309601 44.966673 12.040766
18784  1 34.902882 46.104629 10.010748
2153   1 35.787074 44.966673 12.040766
6409   1 32.574753 46.154501 14.056476
10567  1 34.309443 47.333197 16.074016
14725  1 33.436544 44.997214 16.086342
18883  1 35.052225 46.154502 14.056477
2252   1 35.914016 44.997215 16.086342
6508   1 32.679120 46.169341 18.105071
10666  1 34.393485 47.335905 20.127153
14824  1 33.520162 45.000153 20.133125
18982  1 35.156593 46.169342 18.105071
2351   1 35.997634 45.000153 20.133125
6607   1 32.744043 46.165601 22.156024
10765  1 34.440490 47.329164 24.181858
14923  1 33.568619 44.993080 24.181498
19081  1 35.221516 46.165601 22.156024
6706   1 32.775670 46.158112 26.207379
10864  1 34.454147 47.323342 28.234547
15022  1 33.586483 44.985578 28.229889
19180  1 35.253143 46.158112 26.207380
6805   1 32.776276 46.152235 30.256159
19279  1 35.253749 46.152235 30.256159
6904   1 32.745459 46.145598 34.299667
10963  1 34.435409 47.319190 32.282142
15121  1 33.574938 44.978938 32.275352
19378  1 35.222932 46.145598 34.299667
2747   1 36.009948 44.969201 36.315760
7003   1 32.680896 46.131890 38.337448
11062  1 34.382620 47.310433 36.323014
15220  1 33.532476 44.969201 36.315760
19477  1 35.158368 46.131890 38.337448
2846   1 35.935471 44.952757 40.351840
7102   1 32.585861 46.110695 42.372838
11161  1 34.294202 47.289938 40.359070
15319  1 33.457999 44.952757 40.351840
19576  1 35.063333 46.110696 42.372837
2945   1 35.837626 44.936262 44.387005
7201   1 32.477692 46.095407 46.409571
11260  1 34.183306 47.266446 44.395528
15418  1 33.360154 44.936262 44.387005
19675  1 34.955164 46.095408 46.409571
3044   1 35.729233 44.927479 48.423602
7300   1 32.364936 46.085959 50.447933
11359  1 34.070626 47.254149 48.433690
13548  1 33.185592 48.413097 50.457527
15517  1 33.251760 44.927479 48.423602
19774  1 34.842409 46.085959 50.447933
3143   1 35.608888 44.914571 52.462401
11458  1 33.956493 47.242575 52.472072
15616  1 33.131415 44.914570 52.462401
3242   1 35.477086 44.885416 56.500958
7399   1 32.243569 46.066891 54.486693
11557  1 33.841113 47.221303 56.509179
13647  1 33.074012 48.399320 54.494307
15715  1 32.999613 44.885415 56.500958
19873  1 34.721042 46.066891 54.486693
3341   1 35.365004 44.863978 60.539127
11656  1 33.744575 47.204419 60.546238
13746  1 32.972224 48.381127 58.530218
15814  1 32.887531 44.863978 60.539127
19972  1 34.603963 46.041450 58.523825
1372   1 35.374132 48.371803 62.568904
3440   1 35.289548 44.861745 64.582918
11755  1 33.679035 47.200503 64.588091
13845  1 32.896659 48.371802 62.568904
15913  1 32.812075 44.861745 64.582918
20071  1 34.516823 46.030921 62.563395
1471   1 35.326950 48.370912 66.613378
3539   1 35.246189 44.866300 68.632943
11854  1 33.641818 47.202284 68.635947
13944  1 32.849477 48.370912 66.613378
16012  1 32.768716 44.866300 68.632943
20170  1 34.462132 46.032207 66.609291
1570   1 35.304598 48.371593 70.662747
3638   1 35.231620 44.867649 72.686075
11953  1 33.629993 47.202228 72.687358
14043  1 32.827125 48.371593 70.662747
16111  1 32.754147 44.867649 72.686075
20269  1 34.435635 46.034825 70.660246
1669   1 35.305512 48.368920 74.713823
14142  1 32.828040 48.368920 74.713823
20368  1 34.435812 46.032500 74.712975
1768   1 35.330745 48.361549 78.762915
3737   1 35.245323 44.862028 76.739475
12052  1 33.643326 47.196856 76.738802
14241  1 32.853272 48.361549 78.762914
16210  1 32.767851 44.862027 76.739475
20467  1 34.463127 46.024083 78.764552
1867   1 35.383701 48.352430 82.807357
3836   1 35.287796 44.851243 80.791560
12151  1 33.683429 47.187232 80.787298
14340  1 32.906229 48.352430 82.807357
16309  1 32.810324 44.851243 80.791560
20566  1 34.519197 46.013932 82.813270
1966   1 35.470720 48.351064 86.847841
3935   1 35.360928 44.843554 84.841449
12250  1 33.753834 47.180250 84.831859
14439  1 32.993248 48.351063 86.847841
16408  1 32.883455 44.843553 84.841449
20665  1 34.608142 46.013689 86.859205
8290   1 32.260354 46.042103 90.903939
4034   1 35.470510 44.855306 88.888756
12349  1 33.861555 47.190931 88.874646
14538  1 33.124200 48.376056 90.889068
16507  1 32.993037 44.855305 88.888755
20764  1 34.737826 46.042103 90.903940
4133   1 35.622229 44.903729 92.933788
12448  1 34.013316 47.237604 92.918510
16606  1 33.144756 44.903728 92.933788
4242   1 32.583738 49.638431 12.009113
14637  1 33.475401 51.976141 11.992869
16716  1 35.061211 49.638431 12.009113
2164   1 35.952874 51.976142 11.992869
12657  1 33.453301 48.490168 14.041393
4341   1 32.720279 49.666661 16.060992
8499   1 34.345929 50.825143 14.026241
14736  1 33.627654 51.996175 16.050511
16815  1 35.197751 49.666662 16.060992
184    1 35.930774 48.490169 14.041393
2263   1 36.105127 51.996175 16.050511
12756  1 33.560587 48.503196 18.095141
4440   1 32.806979 49.666327 20.120886
8598   1 34.460374 50.832247 18.086426
14835  1 33.718414 51.990576 20.117457
16914  1 35.284452 49.666328 20.120886
283    1 36.038059 48.503196 18.095141
12855  1 33.625499 48.498605 22.152946
4539   1 32.852002 49.659674 24.181561
8697   1 34.525710 50.825621 22.150484
14934  1 33.759632 51.984498 24.181224
17013  1 35.329475 49.659674 24.181561
382    1 36.102972 48.498605 22.152947
12954  1 33.653669 48.492382 26.209746
4638   1 32.859461 49.656631 28.238321
8796   1 34.548725 50.821336 26.211102
15033  1 33.759023 51.984985 28.239853
17112  1 35.336934 49.656632 28.238321
13053  1 33.647488 48.489475 30.261979
8895   1 34.533723 50.822601 30.266460
679    1 36.084520 48.485777 34.307337
13152  1 33.607047 48.485777 34.307337
4737   1 32.831456 49.656527 32.288892
8994   1 34.481687 50.823555 34.314973
15132  1 33.720149 51.990068 32.293776
17211  1 35.308928 49.656527 32.288892
778    1 36.006809 48.471268 38.345675
13251  1 33.529336 48.471268 38.345676
2758   1 36.118042 51.988435 36.340180
4836   1 32.766455 49.650259 36.331621
9093   1 34.387965 50.809654 38.355108
15231  1 33.640570 51.988434 36.340180
17310  1 35.243928 49.650259 36.331621
877    1 35.895235 48.442962 42.381637
13350  1 33.417762 48.442962 42.381637
2857   1 35.989614 51.960077 40.378069
4935   1 32.660816 49.625550 40.368262
9192   1 34.253803 50.773021 42.391477
15330  1 33.512141 51.960077 40.378069
17409  1 35.138289 49.625550 40.368262
976    1 35.776275 48.422491 46.419574
13449  1 33.298802 48.422490 46.419575
2956   1 35.835319 51.920460 44.415050
5034   1 32.532242 49.594324 44.405466
9291   1 34.119346 50.748706 46.429168
15429  1 33.357846 51.920459 44.415049
17508  1 35.009714 49.594325 44.405466
1075   1 35.663064 48.413098 50.457527
3055   1 35.704709 51.908792 48.450095
5133   1 32.412382 49.580823 48.443255
9390   1 34.003195 50.742136 50.464447
15528  1 33.227237 51.908792 48.450095
17607  1 34.889854 49.580824 48.443255
3154   1 35.595885 51.906019 52.482085
5232   1 32.301648 49.572855 52.479265
15627  1 33.118413 51.906019 52.482085
17706  1 34.779120 49.572855 52.479265
1174   1 35.551485 48.399320 54.494307
3253   1 35.503296 51.897640 56.515398
9489   1 33.898896 50.734163 54.498238
15726  1 33.025824 51.897640 56.515398
17805  1 34.675843 49.558638 56.514347
1273   1 35.449696 48.381127 58.530218
3352   1 35.431764 51.888205 60.552589
9588   1 33.809816 50.721807 58.533273
15825  1 32.954291 51.888205 60.552589
17904  1 34.592163 49.545930 60.550913
3451   1 35.384036 51.883532 64.594885
9687   1 33.744956 50.713917 62.572283
15924  1 32.906563 51.883531 64.594885
18003  1 34.535637 49.541377 64.592330
3550   1 35.357291 51.882225 68.641904
9786   1 33.704768 50.711741 66.616709
16023  1 32.879818 51.882225 68.641904
18102  1 34.503917 49.541227 68.639230
3649   1 35.348756 51.880827 72.691556
9885   1 33.685852 50.711163 70.665406
16122  1 32.871284 51.880827 72.691556
18201  1 34.494137 49.540230 72.689368
22360  1 36.163325 50.711163 70.665406
9984   1 33.686600 50.708568 74.715429
22459  1 36.164072 50.708568 74.715429
3748   1 35.358276 51.877090 76.740627
10083  1 33.708377 50.702644 78.763100
16221  1 32.880804 51.877090 76.740627
18300  1 34.506122 49.535512 76.739171
3847   1 35.389046 51.870854 80.785559
10182  1 33.756311 50.694830 82.804898
16320  1 32.911574 51.870854 80.785559
18399  1 34.542610 49.527352 80.784957
3946   1 35.449629 51.864261 84.822929
10281  1 33.840474 50.691196 86.840143
16419  1 32.972157 51.864261 84.822929
18498  1 34.609718 49.520316 84.824840
2065   1 35.601673 48.376056 90.889068
4045   1 35.556322 51.865279 88.853772
10380  1 33.976460 50.709372 90.875666
16518  1 33.078850 51.865279 88.853772
18597  1 34.717551 49.527025 88.862116
6222   1 32.400301 49.570351 92.903224
12558  1 33.296984 48.439384  9.994952
8400   1 34.171549 50.775232  9.978855
4144   1 35.733964 51.901914 92.889061
16617  1 33.256492 51.901913 92.889061
18696  1 34.877773 49.570351 92.903224
85     1 35.774457 48.439384  9.994952
10479  1 34.386387 54.313952 11.979261
6420   1 32.781011 53.157523 14.014191
10578  1 34.562748 54.318272 16.048580
12668  1 33.729637 55.481332 14.013217
18894  1 35.258483 53.157524 14.014191
195    1 36.207110 55.481333 14.013217
6519   1 32.905761 53.154755 18.083346
10677  1 34.652325 54.308841 20.119535
12767  1 33.856334 55.470016 18.090003
18993  1 35.383233 53.154756 18.083346
6618   1 32.968572 53.146904 22.150235
10776  1 34.684964 54.305076 24.180208
12866  1 33.906416 55.465004 22.151344
19092  1 35.446044 53.146904 22.150235
6717   1 32.984065 53.145286 26.210334
10875  1 34.676190 54.308470 28.236937
12965  1 33.912886 55.465766 26.206121
19191  1 35.461538 53.145286 26.210334
6816   1 32.959519 53.150857 30.267272
13064  1 33.881901 55.473598 30.261436
19290  1 35.436991 53.150857 30.267273
6915   1 32.894506 53.157957 34.320409
10974  1 34.627144 54.318463 32.293730
13163  1 33.805580 55.486872 34.319977
19389  1 35.371978 53.157957 34.320409
789    1 36.143881 55.484147 38.371757
7014   1 32.780684 53.147350 38.364386
11073  1 34.530852 54.324109 36.346536
13262  1 33.666409 55.484146 38.371757
19488  1 35.258157 53.147350 38.364386
888    1 35.923753 55.426651 42.408259
7113   1 32.613405 53.100981 42.400882
11172  1 34.370570 54.294075 40.387252
13361  1 33.446281 55.426650 42.408259
19587  1 35.090878 53.100981 42.400882
987    1 35.734535 55.404404 46.437401
7212   1 32.456497 53.075305 46.436176
11271  1 34.176649 54.245610 44.422372
13460  1 33.257062 55.404404 46.437401
19686  1 34.933970 53.075305 46.436176
1086   1 35.611316 55.410420 50.460429
7311   1 32.335842 53.074212 50.466319
11370  1 34.031852 54.239746 48.451339
13559  1 33.133843 55.410420 50.460429
19785  1 34.813314 53.074212 50.466319
11469  1 33.926320 54.242523 52.478657
1185   1 35.526045 55.411097 54.490622
11568  1 33.846141 54.238026 56.512047
13658  1 33.048573 55.411096 54.490622
19884  1 34.716434 53.071575 54.497122
1284   1 35.464581 55.405114 58.529062
11667  1 33.787538 54.230757 60.551522
13757  1 32.987109 55.405114 58.529062
19983  1 34.640108 53.063335 58.532648
1383   1 35.421976 55.399460 62.572446
11766  1 33.748751 54.226282 64.595692
13856  1 32.944503 55.399460 62.572446
20082  1 34.586105 53.056655 62.573318
24241  1 36.226224 54.226282 64.595692
1482   1 35.395264 55.396605 66.619420
11865  1 33.726632 54.224483 68.643540
13955  1 32.917792 55.396605 66.619420
20181  1 34.552704 53.053854 66.618742
24340  1 36.204104 54.224483 68.643540
1581   1 35.381567 55.395331 70.668836
11964  1 33.718679 54.223143 72.693344
14054  1 32.904095 55.395331 70.668836
20280  1 34.536620 53.052659 70.667578
24439  1 36.196151 54.223143 72.693344
1680   1 35.379486 55.393897 74.718858
14153  1 32.902013 55.393897 74.718858
20379  1 34.536306 53.050519 74.717345
1779   1 35.390064 55.391354 78.766973
12063  1 33.724684 54.220589 76.742532
14252  1 32.912591 55.391354 78.766973
20478  1 34.553162 53.046248 78.764817
24538  1 36.202157 54.220589 76.742532
1878   1 35.418047 55.387687 82.810224
12162  1 33.747683 54.216386 80.788001
14351  1 32.940575 55.387687 82.810224
20577  1 34.592574 53.040508 82.806736
24637  1 36.225156 54.216386 80.788001
1977   1 35.474262 55.384756 86.846877
12261  1 33.795647 54.211789 84.827007
14450  1 32.996789 55.384755 86.846877
20676  1 34.668370 53.035607 86.839283
8301   1 32.331401 53.043780 90.866237
2076   1 35.602083 55.383801 90.866027
12360  1 33.891680 54.208628 88.853950
14549  1 33.124611 55.383801 90.866027
20775  1 34.808873 53.043781 90.866237
6321   1 32.571473 53.112900  9.963396
12569  1 33.454744 55.452830  9.950202
18795  1 35.048945 53.112900  9.963396
12459  1 34.093470 54.232344 92.878190
96     1 35.932216 55.452830  9.950203
4253   1 32.869396 56.644157 11.978194
14648  1 33.984085 58.946748 12.018693
16727  1 35.346869 56.644158 11.978194
4352   1 33.059772 56.629790 16.062368
8510   1 34.745143 57.787225 14.037658
14747  1 34.068365 58.940830 16.076313
16826  1 35.537245 56.629790 16.062369
4451   1 33.127648 56.624748 20.124476
8609   1 34.830319 57.783611 18.099668
14846  1 34.092240 58.941895 20.126010
16925  1 35.605120 56.624748 20.124477
4550   1 33.146319 56.624066 24.177343
8708   1 34.856194 57.783040 22.150935
14945  1 34.093481 58.943467 24.171970
17024  1 35.623791 56.624066 24.177343
4649   1 33.132110 56.628338 28.228507
8807   1 34.853396 57.785137 26.198735
15044  1 34.077225 58.947198 28.217030
17123  1 35.609583 56.628339 28.228508
8906   1 34.823117 57.791834 30.248294
4748   1 33.079615 56.639923 32.284724
9005   1 34.746982 57.806617 34.307757
15143  1 34.034485 58.955175 32.266203
17222  1 35.557087 56.639923 32.284724
4847   1 32.968117 56.654500 36.346659
9104   1 34.579905 57.817535 38.373470
15242  1 33.926944 58.972661 36.331271
17321  1 35.445590 56.654500 36.346659
2868   1 36.122467 58.960121 40.397264
4946   1 32.759979 56.627959 40.394391
9203   1 34.262782 57.749725 42.411151
15341  1 33.644995 58.960121 40.397264
17420  1 35.237452 56.627959 40.394391
2967   1 35.733616 58.903883 44.415680
5045   1 32.499748 56.571636 44.424413
9302   1 34.030393 57.739687 46.427471
15440  1 33.256144 58.903882 44.415679
17519  1 34.977220 56.571636 44.424413
3066   1 35.581436 58.918192 48.421784
9401   1 33.916842 57.750741 50.445406
15539  1 33.103963 58.918192 48.421784
17618  1 34.818718 56.575815 48.443034
3165   1 35.514187 58.921928 52.455398
15638  1 33.036715 58.921927 52.455398
17717  1 34.723967 56.581953 52.468385
3264   1 35.472121 58.919040 56.498715
9500   1 33.852083 57.751185 54.481071
15737  1 32.994649 58.919039 56.498715
17816  1 34.660804 56.578832 56.505628
3363   1 35.442288 58.914723 60.545325
9599   1 33.807739 57.746441 58.524146
15836  1 32.964816 58.914723 60.545325
17915  1 34.616287 56.573039 60.548684
22074  1 36.285212 57.746441 58.524146
3462   1 35.421531 58.911847 64.593650
9698   1 33.776848 57.741954 62.570456
15935  1 32.944058 58.911847 64.593650
18014  1 34.586555 56.569136 64.595110
22173  1 36.254320 57.741954 62.570457
3561   1 35.407917 58.910679 68.643326
9797   1 33.756684 57.739582 66.618936
16034  1 32.930445 58.910679 68.643326
18113  1 34.568798 56.567414 68.644003
22272  1 36.234156 57.739583 66.618936
3660   1 35.399923 58.910402 72.693702
9896   1 33.745067 57.738663 70.668923
16133  1 32.922451 58.910402 72.693702
18212  1 34.560963 56.566479 72.694192
22371  1 36.222539 57.738663 70.668923
9995   1 33.740764 57.738078 74.719215
22470  1 36.218236 57.738078 74.719215
3759   1 35.396860 58.910315 76.743521
10094  1 33.744090 57.737193 78.768025
16232  1 32.919387 58.910314 76.743521
18311  1 34.562659 56.565169 76.743842
22569  1 36.221562 57.737193 78.768026
3858   1 35.399230 58.910204 80.791012
10193  1 33.757795 57.735886 82.812980
16331  1 32.921758 58.910204 80.791011
18410  1 34.575983 56.563057 80.790549
22668  1 36.235267 57.735886 82.812980
3957   1 35.409518 58.910120 84.833456
10292  1 33.789638 57.733683 86.850281
16430  1 32.932046 58.910120 84.833456
18509  1 34.607385 56.560155 84.831328
22767  1 36.267110 57.733684 86.850281
4056   1 35.434652 58.908610 88.863192
10391  1 33.846608 57.737815 90.885097
16529  1 32.957180 58.908610 88.863192
18608  1 34.669827 56.559630 88.866740
22866  1 36.324081 57.737816 90.885098
8411   1 34.381930 57.784705  9.950025
4155   1 35.375931 58.923721 92.871906
16628  1 32.898459 58.923720 92.871906
18707  1 34.869166 56.565000 92.873931
22964  1 32.696891 61.243138 12.013498
10490  1 35.174364 61.243139 12.013498
23063  1 32.613392 61.256099 16.070925
6431   1 33.340911 60.096831 14.052440
10589  1 35.090865 61.256099 16.070926
12580  1 34.414317 62.406606 14.027495
18905  1 35.818383 60.096832 14.052440
23162  1 32.583969 61.260226 20.119874
6530   1 33.339906 60.099820 18.100609
10688  1 35.061441 61.260227 20.119874
12679  1 34.327824 62.416197 18.088433
19004  1 35.817379 60.099820 18.100609
23261  1 32.566996 61.263538 24.164460
6629   1 33.334760 60.102211 22.146525
10787  1 35.044468 61.263538 24.164461
12778  1 34.292262 62.421554 22.137767
19103  1 35.812232 60.102212 22.146525
23360  1 32.551210 61.266652 28.206747
6728   1 33.323243 60.104955 26.189942
10886  1 35.028683 61.266652 28.206747
12877  1 34.273198 62.425141 26.182008
19202  1 35.800715 60.104956 26.189942
6827   1 33.300199 60.109300 30.233544
12976  1 34.261079 62.427709 30.224283
19301  1 35.777672 60.109300 30.233544
23459  1 32.528862 61.270502 32.249619
6926   1 33.248800 60.117026 34.282534
10985  1 35.006334 61.270502 32.249619
13075  1 34.252632 62.429739 34.267716
19400  1 35.726272 60.117026 34.282534
7025   1 33.085742 60.136252 38.354095
11084  1 34.955321 61.275508 36.297405
13174  1 34.249962 62.433103 38.312194
19499  1 35.563214 60.136253 38.354095
799    1 32.997111 62.431750 42.380355
7124   1 32.534039 60.073682 42.409572
11183  1 34.630904 61.264742 40.369522
13273  1 35.474583 62.431750 42.380355
19598  1 35.011511 60.073682 42.409573
898    1 32.989348 62.431331 46.379249
11282  1 33.921275 61.254793 44.376026
13372  1 35.466820 62.431331 46.379250
19697  1 34.760553 60.085624 46.397928
23757  1 36.398747 61.254793 44.376027
997    1 32.982251 62.430281 50.420990
11381  1 33.852075 61.260601 48.402327
13471  1 35.459724 62.430281 50.420990
19796  1 34.689862 60.091411 50.428844
23856  1 36.329548 61.260602 48.402327
11480  1 33.823896 61.260603 52.446123
23955  1 36.301368 61.260603 52.446123
13570  1 32.974596 62.428684 54.468305
1097   1 35.452069 62.428684 54.468305
11579  1 33.804567 61.258343 56.493801
19895  1 34.652522 60.090416 54.472522
24054  1 36.282039 61.258343 56.493801
13669  1 32.966668 62.426973 58.517027
1196   1 35.444140 62.426974 58.517027
11678  1 33.789417 61.255853 60.542515
19994  1 34.626339 60.086987 58.519698
24153  1 36.266889 61.255853 60.542515
13768  1 32.958929 62.425871 62.566114
1295   1 35.436402 62.425871 62.566114
11777  1 33.777455 61.254403 64.591779
20093  1 34.607113 60.084037 62.568149
24252  1 36.254928 61.254403 64.591779
13867  1 32.951363 62.425696 66.615589
1394   1 35.428836 62.425696 66.615589
11876  1 33.767832 61.254142 68.641637
20192  1 34.593315 60.082612 66.617570
24351  1 36.245304 61.254142 68.641637
1493   1 35.420917 62.426382 70.665365
11975  1 33.759557 61.254720 72.691706
13966  1 32.943444 62.426382 70.665365
20291  1 34.583584 60.082381 70.667745
24450  1 36.237029 61.254720 72.691706
1592   1 35.411728 62.427802 74.714725
14065  1 32.934256 62.427802 74.714725
20390  1 34.576842 60.082744 74.717883
1691   1 35.399715 62.429995 78.762314
12074  1 33.751610 61.255862 76.740966
14164  1 32.922243 62.429995 78.762314
20489  1 34.572465 60.083406 78.766632
24549  1 36.229082 61.255862 76.740966
1790   1 35.381666 62.433419 82.806086
12173  1 33.742660 61.257638 80.787839
14263  1 32.904194 62.433419 82.806085
20588  1 34.570215 60.084518 82.812045
24648  1 36.220133 61.257638 80.787839
1889   1 35.349764 62.439647 86.842403
12272  1 33.730018 61.260729 84.829728
14362  1 32.872291 62.439647 86.842403
20687  1 34.570034 60.086606 86.849943
24747  1 36.207491 61.260729 84.829728
1988   1 35.296442 62.442621 90.876472
12371  1 33.706506 61.267798 88.859007
14461  1 32.818969 62.442620 90.876472
20786  1 34.571465 60.090154 90.857087
24846  1 36.183979 61.267798 88.859007
6332   1 33.340006 60.092530  9.982024
12481  1 34.772022 62.401228  9.940519
18806  1 35.817479 60.092531  9.982024
12470  1 33.768716 61.261262 92.867205
24945  1 36.246188 61.261263 92.867205
2087   1 35.816579  2.844216 11.957649
4166   1 37.333004  0.512802 11.964084
14561  1 38.294051  2.844216 11.957649
2186   1 35.645331  2.846073 16.024614
4265   1 37.145545  0.533911 16.046872
14660  1 38.122804  2.846073 16.024614
20897  1 36.475651  1.679647 13.994302
2285   1 35.553626  2.860014 20.092697
4364   1 37.073244  0.544031 20.106867
8522   1 38.826908  1.696569 18.068837
14759  1 38.031099  2.860014 20.092697
20996  1 36.349436  1.696569 18.068837
2384   1 35.510519  2.868236 24.149492
4463   1 37.040484  0.549658 24.156252
8621   1 38.769103  1.706145 22.127025
14858  1 37.987991  2.868236 24.149492
21095  1 36.291630  1.706145 22.127025
2483   1 35.499542  2.871126 28.200888
4562   1 37.026669  0.552646 28.201059
14957  1 37.977015  2.871126 28.200888
21194  1 36.267114  1.711047 26.176762
8720   1 38.744586  1.711047 26.176762
21293  1 36.266564  1.712096 30.223974
8819   1 38.744037  1.712096 30.223974
2582   1 35.522883  2.868092 32.253945
4661   1 37.028930  0.553350 32.245399
15056  1 38.000356  2.868093 32.253945
21392  1 36.300938  1.708712 34.275094
8918   1 38.778411  1.708713 34.275094
2681   1 35.615228  2.855037 36.321384
4760   1 37.065998  0.552548 36.293864
15155  1 38.092701  2.855038 36.321384
21491  1 36.449614  1.693908 38.347992
9017   1 38.927086  1.693909 38.347992
2780   1 35.879778  2.868487 40.389556
4859   1 37.369319  0.563275 40.366849
15254  1 38.357250  2.868487 40.389556
21590  1 36.980486  1.755785 42.404210
17431  1 35.587006  0.574723 44.373656
2879   1 36.253361  2.925349 44.409737
4958   1 38.064479  0.574723 44.373656
21689  1 37.218785  1.743310 46.394330
2978   1 36.391140  2.909884 48.417077
5057   1 38.119593  0.567542 48.400778
17530  1 35.642121  0.567541 48.400778
21788  1 37.274780  1.735567 50.425920
5156   1 35.655499  0.564891 52.444692
15551  1 36.443083  2.903626 52.451116
17630  1 38.132972  0.564891 52.444692
5255   1 35.659068  0.563656 56.492324
9413   1 37.296622  1.733389 54.469649
15650  1 36.469066  2.903001 56.494339
17729  1 38.136541  0.563656 56.492324
5354   1 35.658453  0.563186 60.540879
9512   1 37.306809  1.733384 58.516636
15749  1 36.482924  2.904370 60.540506
17828  1 38.135925  0.563186 60.540879
5453   1 35.655180  0.563358 64.589817
9611   1 37.310491  1.734164 62.564629
15848  1 36.488389  2.906092 64.587899
17927  1 38.132652  0.563358 64.589817
5552   1 35.649507  0.564192 68.639117
9710   1 37.309162  1.735321 66.613197
15947  1 36.486786  2.908014 68.635977
18026  1 38.126980  0.564192 68.639117
5651   1 35.640991  0.565766 72.688317
9809   1 37.303131  1.737023 70.661996
16046  1 36.478267  2.910629 72.683914
18125  1 38.118464  0.565766 72.688317
9908   1 37.291714  1.739599 74.710062
5750   1 35.628348  0.568216 76.736262
10007  1 37.272685  1.743386 78.755719
16145  1 36.461489  2.914458 76.730181
18224  1 38.105821  0.568216 76.736261
5849   1 35.608675  0.571853 80.781125
10106  1 37.240862  1.748817 82.796670
16244  1 36.432667  2.919862 80.772613
18323  1 38.086148  0.571853 80.781124
5948   1 35.575352  0.577482 84.820307
10205  1 37.185494  1.755313 86.831562
16343  1 36.383704  2.926578 84.809144
18422  1 38.052825  0.577482 84.820306
6047   1 35.515429  0.583290 88.854522
10304  1 37.063490  1.762760 90.849826
16442  1 36.291866  2.934348 88.834541
18521  1 37.992901  0.583290 88.854522
20798  1 36.743240  1.700933  9.933014
6146   1 35.323328  0.585566 92.861406
16541  1 36.099423  2.918270 92.857904
18620  1 37.800800  0.585566 92.861406
22877  1 36.729843  5.183195 11.964904
118    1 35.866787  6.337766 13.994692
6344   1 37.426902  4.004509 13.988058
12592  1 38.344260  6.337766 13.994692
22976  1 36.585522  5.168707 16.020164
217    1 35.758785  6.334048 18.052852
6443   1 37.305153  4.012033 18.054530
10601  1 38.973465  5.177534 20.084669
12691  1 38.236257  6.334048 18.052852
23075  1 36.495992  5.177534 20.084669
316    1 35.694025  6.342416 22.115556
6542   1 37.238107  4.023520 22.118399
10700  1 38.927354  5.186409 24.146249
12790  1 38.171497  6.342416 22.115556
23174  1 36.449882  5.186409 24.146249
415    1 35.667948  6.348008 26.176519
6641   1 37.211214  4.029435 26.175056
10799  1 38.919358  5.188756 28.204492
12889  1 38.145421  6.348008 26.176519
23273  1 36.441885  5.188756 28.204492
514    1 35.681552  6.345742 30.237505
6740   1 37.220068  4.028547 30.230385
12988  1 38.159025  6.345742 30.237505
613    1 35.743040  6.337110 34.300554
6839   1 37.279680  4.018475 34.293624
13087  1 38.220513  6.337111 34.300554
23372  1 36.476873  5.182371 32.265780
10898  1 38.954345  5.182372 32.265780
712    1 35.868415  6.343133 38.356206
6938   1 37.432038  4.011230 38.362221
13186  1 38.345887  6.343133 38.356206
23471  1 36.573702  5.172100 36.331445
19510  1 35.255057  4.079176 42.402651
811    1 36.073407  6.401588 42.396112
7037   1 37.732530  4.079176 42.402651
13285  1 38.550879  6.401588 42.396112
23570  1 36.766471  5.200163 40.382632
19609  1 35.472819  4.089077 46.420663
15353  1 38.730834  2.925349 44.409737
910    1 36.247833  6.424109 46.427592
7136   1 37.950291  4.089077 46.420663
13384  1 38.725305  6.424109 46.427592
23669  1 37.011637  5.257210 44.415204
15452  1 38.868613  2.909885 48.417077
1009   1 36.355534  6.416677 50.451843
7235   1 38.048677  4.076269 50.439555
13483  1 38.833007  6.416677 50.451843
19708  1 35.571204  4.076269 50.439555
23768  1 37.155215  5.252222 48.435352
3078   1 38.920556  2.903626 52.451116
11393  1 37.234105  5.243708 52.461345
3177   1 38.946539  2.903001 56.494339
1109   1 38.901533  6.412901 54.482368
7334   1 35.619945  4.072701 54.475402
11492  1 37.280557  5.243265 56.498530
13582  1 36.424061  6.412901 54.482368
19808  1 38.097418  4.072701 54.475402
3276   1 38.960396  2.904371 60.540506
1208   1 38.945878  6.415317 58.520469
7433   1 35.647873  4.073971 58.518166
11591  1 37.308672  5.246128 60.540953
13681  1 36.468405  6.415317 58.520469
19907  1 38.125345  4.073971 58.518166
3375   1 38.965862  2.906092 64.587899
1307   1 38.972428  6.419066 62.562744
7532   1 35.663024  4.076391 62.563634
11690  1 37.323019  5.249113 64.585957
13780  1 36.494955  6.419066 62.562744
20006  1 38.140497  4.076391 62.563634
3474   1 38.964259  2.908014 68.635977
1406   1 38.984134  6.422241 66.607560
7631   1 35.668088  4.078728 66.610515
11789  1 37.325765  5.251908 68.632425
13879  1 36.506661  6.422241 66.607560
20105  1 38.145561  4.078729 66.610515
3573   1 38.955739  2.910629 72.683914
1505   1 38.982861  6.425573 70.653670
7730   1 35.664206  4.081379 70.657970
11888  1 37.317724  5.255450 72.679067
13978  1 36.505389  6.425573 70.653670
20204  1 38.141679  4.081379 70.657970
1604   1 38.968847  6.430291 74.699274
7829   1 35.651073  4.085116 74.704609
14077  1 36.491374  6.430291 74.699274
20303  1 38.128545  4.085116 74.704609
3672   1 38.938961  2.914458 76.730180
1703   1 38.939960  6.436943 78.742058
7928   1 35.626253  4.090462 78.748376
11987  1 37.297800  5.260582 76.723944
14176  1 36.462487  6.436943 78.742058
20402  1 38.103726  4.090462 78.748376
3771   1 38.910140  2.919862 80.772613
1802   1 38.890620  6.444825 82.779675
8027   1 35.583944  4.097307 82.786987
12086  1 37.262143  5.267441 80.764722
14275  1 36.413148  6.444825 82.779675
20501  1 38.061417  4.097307 82.786987
3870   1 38.861176  2.926578 84.809143
1901   1 38.810856  6.449953 86.812211
8126   1 35.510498  4.104916 86.817250
12185  1 37.202034  5.275143 84.798904
14374  1 36.333383  6.449953 86.812211
20600  1 37.987971  4.104916 86.817249
3969   1 38.769338  2.934348 88.834541
2000   1 38.685708  6.437355 90.846545
8225   1 35.378036  4.102840 90.842992
12284  1 37.101630  5.277923 88.827920
14473  1 36.208236  6.437355 90.846545
20699  1 37.855509  4.102840 90.842992
18718  1 35.149527  4.041927  9.939286
4068   1 38.576896  2.918270 92.857904
19     1 36.028323  6.380488  9.949044
6245   1 37.626999  4.041927  9.939286
12493  1 38.505796  6.380488  9.949044
12383  1 36.935899  5.249046 92.862377
2098   1 36.034371  9.859046 11.990266
4177   1 37.625482  7.521876 11.976475
14572  1 38.511843  9.859046 11.990266
2197   1 35.922332  9.830783 16.038837
4276   1 37.500754  7.498188 16.026812
14671  1 38.399805  9.830783 16.038837
20908  1 36.766582  8.673171 14.006704
2296   1 35.848567  9.826622 20.093599
4375   1 37.419685  7.499685 20.085894
14770  1 38.326039  9.826622 20.093599
21007  1 36.670034  8.661559 18.060070
2395   1 35.808868  9.830548 24.151956
4474   1 37.376296  7.506395 24.147412
8632   1 39.088555  8.665223 22.119113
14869  1 38.286341  9.830548 24.151956
21106  1 36.611082  8.665223 22.119113
2494   1 35.802724  9.832293 28.211023
4573   1 37.370251  7.508079 28.208681
8731   1 39.064714  8.669422 26.179780
14968  1 38.280196  9.832293 28.211023
21205  1 36.587241  8.669422 26.179780
8830   1 39.077536  8.667995 30.240205
21304  1 36.600063  8.667994 30.240205
2593   1 35.831938  9.830602 32.267802
4672   1 37.405133  7.502823 32.270133
15067  1 38.309411  9.830602 32.267803
21403  1 36.653087  8.664878 34.297369
2692   1 35.900787  9.835487 36.317867
4771   1 37.488321  7.501101 36.327141
15166  1 38.378259  9.835487 36.317867
21502  1 36.754576  8.678514 38.345368
2791   1 36.016939  9.865995 40.359622
4870   1 37.634735  7.533124 40.371732
15265  1 38.494412  9.865995 40.359622
21601  1 36.908040  8.726378 42.385563
17442  1 35.336622  7.582650 44.410005
2890   1 36.157493  9.907049 44.400067
4969   1 37.814095  7.582650 44.410005
15364  1 38.634965  9.907049 44.400067
21700  1 37.050398  8.752824 46.423695
17541  1 35.466342  7.588234 48.440976
2989   1 36.273101  9.919068 48.437521
5068   1 37.943814  7.588234 48.440976
15463  1 38.750574  9.919068 48.437522
21799  1 37.155258  8.753000 50.455404
3089   1 38.842381  9.920021 52.470598
5167   1 35.555456  7.583297 52.469148
15562  1 36.364908  9.920021 52.470598
17641  1 38.032929  7.583297 52.469149
3188   1 38.916123  9.924470 56.504039
5266   1 35.618012  7.584105 56.502563
9424   1 37.234520  8.752555 54.486680
15661  1 36.438651  9.924470 56.504039
17740  1 38.095485  7.584106 56.502563
3287   1 38.969732  9.930926 60.540530
5365   1 35.659571  7.588444 60.541324
9523   1 37.292718  8.757036 58.521912
15760  1 36.492260  9.930926 60.540530
17839  1 38.137043  7.588444 60.541324
3386   1 39.001892  9.935438 64.580881
5464   1 35.682872  7.592334 64.583740
9622   1 37.330247  8.762020 62.561334
15859  1 36.524419  9.935438 64.580881
17938  1 38.160345  7.592334 64.583740
3485   1 39.014634  9.938611 68.624693
5563   1 35.690373  7.595598 68.628630
9721   1 37.348844  8.765581 66.604254
15958  1 36.537161  9.938611 68.624693
18037  1 38.167845  7.595598 68.628630
3584   1 39.009952  9.942810 72.670402
5662   1 35.683544  7.599741 72.674394
9820   1 37.350819  8.769123 70.649447
16057  1 36.532480  9.942810 72.670402
18136  1 38.161016  7.599741 72.674394
9919   1 37.337028  8.774413 74.694896
3683   1 38.987949  9.949443 76.715683
5761   1 35.661821  7.605877 76.718806
10018  1 37.306025  8.781924 78.738183
16156  1 36.510477  9.949443 76.715683
18235  1 38.139294  7.605877 76.718806
3782   1 38.946537  9.957572 80.758472
5860   1 35.621920  7.613765 80.759482
10117  1 37.253811  8.789661 82.777742
16255  1 36.469065  9.957572 80.758472
18334  1 38.099392  7.613765 80.759482
3881   1 38.881504  9.962263 84.798710
5959   1 35.557375  7.620464 84.795571
10216  1 37.173924  8.790794 86.815166
16354  1 36.404031  9.962263 84.798710
18433  1 38.034847  7.620464 84.795571
3980   1 38.786358  9.952412 88.839460
6058   1 35.458577  7.616362 88.830908
10315  1 37.057541  8.770551 90.855415
16453  1 36.308885  9.952412 88.839460
18532  1 37.936050  7.616362 88.830908
20809  1 36.905241  8.717066  9.961144
4079   1 38.655699  9.913643 92.883347
6157   1 35.314118  7.580896 92.871465
16552  1 36.178227  9.913643 92.883347
18631  1 37.791590  7.580896 92.871464
22888  1 36.914094 12.194793 12.005279
129    1 36.056910 13.343833 14.036437
6355   1 37.655062 11.008681 14.021154
12603  1 38.534382 13.343834 14.036437
22987  1 36.809171 12.164845 16.053041
228    1 35.971443 13.326430 18.084652
6454   1 37.565978 10.992665 18.071711
12702  1 38.448916 13.326430 18.084652
23086  1 36.739743 12.157676 20.104098
327    1 35.918927 13.325151 22.134780
6553   1 37.511506 10.992804 22.126495
10711  1 39.179433 12.159983 24.157659
12801  1 38.396400 13.325151 22.134780
23185  1 36.701961 12.159983 24.157659
426    1 35.895732 13.328367 26.186023
6652   1 37.488793 10.996026 26.183244
10810  1 39.171601 12.162522 28.211564
12900  1 38.373205 13.328368 26.186023
23284  1 36.694128 12.162522 28.211564
525    1 35.901133 13.331014 30.236087
6751   1 37.498118 10.996649 30.239012
12999  1 38.378606 13.331014 30.236087
624    1 35.936915 13.335930 34.281973
6850   1 37.541755 10.998461 34.290031
13098  1 38.414387 13.335930 34.281973
23383  1 36.717127 12.164183 32.262578
723    1 36.006954 13.352125 38.322664
6949   1 37.625216 11.014891 38.333635
13197  1 38.484427 13.352125 38.322664
23482  1 36.774348 12.172648 36.307660
19521  1 35.269510 11.053299 42.373720
822    1 36.107871 13.382172 42.362040
7048   1 37.746983 11.053300 42.373720
13296  1 38.585343 13.382172 42.362040
23581  1 36.869653 12.199305 40.347695
19620  1 35.389952 11.078918 46.414576
921    1 36.213579 13.404469 46.403433
7147   1 37.867424 11.078918 46.414577
13395  1 38.691051 13.404469 46.403433
23680  1 36.985571 12.232285 44.388485
1020   1 36.310602 13.414408 50.443707
7246   1 37.967574 11.085213 50.451760
13494  1 38.788075 13.414408 50.443707
19719  1 35.490101 11.085212 50.451759
23779  1 37.090672 12.246851 48.429063
11404  1 37.183689 12.253483 52.466425
1120   1 38.879441 13.425179 54.481317
7345   1 35.575680 11.090128 54.486177
11503  1 37.266425 12.263363 56.501771
13593  1 36.401968 13.425179 54.481317
19819  1 38.053153 11.090128 54.486178
1219   1 38.959670 13.438663 58.517191
7444   1 35.645228 11.098367 58.521022
11602  1 37.330973 12.272983 60.537713
13692  1 36.482197 13.438663 58.517192
19918  1 38.122701 11.098367 58.521022
1318   1 39.017521 13.446933 62.554533
7543   1 35.693084 11.104826 62.558736
11701  1 37.371857 12.277913 64.577052
13791  1 36.540049 13.446933 62.554533
20017  1 38.170557 11.104826 62.558736
1417   1 39.050651 13.449680 66.596137
7642   1 35.718798 11.108269 66.600466
11800  1 37.390403 12.280304 68.620673
13890  1 36.573178 13.449680 66.596137
20116  1 38.196270 11.108269 66.600466
1516   1 39.061553 13.451515 70.642118
7741   1 35.724794 11.111362 70.645548
11899  1 37.388925 12.283834 72.667372
13989  1 36.584081 13.451516 70.642118
20215  1 38.202267 11.111362 70.645548
1615   1 39.051920 13.455998 74.690753
7840   1 35.712469 11.116614 74.692014
14088  1 36.574448 13.455998 74.690753
20314  1 38.189941 11.116614 74.692014
1714   1 39.021815 13.463461 78.739855
7939   1 35.681264 11.124344 78.737561
11998  1 37.368101 12.290317 76.714942
14187  1 36.544343 13.463461 78.739855
20413  1 38.158736 11.124344 78.737561
1813   1 38.969873 13.469793 82.787922
8038   1 35.628762 11.131288 82.780960
12097  1 37.326936 12.298201 80.761440
14286  1 36.492401 13.469793 82.787922
20512  1 38.106235 11.131288 82.780960
1912   1 38.892546 13.465471 86.834806
8137   1 35.550435 11.128923 86.823368
12196  1 37.262637 12.301185 84.806444
14385  1 36.415073 13.465471 86.834806
20611  1 38.027907 11.128923 86.823368
2011   1 38.784896 13.437837 90.881237
8236   1 35.440196 11.103883 90.867370
12295  1 37.170080 12.287639 88.851313
14484  1 36.307423 13.437837 90.881238
20710  1 37.917668 11.103884 90.867370
18729  1 35.303036 11.052352  9.974944
30     1 36.176412 13.386790  9.989791
6256   1 37.780509 11.052352  9.974944
12504  1 38.653885 13.386790  9.989791
12394  1 37.046686 12.247010 92.897076
18740  1 35.437208 18.054057 10.019663
2109   1 36.177388 16.863292 12.035564
4188   1 37.787766 14.529435 12.020659
6267   1 37.914680 18.054058 10.019662
14583  1 38.654861 16.863292 12.035564
20820  1 37.047298 15.720652 10.004948
2208   1 36.072775 16.836296 16.080419
4287   1 37.685157 14.499948 16.067409
6366   1 37.788155 18.013933 14.064785
14682  1 38.550247 16.836296 16.080419
20919  1 36.927397 15.678770 14.051349
2307   1 36.003862 16.830852 20.123259
4386   1 37.617110 14.492464 20.114626
6465   1 37.700522 18.001597 18.106331
14781  1 38.481334 16.830852 20.123258
21018  1 36.842179 15.662660 18.096752
2406   1 35.965067 16.834065 24.166218
4485   1 37.579325 14.494670 24.162781
6564   1 37.646722 18.002982 22.146541
14880  1 38.442539 16.834065 24.166217
21117  1 36.789503 15.661998 22.141931
2505   1 35.952754 16.838634 28.209756
4584   1 37.569170 14.498292 28.211019
6663   1 37.620924 18.007761 26.187905
8742   1 39.242399 15.665917 26.187688
14979  1 38.430227 16.838634 28.209756
21216  1 36.764926 15.665917 26.187688
6762   1 37.620230 18.012597 30.229748
8841   1 39.244320 15.670036 30.232789
21315  1 36.766848 15.670035 30.232789
2604   1 35.966221 16.843683 32.252079
4683   1 37.586853 14.502223 32.256923
6861   1 37.644789 18.019037 34.269905
15078  1 38.443693 16.843683 32.252079
21414  1 36.796419 15.676337 34.274959
2703   1 36.007302 16.852861 36.291417
4782   1 37.635070 14.511840 36.298460
6960   1 37.696441 18.030528 38.307431
15177  1 38.484774 16.852862 36.291417
21513  1 36.856289 15.690569 38.313600
2802   1 36.076822 16.869609 40.328636
4881   1 37.715566 14.533671 40.336997
7059   1 37.772683 18.046193 42.344140
15276  1 38.554294 16.869609 40.328637
21612  1 36.942930 15.713057 42.351743
2901   1 36.165549 16.887705 44.367011
4980   1 37.815256 14.559035 44.376991
15375  1 38.643021 16.887706 44.367011
21711  1 37.038959 15.730574 46.392222
17552  1 35.436082 14.573204 48.418436
19730  1 35.483286 18.067799 50.423177
3000   1 36.260209 16.899208 48.407598
5079   1 37.913555 14.573204 48.418436
15474  1 38.737682 16.899208 48.407598
21810  1 37.135315 15.741661 50.433583
3100   1 38.838092 16.912686 52.448927
5178   1 35.531581 14.584166 52.458577
15573  1 36.360619 16.912685 52.448927
17652  1 38.009054 14.584166 52.458577
3199   1 38.942854 16.935977 56.488247
5277   1 35.623910 14.600469 56.496141
7356   1 35.593202 18.088678 54.464300
9435   1 37.234283 15.757909 54.473522
15672  1 36.465382 16.935977 56.488247
17751  1 38.101383 14.600469 56.496140
3298   1 39.031376 16.954145 60.525806
5376   1 35.699570 14.614125 60.532648
9534   1 37.326678 15.777733 58.510806
15771  1 36.553904 16.954145 60.525807
17850  1 38.177043 14.614125 60.532648
3397   1 39.090778 16.958588 64.566669
5475   1 35.749342 14.619160 64.572182
9633   1 37.395065 15.787848 62.548814
15870  1 36.613305 16.958587 64.566669
17949  1 38.226815 14.619160 64.572182
3496   1 39.123158 16.956839 68.613143
5574   1 35.774382 14.619950 68.616692
9732   1 37.436169 15.789134 66.591478
15969  1 36.645685 16.956839 68.613143
18048  1 38.251854 14.619950 68.616692
3595   1 39.131288 16.956585 72.664352
5673   1 35.777199 14.621982 72.665366
9831   1 37.452940 15.788821 70.639318
16068  1 36.653815 16.956585 72.664352
18147  1 38.254672 14.621982 72.665366
9930   1 37.447064 15.791822 74.690814
3694   1 39.115821 16.961142 76.718583
5772   1 35.758668 14.627728 76.716199
10029  1 37.418704 15.798791 78.743994
16167  1 36.638348 16.961142 76.718583
18246  1 38.236141 14.627728 76.716199
3793   1 39.076402 16.968869 80.774102
5871   1 35.718393 14.635375 80.767192
10128  1 37.367027 15.805282 82.796960
16266  1 36.598929 16.968869 80.774102
18345  1 38.195865 14.635375 80.767191
3892   1 39.011512 16.972372 84.828691
5970   1 35.654422 14.637815 84.816994
10227  1 37.289078 15.801049 86.847995
16365  1 36.534039 16.972372 84.828691
18444  1 38.131894 14.637815 84.816994
3991   1 38.916876 16.958378 88.879838
6069   1 35.562231 14.622833 88.865120
10326  1 37.180072 15.772679 90.896156
16464  1 36.439403 16.958378 88.879838
18543  1 38.039704 14.622833 88.865120
4090   1 38.789925 16.915461 92.926988
6168   1 35.440120 14.580915 92.911871
16563  1 36.312452 16.915461 92.926988
18642  1 37.917592 14.580915 92.911871
41     1 36.299274 20.386937 10.033193
4199   1 37.883313 21.530050 12.060200
12515  1 38.776747 20.386937 10.033193
22899  1 37.036262 19.196663 12.049122
140    1 36.159352 20.350130 14.075418
4298   1 37.764082 21.515729 16.095972
12614  1 38.636824 20.350130 14.075417
22998  1 36.925772 19.174521 16.090590
239    1 36.067933 20.343777 18.111694
4397   1 37.692926 21.518447 20.128945
10623  1 39.332492 19.172860 20.128457
12713  1 38.545406 20.343777 18.111694
23097  1 36.855020 19.172860 20.128457
338    1 36.013908 20.347628 22.147618
4496   1 37.655315 21.523690 24.165613
10722  1 39.293120 19.177405 24.167222
12812  1 38.491380 20.347629 22.147617
23196  1 36.815647 19.177405 24.167223
437    1 35.988344 20.352781 26.186553
4595   1 37.642275 21.528347 28.205699
10821  1 39.279626 19.182391 28.207916
12911  1 38.465817 20.352781 26.186553
23295  1 36.802153 19.182391 28.207916
536    1 35.986171 20.357551 30.227234
13010  1 38.463643 20.357551 30.227234
635    1 36.006393 20.363353 34.267198
4694   1 37.650069 21.533009 32.246643
10920  1 39.289855 19.187603 32.248604
13109  1 38.483865 20.363354 34.267198
23394  1 36.812382 19.187602 32.248604
734    1 36.050511 20.372042 38.304914
4793   1 37.679063 21.539327 36.286247
11019  1 39.324786 19.195504 36.287258
13208  1 38.527983 20.372042 38.304914
23493  1 36.847313 19.195504 36.287258
833    1 36.117933 20.381866 42.340647
4892   1 37.730790 21.547329 40.323313
13307  1 38.595405 20.381867 42.340647
23592  1 36.907831 19.207474 40.323759
7158   1 37.862500 18.057990 46.382546
932    1 36.203350 20.387509 46.376136
4991   1 37.804103 21.552714 44.357914
13406  1 38.680822 20.387509 46.376136
23691  1 36.988559 19.218750 44.360067
7257   1 37.960759 18.067799 50.423177
1031   1 36.305857 20.393572 50.414054
5090   1 37.897495 21.553838 48.392133
13505  1 38.783329 20.393573 50.414054
23790  1 37.082009 19.225739 48.398211
5189   1 35.539854 21.565085 52.430211
11415  1 37.190381 19.239527 52.439022
17663  1 38.017327 21.565085 52.430211
19830  1 38.070675 18.088678 54.464300
1131   1 38.909021 20.417749 54.454955
5288   1 35.687555 21.604008 56.470429
11514  1 37.312586 19.270317 56.479316
13604  1 36.431548 20.417748 54.454955
17762  1 38.165028 21.604009 56.470429
7455   1 35.701376 18.115772 58.502788
19929  1 38.178848 18.115772 58.502788
1230   1 39.039141 20.453168 58.494213
5387   1 35.814059 21.630603 60.510892
11613  1 37.417375 19.293017 60.518128
13703  1 36.561669 20.453168 58.494213
17861  1 38.291532 21.630603 60.510892
7554   1 35.781877 18.127189 62.542255
20028  1 38.259350 18.127189 62.542255
1329   1 39.134390 20.464507 62.536090
5486   1 35.897242 21.629328 64.558470
11712  1 37.487765 19.295589 64.561519
13802  1 36.656917 20.464507 62.536090
17960  1 38.374714 21.629328 64.558470
7653   1 35.831849 18.125959 66.587182
20127  1 38.309322 18.125959 66.587182
1428   1 39.194276 20.459445 66.584602
5585   1 35.946261 21.619999 68.611477
11811  1 37.528334 19.290353 68.610911
13901  1 36.716803 20.459445 66.584603
18059  1 38.423733 21.619999 68.611477
7752   1 35.855401 18.122672 70.637544
20226  1 38.332873 18.122672 70.637544
1527   1 39.225032 20.452740 70.637632
5684   1 35.966143 21.614348 72.666246
11910  1 37.542476 19.287307 72.664483
14000  1 36.747560 20.452740 70.637632
18158  1 38.443616 21.614348 72.666246
7851   1 35.854120 18.123636 74.691737
20325  1 38.331593 18.123636 74.691737
1626   1 39.228745 20.451485 74.693202
14099  1 36.751272 20.451485 74.693202
7950   1 35.827861 18.129997 78.748493
20424  1 38.305333 18.129997 78.748493
1725   1 39.205192 20.456986 78.751640
5783   1 35.958455 21.615758 76.722675
12009  1 37.530676 19.290352 76.721042
14198  1 36.727719 20.456986 78.751640
18257  1 38.435927 21.615758 76.722675
8049   1 35.775715 18.137593 82.806167
20523  1 38.253187 18.137593 82.806166
1824   1 39.152454 20.466168 82.813123
5882   1 35.921937 21.623596 80.782991
12108  1 37.492123 19.298370 80.780152
14297  1 36.674981 20.466168 82.813123
18356  1 38.399410 21.623596 80.782990
8148   1 35.694999 18.135775 86.861539
20622  1 38.172472 18.135776 86.861539
1923   1 39.066850 20.469113 86.873677
5981   1 35.852301 21.633243 84.847029
12207  1 37.424947 19.304540 84.839605
14396  1 36.589377 20.469113 86.873678
18455  1 38.329773 21.633244 84.847028
8247   1 35.580208 18.108681 90.911358
20721  1 38.057681 18.108681 90.911358
2022   1 38.940992 20.446119 90.926112
6080   1 35.742711 21.630174 88.907442
12306  1 37.324593 19.294339 88.894416
14495  1 36.463520 20.446119 90.926113
18554  1 38.220184 21.630174 88.907442
6179   1 35.582292 21.587715 92.955577
12405  1 37.185693 19.250911 92.941748
18653  1 38.059764 21.587715 92.955577
2120   1 36.232930 23.864912 12.066600
6278   1 37.985251 25.050132 10.052159
14594  1 38.710403 23.864913 12.066600
20831  1 37.152136 22.719025 10.044646
2219   1 36.106251 23.861353 16.093897
6377   1 37.797335 25.033013 14.077664
14693  1 38.583723 23.861353 16.093897
20930  1 36.991093 22.688920 14.081035
2318   1 36.040721 23.866970 20.124552
6476   1 37.712092 25.039208 18.104028
8555   1 39.375221 22.689762 18.111059
14792  1 38.518193 23.866971 20.124551
21029  1 36.897749 22.689762 18.111059
2417   1 36.008871 23.871673 24.162181
6575   1 37.671689 25.044021 22.140235
8654   1 39.324721 22.695100 22.145000
14891  1 38.486343 23.871673 24.162180
21128  1 36.847248 22.695100 22.145000
2516   1 35.998027 23.875397 28.203469
6674   1 37.654118 25.047611 26.181031
8753   1 39.301916 22.699754 26.184007
14990  1 38.475499 23.875398 28.203468
21227  1 36.824443 22.699754 26.184007
6773   1 37.652446 25.050460 30.224334
8852   1 39.299447 22.703806 30.225385
21326  1 36.821974 22.703806 30.225385
2615   1 36.004049 23.878996 32.246085
6872   1 37.664802 25.053726 34.268090
8951   1 39.315650 22.708505 34.266753
15089  1 38.481521 23.878996 32.246085
21425  1 36.838178 22.708505 34.266753
2714   1 36.026898 23.883635 36.288004
6971   1 37.692344 25.057850 38.310686
9050   1 39.351873 22.714747 38.306257
15188  1 38.504371 23.883635 36.288004
21524  1 36.874401 22.714747 38.306257
2813   1 36.068631 23.888732 40.327498
7070   1 37.738050 25.060595 42.350026
9149   1 39.409759 22.720178 42.342523
15287  1 38.546103 23.888732 40.327498
21623  1 36.932286 22.720178 42.342523
2912   1 36.132218 23.889994 44.362306
7169   1 37.808778 25.056880 46.382216
15386  1 38.609691 23.889994 44.362306
21722  1 37.012656 22.720135 46.375171
3011   1 36.223862 23.885049 48.392000
7268   1 37.920348 25.049164 50.408069
15485  1 38.701335 23.885049 48.392000
21821  1 37.120777 22.720035 50.408035
3111   1 38.835918 23.889977 52.424059
15584  1 36.358446 23.889977 52.424059
3210   1 39.022882 23.937588 56.462498
7367   1 35.623627 25.070598 54.440497
9446   1 37.269119 22.745146 54.446597
15683  1 36.545410 23.937588 56.462498
19841  1 38.101099 25.070598 54.440497
3309   1 39.179862 23.966095 60.505980
7466   1 35.837802 25.126837 58.480176
9545   1 37.431569 22.790262 58.486189
15782  1 36.702389 23.966096 60.505981
19940  1 38.315274 25.126838 58.480177
3408   1 39.277417 23.958456 64.560231
7565   1 35.974891 25.128268 62.534115
9644   1 37.545322 22.798883 62.532274
15881  1 36.799944 23.958456 64.560231
20039  1 38.452364 25.128268 62.534115
3507   1 39.333020 23.945591 68.616559
7664   1 36.053292 25.113145 66.593309
9743   1 37.615617 22.788760 66.585833
15980  1 36.855547 23.945591 68.616559
20138  1 38.530765 25.113145 66.593309
3606   1 39.356323 23.938654 72.670079
7763   1 36.091824 25.102802 70.647302
9842   1 37.652466 22.779147 70.640725
16079  1 36.878850 23.938654 72.670079
20237  1 38.569297 25.102802 70.647302
7862   1 36.102135 25.099311 74.697840
9941   1 37.660512 22.776194 74.695203
20336  1 38.579607 25.099311 74.697840
3705   1 39.352750 23.938671 76.723300
7961   1 36.088428 25.101594 78.750007
10040  1 37.641032 22.780293 78.752062
16178  1 36.875277 23.938671 76.723300
20435  1 38.565900 25.101594 78.750007
3804   1 39.321576 23.944927 80.780894
8060   1 36.045632 25.109346 82.808929
10139  1 37.590050 22.790114 82.814788
16277  1 36.844104 23.944927 80.780894
20534  1 38.523104 25.109346 82.808929
8159   1 35.955473 25.122785 86.879651
10238  1 37.498990 22.799351 86.881531
16376  1 36.776069 23.956489 84.846963
20633  1 38.432946 25.122785 86.879651
3903   1 39.253541 23.956490 84.846963
8258   1 35.786925 25.124153 90.949488
10337  1 37.355377 22.785030 90.939525
16475  1 36.655178 23.963827 88.916136
20732  1 38.264398 25.124154 90.949488
4002   1 39.132651 23.963827 88.916136
16574  1 36.457732 23.926584 92.967882
4101   1 38.935204 23.926584 92.967882
52     1 36.280215 27.383180 10.052469
4210   1 37.738570 28.559705 12.041231
10436  1 39.498559 26.205467 12.063359
12526  1 38.757688 27.383180 10.052468
22910  1 37.021087 26.205467 12.063359
151    1 36.092061 27.384730 14.061618
4309   1 37.690521 28.562005 16.076181
10535  1 39.382124 26.211726 16.083117
12625  1 38.569533 27.384731 14.061618
23009  1 36.904652 26.211726 16.083118
250    1 36.038079 27.389405 18.096482
4408   1 37.664922 28.567031 20.112581
10634  1 39.333825 26.216669 20.118231
12724  1 38.515551 27.389405 18.096481
23108  1 36.856353 26.216669 20.118231
349    1 36.012266 27.393502 22.135281
4507   1 37.654650 28.568984 24.155397
10733  1 39.311138 26.220342 24.158232
12823  1 38.489739 27.393502 22.135280
23207  1 36.833666 26.220342 24.158232
448    1 36.002184 27.395567 26.178664
4606   1 37.652561 28.569744 28.201152
10832  1 39.304086 26.222695 28.201758
12922  1 38.479657 27.395567 26.178663
23306  1 36.826613 26.222695 28.201758
547    1 36.002159 27.396919 30.224234
13021  1 38.479632 27.396919 30.224233
646    1 36.010815 27.398477 34.270533
4705   1 37.656481 28.570254 32.248216
10931  1 39.308870 26.224868 32.246695
13120  1 38.488287 27.398477 34.270533
23405  1 36.831397 26.224868 32.246696
745    1 36.029075 27.400497 38.316582
4804   1 37.666476 28.571038 36.295758
11030  1 39.325338 26.227692 36.291566
13219  1 38.506548 27.400498 38.316582
23504  1 36.847865 26.227691 36.291567
844    1 36.059849 27.401524 42.360794
4903   1 37.684086 28.571800 40.343072
11129  1 39.355512 26.230592 40.334944
13318  1 38.537321 27.401524 42.360794
23603  1 36.878039 26.230592 40.334944
943    1 36.111685 27.397666 46.398548
5002   1 37.713476 28.570717 44.388121
11228  1 39.404285 26.230127 44.373755
13417  1 38.589158 27.397666 46.398548
23702  1 36.926812 26.230127 44.373755
1042   1 36.214258 27.384543 50.419381
5101   1 37.769157 28.564014 48.424224
13516  1 38.691731 27.384543 50.419381
23801  1 37.008944 26.221403 48.401602
11327  1 39.486417 26.221404 48.401603
11426  1 37.157651 26.215961 52.423349
17674  1 37.911890 28.548264 52.433501
1142   1 38.915766 27.393709 54.438954
5299   1 35.815044 28.604085 56.455121
11525  1 37.410393 26.271450 56.456677
13615  1 36.438293 27.393709 54.438953
17773  1 38.292517 28.604085 56.455121
1241   1 39.225142 27.460395 58.479673
5398   1 36.088994 28.615807 60.523223
11624  1 37.613287 26.296777 60.507100
13714  1 36.747669 27.460395 58.479673
17872  1 38.566466 28.615807 60.523223
1340   1 39.387823 27.449041 62.547194
5497   1 36.192644 28.598165 64.589310
11723  1 37.723390 26.281188 64.570392
13813  1 36.910351 27.449041 62.547194
17971  1 38.670117 28.598165 64.589310
1439   1 39.462763 27.433418 66.607255
5596   1 36.233508 28.589644 68.638183
11822  1 37.778341 26.267987 68.626500
13912  1 36.985291 27.433418 66.607255
18070  1 38.710981 28.589644 68.638183
5695   1 36.250164 28.585362 72.681488
11921  1 37.800515 26.261832 72.675572
14011  1 37.017610 27.425537 70.655912
18169  1 38.727636 28.585362 72.681488
1538   1 39.495083 27.425537 70.655912
14110  1 37.027718 27.422437 74.701023
1637   1 39.505190 27.422437 74.701023
5794   1 36.253262 28.583885 76.724317
12020  1 37.800566 26.260926 76.723534
14209  1 37.021102 27.422949 78.747384
18268  1 38.730734 28.583885 76.724317
1736   1 39.498574 27.422949 78.747384
5893   1 36.244090 28.584812 80.769940
12119  1 37.778839 26.264513 80.775208
14308  1 36.993954 27.426933 82.798928
18367  1 38.721562 28.584812 80.769940
1835   1 39.471426 27.426934 82.798928
5992   1 36.215367 28.588354 84.821266
12218  1 37.724039 26.273172 84.835939
14407  1 36.926097 27.435885 86.861479
18466  1 38.692839 28.588354 84.821267
1934   1 39.403570 27.435885 86.861480
6091   1 36.133799 28.596588 88.884658
12317  1 37.601019 26.289172 88.913137
14506  1 36.743264 27.455701 90.946776
18565  1 38.611272 28.596589 88.884658
2033   1 39.220736 27.455701 90.946776
6190   1 35.783787 28.602239 92.974095
12416  1 37.338159 26.267977 92.977357
18664  1 38.261260 28.602239 92.974095
2131   1 35.980088 30.913091 12.065387
6289   1 37.646800 32.079654 10.052128
8368   1 39.260564 29.741527 10.052649
14605  1 38.457561 30.913092 12.065387
20842  1 36.783092 29.741527 10.052649
2230   1 35.987184 30.916223 16.072979
6388   1 37.594530 32.095066 14.061883
8467   1 39.328331 29.734785 14.061393
14704  1 38.464656 30.916224 16.072978
20941  1 36.850858 29.734785 14.061393
2329   1 35.992455 30.917467 20.110711
6487   1 37.624627 32.093084 18.091685
8566   1 39.310375 29.741025 18.091085
14803  1 38.469928 30.917467 20.110711
21040  1 36.832903 29.741025 18.091086
2428   1 35.996586 30.917332 24.155067
6586   1 37.640161 32.092114 22.133411
8665   1 39.304145 29.742914 22.132456
14902  1 38.474059 30.917332 24.155067
21139  1 36.826673 29.742914 22.132456
2527   1 36.000061 30.916410 28.202088
6685   1 37.648712 32.090585 26.179384
8764   1 39.303100 29.743231 26.177911
15001  1 38.477534 30.916410 28.202088
21238  1 36.825627 29.743231 26.177911
6784   1 37.653191 32.088569 30.227342
8863   1 39.305239 29.742940 30.225219
21337  1 36.827767 29.742940 30.225219
2626   1 36.003309 30.915117 32.250431
6883   1 37.654712 32.086140 34.276365
8962   1 39.310315 29.742567 34.273442
15100  1 38.480781 30.915118 32.250431
21436  1 36.832842 29.742567 34.273442
2725   1 36.006818 30.913645 36.299591
6982   1 37.653797 32.083310 38.326183
9061   1 39.319043 29.742263 38.322175
15199  1 38.484291 30.913645 36.299591
21535  1 36.841571 29.742263 38.322175
2824   1 36.011467 30.911985 40.349380
7081   1 37.651113 32.080371 42.376551
9160   1 39.333364 29.741498 42.370760
15298  1 38.488939 30.911985 40.349380
21634  1 36.855891 29.741498 42.370760
2923   1 36.019331 30.909910 44.398962
7180   1 37.647717 32.077947 46.426069
9259   1 39.358974 29.738730 46.416583
15397  1 38.496804 30.909911 44.398962
21733  1 36.881502 29.738730 46.416583
3022   1 36.036665 30.906646 48.445117
7279   1 37.644638 32.076373 50.470094
9358   1 39.419245 29.730533 50.450241
15496  1 38.514137 30.906646 48.445117
21832  1 36.941772 29.730533 50.450241
3122   1 38.573858 30.899087 52.474183
15595  1 36.096385 30.899087 52.474182
7378   1 37.642573 32.075984 54.470904
9457   1 37.185670 29.717673 54.442310
15694  1 36.795993 30.910446 56.483247
3221   1 39.273466 30.910446 56.483247
7477   1 36.401280 32.076518 58.541977
9556   1 37.725473 29.779709 58.499593
15793  1 37.109859 30.919954 60.557395
19951  1 38.878753 32.076518 58.541977
3320   1 39.587332 30.919954 60.557395
7576   1 36.399846 32.075691 62.587095
9655   1 37.882179 29.760984 62.572674
15892  1 37.155014 30.915712 64.605433
20050  1 38.877319 32.075692 62.587096
7675   1 36.400680 32.074784 66.629458
9754   1 37.929122 29.753334 66.621689
15991  1 37.171158 30.912357 68.647046
20149  1 38.878153 32.074784 66.629458
7774   1 36.403421 32.073304 70.668757
9853   1 37.948439 29.748926 70.663872
16090  1 37.179599 30.909835 72.686403
20248  1 38.880893 32.073304 70.668757
7873   1 36.408677 32.071231 74.707770
9952   1 37.956556 29.746442 74.704465
20347  1 38.886149 32.071231 74.707770
7972   1 36.417765 32.068778 78.748787
10051  1 37.957733 29.745449 78.746502
16189  1 37.185326 30.907845 76.726355
20446  1 38.895237 32.068778 78.748787
8071   1 36.433928 32.066341 82.793680
10150  1 37.951347 29.746025 82.792087
16288  1 37.190225 30.906493 80.768947
20545  1 38.911401 32.066341 82.793680
8170   1 36.466967 32.064568 86.843897
10249  1 37.928978 29.748205 86.842757
16387  1 37.195295 30.906120 84.815542
20644  1 38.944439 32.064569 86.843897
24802  1 35.790043 33.217659 88.886185
8269   1 36.555894 32.056321 90.902226
10348  1 37.849298 29.758957 90.902892
16486  1 37.200636 30.906767 88.865265
20743  1 39.033367 32.056322 90.902226
24901  1 36.160410 33.218915 92.975182
16585  1 37.207121 30.910624 92.937453
10447  1 39.177120 33.266320 12.041912
22921  1 36.699648 33.266319 12.041912
4221   1 37.416401 35.621144 12.065508
8379   1 38.920203 36.772939 10.055410
12537  1 38.149313 34.439274 10.054683
20853  1 36.442731 36.772938 10.055410
10546  1 39.238975 33.270485 16.077183
23020  1 36.761502 33.270485 16.077184
162    1 35.876134 34.445168 14.062854
4320   1 37.548068 35.620818 16.085095
8478   1 39.126008 36.797292 14.080148
12636  1 38.353606 34.445169 14.062854
20952  1 36.648536 36.797291 14.080148
10645  1 39.275281 33.267821 20.114092
23119  1 36.797808 33.267821 20.114093
261    1 35.942556 34.444660 18.098296
4419   1 37.607451 35.617933 20.121278
8577   1 39.224750 36.794751 18.107087
12735  1 38.420029 34.444660 18.098296
21051  1 36.747277 36.794751 18.107087
10744  1 39.293890 33.265484 24.157788
23218  1 36.816417 33.265484 24.157788
360    1 35.977883 34.441242 22.138152
4518   1 37.638680 35.613544 24.163014
8676   1 39.275026 36.790154 22.145041
12834  1 38.455355 34.441243 22.138152
21150  1 36.797554 36.790154 22.145041
10843  1 39.302955 33.262800 28.204707
23317  1 36.825483 33.262800 28.204707
459    1 35.995565 34.437771 26.183068
4617   1 37.652771 35.609034 28.208801
8775   1 39.300356 36.784784 26.188332
12933  1 38.473037 34.437771 26.183068
21249  1 36.822883 36.784784 26.188332
558    1 36.002211 34.433982 30.230534
8874   1 39.308589 36.779289 30.234615
13032  1 38.479683 34.433982 30.230534
21348  1 36.831117 36.779289 30.234615
10942  1 39.305509 33.259645 32.253186
23416  1 36.828037 33.259644 32.253186
657    1 36.000029 34.429520 34.279104
4716   1 37.654350 35.604078 32.256397
8973   1 39.302328 36.773016 34.281735
13131  1 38.477501 34.429520 34.279104
21447  1 36.824856 36.773016 34.281735
11041  1 39.302442 33.255847 36.302505
23515  1 36.824969 33.255847 36.302505
756    1 35.989253 34.424202 38.328110
4815   1 37.644433 35.598111 36.304442
9072   1 39.281329 36.765508 38.328314
13230  1 38.466726 34.424202 38.328110
21546  1 36.803857 36.765507 38.328314
11140  1 39.293907 33.251614 40.352405
23614  1 36.816434 33.251614 40.352405
855    1 35.969272 34.419101 42.376864
4914   1 37.622407 35.591505 40.352062
9171   1 39.243982 36.758662 42.372786
13329  1 38.446744 34.419101 42.376864
21645  1 36.766509 36.758662 42.372786
11239  1 39.279600 33.248175 44.402060
23713  1 36.802128 33.248175 44.402060
954    1 35.936563 34.417075 46.422781
5013   1 37.585956 35.587118 44.397282
9270   1 39.184127 36.757872 46.410633
13428  1 38.414036 34.417076 46.422781
21744  1 36.706655 36.757872 46.410633
1053   1 35.869737 34.422348 50.456324
11338  1 39.255483 33.247470 48.448239
23812  1 36.778011 33.247469 48.448239
5112   1 37.522876 35.590055 48.433398
9369   1 39.074139 36.768414 50.431316
13527  1 38.347209 34.422348 50.456324
21843  1 36.596666 36.768414 50.431316
11437  1 39.190308 33.252884 52.477013
23911  1 36.712836 33.252884 52.477013
5211   1 37.373864 35.604020 52.442471
11536  1 38.481628 33.242408 56.487543
24010  1 36.004156 33.242408 56.487542
5310   1 36.986231 35.548818 56.464681
9468   1 38.843356 36.758823 54.450900
13626  1 38.097822 34.434555 54.448392
17784  1 39.463703 35.548818 56.464681
21942  1 36.365883 36.758823 54.450900
11635  1 38.167601 33.232187 60.560556
5409   1 36.709562 35.536961 60.532298
9567   1 38.528832 36.692947 58.491423
13725  1 37.552255 34.373572 58.506327
17883  1 39.187034 35.536961 60.532298
22041  1 36.051359 36.692947 58.491423
11734  1 38.122347 33.234962 64.608340
5508   1 36.605628 35.553106 64.597786
9666   1 38.363942 36.703490 62.558465
13824  1 37.394241 34.390718 62.578605
17982  1 39.083100 35.553106 64.597786
22140  1 35.886470 36.703490 62.558465
11833  1 38.109639 33.235959 68.649869
5607   1 36.567857 35.559251 68.646456
9765   1 38.289962 36.717330 66.618132
13923  1 37.348815 34.396533 66.627332
18081  1 39.045329 35.559251 68.646456
11932  1 38.108943 33.234883 72.689318
5706   1 36.558596 35.559806 72.689965
9864   1 38.262417 36.722165 70.666747
14022  1 37.334820 34.397942 70.669498
18180  1 39.036068 35.559806 72.689965
9963   1 38.261932 36.720734 74.712396
14121  1 37.337022 34.396149 74.710528
12031  1 38.117017 33.232210 76.729741
5805   1 36.568705 35.556262 76.733864
10062  1 38.284658 36.714429 78.760581
14220  1 37.353552 34.391920 78.754061
18279  1 39.046178 35.556262 76.733864
22635  1 35.859419 36.704043 82.816462
12130  1 38.135896 33.228431 80.773717
5904   1 36.599805 35.549457 80.782521
10161  1 38.336892 36.704043 82.816462
14319  1 37.390384 34.385787 82.803617
18378  1 39.077278 35.549457 80.782521
22734  1 35.960892 36.690225 86.885310
12229  1 38.174768 33.223995 84.823935
6003   1 36.664749 35.539512 84.841129
10260  1 38.438364 36.690225 86.885311
14418  1 37.469091 34.377137 86.864762
18477  1 39.142221 35.539512 84.841129
22833  1 36.144429 36.691921 90.954086
12328  1 38.267515 33.217659 88.886186
6102   1 36.800321 35.524856 88.917254
10359  1 38.621902 36.691922 90.954086
14517  1 37.666110 34.360200 90.949407
18576  1 39.277794 35.524856 88.917254
12427  1 38.637883 33.218915 92.975182
6201   1 37.081492 35.552140 92.980484
18675  1 39.558964 35.552141 92.980484
6300   1 37.275266 39.104556 10.049162
10458  1 39.032119 40.297889 12.064575
14616  1 38.204401 37.962288 12.069917
22932  1 36.554647 40.297889 12.064575
18774  1 39.752738 39.104557 10.049162
6399   1 37.455715 39.141907 14.084652
10557  1 39.169264 40.317335 16.100305
14715  1 38.347592 37.971417 16.097112
23031  1 36.691791 40.317334 16.100305
2340   1 35.947505 37.967204 20.129165
6498   1 37.563621 39.144092 18.115469
10656  1 39.253109 40.315107 20.135188
14814  1 38.424977 37.967204 20.129165
23130  1 36.775637 40.315107 20.135188
2439   1 35.988195 37.961240 24.169358
6597   1 37.624562 39.138196 22.151779
10755  1 39.299937 40.307837 24.175239
14913  1 38.465668 37.961241 24.169358
23229  1 36.822464 40.307837 24.175239
2538   1 36.006109 37.955028 28.213881
6696   1 37.655291 39.131251 26.194177
10854  1 39.319938 40.300350 28.219362
15012  1 38.483581 37.955028 28.213881
23328  1 36.842465 40.300350 28.219362
6795   1 37.664077 39.124361 30.239359
2637   1 36.006116 37.948530 32.260070
6894   1 37.653132 39.116730 34.284595
10953  1 39.317441 40.292846 32.264321
15111  1 38.483589 37.948530 32.260070
23427  1 36.839969 40.292846 32.264321
2736   1 35.988909 37.940770 36.305842
6993   1 37.621571 39.107426 38.327928
11052  1 39.292429 40.283809 36.307563
15210  1 38.466381 37.940770 36.305842
23526  1 36.814957 40.283809 36.307563
2835   1 35.953186 37.932154 40.349637
7092   1 37.567666 39.098946 42.367467
11151  1 39.243279 40.273248 40.347432
15309  1 38.430658 37.932154 40.349637
23625  1 36.765807 40.273248 40.347432
2934   1 35.896067 37.927229 44.388586
7191   1 37.487374 39.098211 46.399587
11250  1 39.169314 40.266689 44.382157
15408  1 38.373539 37.927229 44.388586
23724  1 36.691842 40.266689 44.382157
7290   1 37.367090 39.103812 50.425072
11349  1 39.067487 40.268564 48.411463
15507  1 38.282873 37.932484 48.416348
23823  1 36.590015 40.268564 48.411463
11448  1 38.924135 40.262908 52.442750
15606  1 38.126692 37.936593 52.437787
23922  1 36.446663 40.262908 52.442750
7389   1 37.178816 39.082317 54.456875
11547  1 38.729967 40.216054 56.480332
15705  1 37.867438 37.881640 56.470714
19863  1 39.656288 39.082318 54.456875
24021  1 36.252494 40.216054 56.480332
7488   1 36.958902 39.026920 58.496018
11646  1 38.567859 40.188245 60.523398
15804  1 37.660480 37.856652 60.520843
19962  1 39.436374 39.026920 58.496018
24120  1 36.090386 40.188245 60.523398
7587   1 36.818505 39.025342 62.549692
11745  1 38.467888 40.195365 64.577499
15903  1 37.549173 37.871176 64.583759
20061  1 39.295978 39.025342 62.549692
24219  1 35.990416 40.195365 64.577499
7686   1 36.740015 39.039011 66.608664
11844  1 38.413301 40.206270 68.633749
16002  1 37.496530 37.882087 68.639660
20160  1 39.217487 39.039011 66.608664
24318  1 35.935828 40.206270 68.633749
7785   1 36.705176 39.046429 70.662580
11943  1 38.394947 40.209625 72.687119
16101  1 37.480884 37.884436 72.688859
20259  1 39.182649 39.046429 70.662580
7884   1 36.703024 39.045352 74.713232
20358  1 39.180496 39.045352 74.713232
24516  1 35.930273 40.204500 76.739878
7983   1 36.729889 39.037206 78.765839
12042  1 38.407745 40.204500 76.739878
16200  1 37.492589 37.880005 76.737607
20457  1 39.207362 39.037206 78.765839
24615  1 35.974156 40.192857 80.796046
8082   1 36.789811 39.024174 82.824850
12141  1 38.451629 40.192857 80.796046
16299  1 37.532405 37.870144 80.791321
20556  1 39.267284 39.024174 82.824850
24714  1 36.053655 40.180451 84.856587
8181   1 36.892357 39.013792 86.889062
12240  1 38.531128 40.180451 84.856587
16398  1 37.610592 37.856585 84.854551
20655  1 39.369830 39.013792 86.889063
24813  1 36.176887 40.183742 88.914783
8280   1 37.051719 39.031063 90.945552
12339  1 38.654359 40.183742 88.914784
16497  1 37.744598 37.850138 88.922117
20754  1 39.529192 39.031064 90.945552
24912  1 36.356566 40.231976 92.961405
12438  1 38.834039 40.231977 92.961405
16596  1 37.960202 37.893228 92.972506
4232   1 37.403147 42.632179 12.054167
8390   1 38.990076 43.770579 10.025536
12548  1 38.127908 41.437160 10.038628
20864  1 36.512603 43.770578 10.025536
4331   1 37.533401 42.658844 16.095824
8489   1 39.141296 43.818433 14.069814
12647  1 38.289386 41.481392 14.079931
20963  1 36.663824 43.818432 14.069814
4430   1 37.617770 42.659725 20.136387
8588   1 39.246149 43.831533 18.113247
12746  1 38.396558 41.489859 18.117381
21062  1 36.768676 43.831533 18.113247
371    1 35.984163 41.484413 22.156474
4529   1 37.666680 42.652247 24.179473
8687   1 39.311630 43.827255 22.157720
12845  1 38.461635 41.484413 22.156474
21161  1 36.834157 43.827255 22.157720
470    1 36.017736 41.476386 26.199634
4628   1 37.686723 42.644213 28.224778
8786   1 39.345254 43.819094 26.204088
12944  1 38.495209 41.476386 26.199634
21260  1 36.867781 43.819094 26.204088
569    1 36.025633 41.468745 30.244588
8885   1 39.350510 43.811682 30.250219
13043  1 38.503105 41.468745 30.244588
21359  1 36.873037 43.811682 30.250219
668    1 36.009196 41.460436 34.288223
4727   1 37.680479 42.636555 32.269360
8984   1 39.327556 43.803613 34.293166
13142  1 38.486668 41.460436 34.288223
21458  1 36.850084 43.803613 34.293166
767    1 35.966926 41.449597 38.328542
4826   1 37.647112 42.626824 36.310622
9083   1 39.274460 43.791288 38.331552
13241  1 38.444398 41.449597 38.328542
21557  1 36.796987 43.791288 38.331552
4925   1 37.585212 42.613769 40.347797
9182   1 39.192897 43.775943 42.366700
13340  1 38.375841 41.438545 42.364736
21656  1 36.715424 43.775943 42.366700
5024   1 37.498640 42.603164 44.381882
9281   1 39.092798 43.766422 46.401215
13439  1 38.283698 41.434391 46.396953
21755  1 36.615326 43.766422 46.401216
5123   1 37.392917 42.599518 48.415216
9380   1 38.977994 43.759686 50.437687
13538  1 38.165220 41.433012 50.428984
21854  1 36.500521 43.759685 50.437687
17597  1 39.870390 42.599518 48.415216
5222   1 37.262813 42.588273 52.451981
17696  1 39.740286 42.588274 52.451981
5321   1 37.106756 42.550512 56.490930
9479   1 38.842278 43.736603 54.476916
13637  1 38.008241 41.408346 54.466419
17795  1 39.584229 42.550512 56.490930
21953  1 36.364806 43.736603 54.476916
5420   1 36.974018 42.524944 60.530825
9578   1 38.704257 43.702594 58.515059
13736  1 37.839029 41.364325 58.505198
17894  1 39.451491 42.524944 60.530825
22052  1 36.226785 43.702594 58.515060
5519   1 36.887082 42.526185 64.578462
9677   1 38.603367 43.691969 62.556784
13835  1 37.720805 41.356057 62.551054
17993  1 39.364555 42.526185 64.578462
22151  1 36.125894 43.691968 62.556784
5618   1 36.837303 42.534133 68.631653
9776   1 38.540355 43.696610 66.605694
13934  1 37.648987 41.365231 66.604652
18092  1 39.314776 42.534133 68.631653
22250  1 36.062882 43.696610 66.605694
5717   1 36.819994 42.536915 72.685965
9875   1 38.509269 43.701634 70.658813
14033  1 37.614118 41.372359 70.659465
18191  1 39.297466 42.536915 72.685965
22349  1 36.031796 43.701633 70.658813
9974   1 38.508112 43.699960 74.712919
14132  1 37.611834 41.371247 74.713229
22448  1 36.030640 43.699960 74.712919
5816   1 36.833439 42.531394 76.740270
10073  1 38.536548 43.690914 78.766893
14231  1 37.640402 41.362158 78.767935
18290  1 39.310912 42.531394 76.740271
22547  1 36.059076 43.690914 78.766893
5915   1 36.877484 42.519737 80.795430
10172  1 38.595217 43.679462 82.820278
14330  1 37.701118 41.349320 82.825308
18389  1 39.354956 42.519737 80.795430
22646  1 36.117745 43.679462 82.820278
22745  1 36.209877 43.678096 86.871616
6014   1 36.953919 42.510048 84.850789
10271  1 38.687349 43.678096 86.871616
14429  1 37.798256 41.344304 86.882635
18488  1 39.431392 42.510048 84.850790
22844  1 36.343225 43.706801 90.918935
6113   1 37.068539 42.519472 88.902702
10370  1 38.820698 43.706801 90.918936
14528  1 37.941052 41.369785 90.933126
18587  1 39.546011 42.519472 88.902702
6212   1 37.228883 42.568623 92.948282
18686  1 39.706356 42.568624 92.948282
6311   1 37.380355 46.104630 10.010748
10469  1 39.135739 47.301972 12.025458
14627  1 38.264547 44.966674 12.040766
22943  1 36.658266 47.301972 12.025458
18785  1 39.857828 46.104630 10.010748
6410   1 37.529698 46.154502 14.056477
10568  1 39.264388 47.333198 16.074016
14726  1 38.391489 44.997215 16.086342
23042  1 36.786916 47.333197 16.074016
6509   1 37.634065 46.169342 18.105071
10667  1 39.348430 47.335905 20.127153
14825  1 38.475107 45.000153 20.133125
23141  1 36.870958 47.335905 20.127153
2450   1 36.046091 44.993080 24.181499
6608   1 37.698988 46.165601 22.156024
10766  1 39.395435 47.329164 24.181858
14924  1 38.523564 44.993080 24.181499
23240  1 36.917963 47.329164 24.181858
2549   1 36.063956 44.985578 28.229889
6707   1 37.730615 46.158112 26.207380
10865  1 39.409092 47.323342 28.234547
15023  1 38.541429 44.985578 28.229888
23339  1 36.931619 47.323342 28.234547
6806   1 37.731221 46.152235 30.256159
2648   1 36.052411 44.978938 32.275352
6905   1 37.700404 46.145598 34.299667
10964  1 39.390354 47.319189 32.282142
15122  1 38.529883 44.978938 32.275352
23438  1 36.912882 47.319190 32.282142
7004   1 37.635841 46.131891 38.337448
11063  1 39.337565 47.310433 36.323014
15221  1 38.487421 44.969201 36.315760
23537  1 36.860093 47.310433 36.323014
7103   1 37.540806 46.110696 42.372837
11162  1 39.249147 47.289938 40.359070
15320  1 38.412943 44.952757 40.351840
23636  1 36.771675 47.289938 40.359070
7202   1 37.432636 46.095408 46.409571
11261  1 39.138251 47.266446 44.395528
15419  1 38.315099 44.936262 44.387005
23735  1 36.660778 47.266446 44.395528
19676  1 39.910109 46.095408 46.409571
7301   1 37.319882 46.085960 50.447933
11360  1 39.025572 47.254150 48.433689
15518  1 38.206705 44.927479 48.423602
19775  1 39.797354 46.085960 50.447933
23834  1 36.548099 47.254150 48.433689
11459  1 38.911438 47.242576 52.472071
15617  1 38.086360 44.914571 52.462401
23933  1 36.433965 47.242575 52.472071
7400   1 37.198514 46.066892 54.486692
11558  1 38.796058 47.221304 56.509179
15716  1 37.954559 44.885416 56.500958
19874  1 39.675987 46.066892 54.486692
24032  1 36.318586 47.221303 56.509179
7499   1 37.081436 46.041450 58.523825
11657  1 38.699520 47.204420 60.546238
15815  1 37.842476 44.863979 60.539127
19973  1 39.558908 46.041450 58.523825
24131  1 36.222048 47.204419 60.546238
7598   1 36.994295 46.030921 62.563395
11756  1 38.633980 47.200503 64.588091
15914  1 37.767020 44.861745 64.582918
20072  1 39.471768 46.030921 62.563395
24230  1 36.156508 47.200503 64.588091
7697   1 36.939605 46.032207 66.609291
11855  1 38.596763 47.202284 68.635947
16013  1 37.723662 44.866300 68.632943
20171  1 39.417077 46.032207 66.609291
24329  1 36.119291 47.202284 68.635947
7796   1 36.913108 46.034825 70.660246
11954  1 38.584939 47.202228 72.687359
16112  1 37.709092 44.867649 72.686075
20270  1 39.390581 46.034825 70.660246
24428  1 36.107466 47.202228 72.687359
7895   1 36.913285 46.032500 74.712975
20369  1 39.390758 46.032500 74.712975
7994   1 36.940600 46.024083 78.764552
12053  1 38.598271 47.196857 76.738802
16211  1 37.722796 44.862028 76.739476
20468  1 39.418072 46.024083 78.764552
24527  1 36.120798 47.196856 76.738802
8093   1 36.996670 46.013932 82.813271
12152  1 38.638374 47.187232 80.787298
16310  1 37.765269 44.851243 80.791560
20567  1 39.474142 46.013932 82.813271
24626  1 36.160901 47.187232 80.787298
8192   1 37.085615 46.013689 86.859206
12251  1 38.708779 47.180250 84.831859
16409  1 37.838400 44.843554 84.841449
20666  1 39.563087 46.013689 86.859206
24725  1 36.231307 47.180250 84.831859
8291   1 37.215299 46.042104 90.903940
12350  1 38.816500 47.190931 88.874647
16508  1 37.947983 44.855306 88.888756
20765  1 39.692771 46.042104 90.903940
24824  1 36.339027 47.190931 88.874647
12449  1 38.968261 47.237605 92.918511
16607  1 38.099702 44.903729 92.933789
24923  1 36.490789 47.237604 92.918511
4243   1 37.538683 49.638432 12.009113
14638  1 38.430346 51.976142 11.992869
16717  1 40.016156 49.638432 12.009113
12658  1 38.408247 48.490169 14.041393
4342   1 37.675224 49.666662 16.060992
8500   1 39.300874 50.825144 14.026241
14737  1 38.582599 51.996176 16.050511
20974  1 36.823402 50.825144 14.026241
12757  1 38.515531 48.503196 18.095141
2362   1 36.195887 51.990576 20.117457
4441   1 37.761924 49.666328 20.120887
8599   1 39.415319 50.832247 18.086426
14836  1 38.673359 51.990576 20.117457
21073  1 36.937847 50.832247 18.086426
12856  1 38.580444 48.498605 22.152947
2461   1 36.237104 51.984498 24.181224
4540   1 37.806947 49.659674 24.181561
8698   1 39.480655 50.825621 22.150485
14935  1 38.714577 51.984498 24.181225
21172  1 37.003182 50.825621 22.150485
2560   1 36.236495 51.984985 28.239853
481    1 36.131141 48.492382 26.209746
12955  1 38.608614 48.492382 26.209746
4639   1 37.814406 49.656632 28.238321
8797   1 39.503670 50.821337 26.211103
15034  1 38.713967 51.984986 28.239853
21271  1 37.026198 50.821336 26.211102
580    1 36.124961 48.489475 30.261979
13054  1 38.602433 48.489475 30.261979
8896   1 39.488668 50.822601 30.266460
21370  1 37.011195 50.822601 30.266460
2659   1 36.197621 51.990068 32.293776
13153  1 38.561993 48.485777 34.307337
4738   1 37.786401 49.656527 32.288892
8995   1 39.436632 50.823555 34.314973
15133  1 38.675094 51.990068 32.293776
21469  1 36.959160 50.823555 34.314973
13252  1 38.484281 48.471268 38.345675
4837   1 37.721400 49.650259 36.331621
9094   1 39.342910 50.809654 38.355108
15232  1 38.595515 51.988435 36.340180
21568  1 36.865438 50.809654 38.355108
13351  1 38.372708 48.442962 42.381637
4936   1 37.615762 49.625550 40.368262
9193   1 39.208748 50.773022 42.391477
15331  1 38.467086 51.960077 40.378069
21667  1 36.731276 50.773021 42.391477
13450  1 38.253748 48.422491 46.419574
5035   1 37.487187 49.594325 44.405466
9292   1 39.074291 50.748706 46.429168
15430  1 38.312791 51.920460 44.415050
21766  1 36.596818 50.748706 46.429167
17509  1 39.964659 49.594325 44.405466
13549  1 38.140537 48.413098 50.457527
5134   1 37.367327 49.580824 48.443255
9391   1 38.958140 50.742137 50.464447
15529  1 38.182182 51.908792 48.450095
17608  1 39.844800 49.580825 48.443255
21865  1 36.480668 50.742137 50.464447
5233   1 37.256593 49.572856 52.479265
15628  1 38.073358 51.906020 52.482086
17707  1 39.734066 49.572856 52.479265
13648  1 38.028957 48.399320 54.494307
5332   1 37.153316 49.558638 56.514347
9490   1 38.853841 50.734164 54.498238
15727  1 37.980769 51.897641 56.515398
17806  1 39.630788 49.558639 56.514347
21964  1 36.376368 50.734163 54.498238
13747  1 37.927169 48.381127 58.530218
5431   1 37.069635 49.545930 60.550913
9589   1 38.764761 50.721807 58.533273
15826  1 37.909236 51.888205 60.552589
17905  1 39.547108 49.545930 60.550913
22063  1 36.287289 50.721807 58.533273
13846  1 37.851604 48.371803 62.568904
5530   1 37.013110 49.541377 64.592330
9688   1 38.699901 50.713917 62.572283
15925  1 37.861508 51.883532 64.594885
18004  1 39.490582 49.541377 64.592330
22162  1 36.222429 50.713917 62.572283
13945  1 37.804423 48.370912 66.613379
5629   1 36.981389 49.541227 68.639230
9787   1 38.659713 50.711741 66.616709
16024  1 37.834764 51.882225 68.641904
18103  1 39.458862 49.541227 68.639230
22261  1 36.182241 50.711741 66.616709
14044  1 37.782071 48.371593 70.662747
5728   1 36.971610 49.540230 72.689369
9886   1 38.640798 50.711163 70.665406
16123  1 37.826229 51.880827 72.691556
18202  1 39.449082 49.540230 72.689369
14143  1 37.782985 48.368920 74.713824
9985   1 38.641545 50.708568 74.715429
14242  1 37.808217 48.361549 78.762915
5827   1 36.983594 49.535513 76.739171
10084  1 38.663322 50.702644 78.763101
16222  1 37.835749 51.877090 76.740627
18301  1 39.461067 49.535513 76.739171
22558  1 36.185849 50.702644 78.763100
14341  1 37.861174 48.352430 82.807357
5926   1 37.020083 49.527352 80.784957
10183  1 38.711256 50.694830 82.804898
16321  1 37.866519 51.870854 80.785560
18400  1 39.497555 49.527352 80.784957
22657  1 36.233783 50.694830 82.804898
14440  1 37.948193 48.351064 86.847841
6025   1 37.087190 49.520316 84.824840
10282  1 38.795419 50.691197 86.840144
16420  1 37.927102 51.864261 84.822930
18499  1 39.564663 49.520316 84.824840
22756  1 36.317947 50.691197 86.840144
14539  1 38.079145 48.376056 90.889068
6124   1 37.195024 49.527025 88.862117
10381  1 38.931405 50.709372 90.875666
16519  1 38.033795 51.865279 88.853772
18598  1 39.672496 49.527025 88.862117
22855  1 36.453933 50.709372 90.875666
12559  1 38.251930 48.439385  9.994952
8401   1 39.126494 50.775233  9.978856
20875  1 36.649021 50.775232  9.978855
6223   1 37.355246 49.570352 92.903224
16618  1 38.211437 51.901914 92.889061
18697  1 39.832718 49.570352 92.903224
10480  1 39.341332 54.313953 11.979262
22954  1 36.863859 54.313953 11.979262
6421   1 37.735956 53.157524 14.014191
10579  1 39.517693 54.318272 16.048581
12669  1 38.684582 55.481333 14.013218
23053  1 37.040221 54.318272 16.048580
294    1 36.333806 55.470016 18.090003
6520   1 37.860706 53.154756 18.083346
10678  1 39.607270 54.308842 20.119535
12768  1 38.811278 55.470016 18.090003
23152  1 37.129797 54.308842 20.119535
393    1 36.383888 55.465004 22.151344
6619   1 37.923517 53.146904 22.150235
10777  1 39.639908 54.305076 24.180208
12867  1 38.861361 55.465004 22.151344
23251  1 37.162436 54.305076 24.180208
492    1 36.390359 55.465766 26.206121
6718   1 37.939010 53.145286 26.210334
10876  1 39.631135 54.308470 28.236937
12966  1 38.867831 55.465766 26.206121
23350  1 37.153663 54.308470 28.236937
591    1 36.359374 55.473598 30.261436
6817   1 37.914464 53.150858 30.267273
13065  1 38.836846 55.473599 30.261436
690    1 36.283053 55.486872 34.319978
6916   1 37.849450 53.157957 34.320409
10975  1 39.582089 54.318463 32.293730
13164  1 38.760525 55.486872 34.319978
23449  1 37.104617 54.318463 32.293730
7015   1 37.735629 53.147350 38.364386
11074  1 39.485797 54.324109 36.346536
13263  1 38.621354 55.484147 38.371758
23548  1 37.008325 54.324109 36.346536
7114   1 37.568350 53.100982 42.400882
11173  1 39.325515 54.294076 40.387252
13362  1 38.401225 55.426651 42.408259
23647  1 36.848043 54.294076 40.387252
19588  1 40.045823 53.100982 42.400883
7213   1 37.411442 53.075305 46.436176
11272  1 39.131593 54.245610 44.422372
13461  1 38.212007 55.404404 46.437401
19687  1 39.888915 53.075306 46.436176
23746  1 36.654121 54.245610 44.422372
7312   1 37.290787 53.074212 50.466319
11371  1 38.986797 54.239746 48.451339
13560  1 38.088788 55.410420 50.460429
19786  1 39.768259 53.074213 50.466319
23845  1 36.509325 54.239746 48.451339
11470  1 38.881265 54.242524 52.478657
23944  1 36.403793 54.242524 52.478657
7411   1 37.193906 53.071576 54.497122
11569  1 38.801086 54.238027 56.512048
13659  1 38.003518 55.411097 54.490622
19885  1 39.671379 53.071576 54.497123
24043  1 36.323614 54.238027 56.512048
7510   1 37.117580 53.063335 58.532648
11668  1 38.742483 54.230757 60.551523
13758  1 37.942054 55.405114 58.529063
19984  1 39.595053 53.063335 58.532648
24142  1 36.265011 54.230757 60.551522
7609   1 37.063578 53.056655 62.573318
11767  1 38.703696 54.226282 64.595692
13857  1 37.899448 55.399460 62.572447
20083  1 39.541050 53.056655 62.573318
7708   1 37.030177 53.053854 66.618742
11866  1 38.681577 54.224483 68.643540
13956  1 37.872737 55.396605 66.619420
20182  1 39.507650 53.053854 66.618743
7807   1 37.014092 53.052659 70.667578
11965  1 38.673624 54.223143 72.693344
14055  1 37.859040 55.395331 70.668836
20281  1 39.491565 53.052659 70.667578
7906   1 37.013779 53.050519 74.717345
14154  1 37.856958 55.393897 74.718858
20380  1 39.491251 53.050519 74.717345
8005   1 37.030634 53.046248 78.764817
12064  1 38.679629 54.220590 76.742532
14253  1 37.867536 55.391354 78.766974
20479  1 39.508106 53.046248 78.764818
8104   1 37.070046 53.040508 82.806736
12163  1 38.702628 54.216386 80.788001
14352  1 37.895520 55.387687 82.810225
20578  1 39.547519 53.040509 82.806736
8203   1 37.145843 53.035607 86.839283
12262  1 38.750592 54.211790 84.827008
14451  1 37.951734 55.384756 86.846877
20677  1 39.623315 53.035608 86.839284
24736  1 36.273119 54.211790 84.827007
8302   1 37.286346 53.043781 90.866238
12361  1 38.846625 54.208628 88.853951
14550  1 38.079556 55.383801 90.866028
20776  1 39.763818 53.043781 90.866238
24835  1 36.369153 54.208628 88.853951
6322   1 37.526417 53.112901  9.963397
12570  1 38.409689 55.452831  9.950203
12460  1 39.048415 54.232345 92.878191
24934  1 36.570942 54.232344 92.878191
18796  1 40.003890 53.112901  9.963397
2175   1 36.461558 58.946749 12.018693
4254   1 37.824341 56.644158 11.978194
14649  1 38.939030 58.946749 12.018693
2274   1 36.545838 58.940831 16.076313
4353   1 38.014717 56.629790 16.062369
8511   1 39.700088 57.787226 14.037659
14748  1 39.023310 58.940831 16.076314
20985  1 37.222615 57.787225 14.037659
2373   1 36.569712 58.941895 20.126011
4452   1 38.082592 56.624748 20.124477
8610   1 39.785264 57.783612 18.099669
14847  1 39.047184 58.941896 20.126011
21084  1 37.307792 57.783612 18.099669
2472   1 36.570953 58.943467 24.171971
4551   1 38.101264 56.624066 24.177344
8709   1 39.811138 57.783040 22.150936
14946  1 39.048426 58.943467 24.171971
21183  1 37.333666 57.783040 22.150936
2571   1 36.554698 58.947198 28.217031
4650   1 38.087055 56.628339 28.228508
8808   1 39.808341 57.785137 26.198735
15045  1 39.032170 58.947198 28.217031
21282  1 37.330868 57.785137 26.198735
8907   1 39.778062 57.791835 30.248295
21381  1 37.300589 57.791835 30.248294
2670   1 36.511957 58.955175 32.266203
4749   1 38.034560 56.639923 32.284724
9006   1 39.701927 57.806617 34.307757
15144  1 38.989430 58.955175 32.266203
21480  1 37.224455 57.806617 34.307757
2769   1 36.404416 58.972662 36.331271
4848   1 37.923062 56.654500 36.346659
9105   1 39.534850 57.817536 38.373470
15243  1 38.881889 58.972662 36.331271
21579  1 37.057378 57.817536 38.373470
4947   1 37.714924 56.627959 40.394391
9204   1 39.217727 57.749725 42.411151
15342  1 38.599939 58.960121 40.397264
21678  1 36.740254 57.749725 42.411151
17421  1 40.192396 56.627959 40.394391
5046   1 37.454693 56.571636 44.424413
9303   1 38.985338 57.739687 46.427471
15441  1 38.211089 58.903883 44.415680
21777  1 36.507866 57.739687 46.427471
17520  1 39.932165 56.571636 44.424413
5145   1 37.296191 56.575816 48.443034
9402   1 38.871787 57.750742 50.445407
15540  1 38.058908 58.918192 48.421785
17619  1 39.773663 56.575816 48.443034
21876  1 36.394315 57.750741 50.445406
5244   1 37.201440 56.581953 52.468385
15639  1 37.991660 58.921928 52.455399
17718  1 39.678912 56.581953 52.468385
5343   1 37.138276 56.578833 56.505628
9501   1 38.807028 57.751186 54.481072
15738  1 37.949594 58.919040 56.498716
17817  1 39.615749 56.578833 56.505629
21975  1 36.329555 57.751186 54.481071
5442   1 37.093760 56.573039 60.548685
9600   1 38.762685 57.746441 58.524146
15837  1 37.919760 58.914723 60.545325
17916  1 39.571232 56.573039 60.548685
5541   1 37.064027 56.569136 64.595110
9699   1 38.731793 57.741954 62.570457
15936  1 37.899003 58.911847 64.593650
18015  1 39.541499 56.569137 64.595110
5640   1 37.046270 56.567414 68.644003
9798   1 38.711629 57.739583 66.618936
16035  1 37.885390 58.910679 68.643326
18114  1 39.523743 56.567414 68.644003
5739   1 37.038436 56.566479 72.694192
9897   1 38.700012 57.738663 70.668923
16134  1 37.877396 58.910402 72.693702
18213  1 39.515908 56.566479 72.694192
9996   1 38.695709 57.738078 74.719215
5838   1 37.040132 56.565169 76.743842
10095  1 38.699035 57.737193 78.768025
16233  1 37.874332 58.910315 76.743521
18312  1 39.517604 56.565169 76.743842
5937   1 37.053456 56.563057 80.790549
10194  1 38.712740 57.735886 82.812980
16332  1 37.876703 58.910204 80.791012
18411  1 39.530928 56.563057 80.790549
6036   1 37.084857 56.560155 84.831328
10293  1 38.744583 57.733684 86.850281
16431  1 37.886990 58.910120 84.833456
18510  1 39.562330 56.560155 84.831328
6135   1 37.147299 56.559630 88.866740
10392  1 38.801553 57.737816 90.885098
16530  1 37.912124 58.908610 88.863192
18609  1 39.624772 56.559630 88.866740
8412   1 39.336875 57.784706  9.950025
20886  1 36.859402 57.784706  9.950025
6234   1 37.346639 56.565000 92.873931
16629  1 37.853403 58.923721 92.871906
18708  1 39.824111 56.565000 92.873931
10491  1 40.129309 61.243139 12.013499
22965  1 37.651837 61.243139 12.013499
107    1 36.891790 62.406607 14.027495
6432   1 38.295856 60.096832 14.052440
10590  1 40.045810 61.256100 16.070926
12581  1 39.369262 62.406607 14.027495
23064  1 37.568337 61.256099 16.070926
206    1 36.805296 62.416198 18.088433
6531   1 38.294851 60.099820 18.100610
10689  1 40.016386 61.260227 20.119875
12680  1 39.282769 62.416198 18.088433
23163  1 37.538914 61.260227 20.119875
305    1 36.769734 62.421554 22.137767
6630   1 38.289705 60.102212 22.146526
10788  1 39.999412 61.263538 24.164461
12779  1 39.247206 62.421554 22.137767
23262  1 37.521940 61.263538 24.164461
404    1 36.750671 62.425141 26.182008
6729   1 38.278187 60.104956 26.189942
10887  1 39.983627 61.266652 28.206748
12878  1 39.228143 62.425141 26.182008
23361  1 37.506155 61.266652 28.206747
503    1 36.738551 62.427709 30.224283
6828   1 38.255145 60.109301 30.233544
12977  1 39.216024 62.427709 30.224283
602    1 36.730104 62.429740 34.267716
6927   1 38.203745 60.117026 34.282534
10986  1 39.961280 61.270502 32.249620
13076  1 39.207577 62.429740 34.267717
23460  1 37.483807 61.270502 32.249619
701    1 36.727435 62.433103 38.312194
7026   1 38.040687 60.136253 38.354095
11085  1 39.910266 61.275509 36.297405
13175  1 39.204907 62.433103 38.312194
23559  1 37.432794 61.275508 36.297405
800    1 37.952056 62.431751 42.380355
7125   1 37.488983 60.073683 42.409573
11184  1 39.585850 61.264743 40.369522
23658  1 37.108377 61.264743 40.369522
19599  1 39.966456 60.073683 42.409573
899    1 37.944292 62.431331 46.379250
7224   1 37.238025 60.085624 46.397928
11283  1 38.876220 61.254793 44.376027
19698  1 39.715498 60.085624 46.397928
998    1 37.937196 62.430282 50.420990
7323   1 37.167334 60.091412 50.428844
11382  1 38.807020 61.260602 48.402327
19797  1 39.644807 60.091412 50.428844
11481  1 38.778841 61.260604 52.446123
7422   1 37.129994 60.090416 54.472522
11580  1 38.759512 61.258343 56.493801
13571  1 37.929541 62.428685 54.468305
19896  1 39.607467 60.090417 54.472522
7521   1 37.103812 60.086987 58.519698
11679  1 38.744362 61.255854 60.542515
13670  1 37.921613 62.426974 58.517027
19995  1 39.581284 60.086988 58.519699
7620   1 37.084586 60.084037 62.568149
11778  1 38.732400 61.254403 64.591779
13769  1 37.913874 62.425871 62.566114
20094  1 39.562058 60.084038 62.568149
7719   1 37.070787 60.082612 66.617570
11877  1 38.722777 61.254142 68.641637
13868  1 37.906308 62.425696 66.615589
20193  1 39.548260 60.082612 66.617570
7818   1 37.061056 60.082381 70.667745
11976  1 38.714502 61.254720 72.691706
13967  1 37.898389 62.426382 70.665365
20292  1 39.538528 60.082381 70.667745
7917   1 37.054315 60.082744 74.717883
14066  1 37.889201 62.427802 74.714725
20391  1 39.531787 60.082744 74.717883
8016   1 37.049937 60.083406 78.766632
12075  1 38.706555 61.255862 76.740966
14165  1 37.877188 62.429995 78.762314
20490  1 39.527409 60.083406 78.766632
8115   1 37.047687 60.084519 82.812045
12174  1 38.697605 61.257638 80.787839
14264  1 37.859139 62.433419 82.806085
20589  1 39.525160 60.084519 82.812045
1890   1 40.304709 62.439647 86.842403
8214   1 37.047507 60.086606 86.849943
12273  1 38.684963 61.260729 84.829728
14363  1 37.827236 62.439647 86.842403
20688  1 39.524979 60.086606 86.849943
1989   1 40.251387 62.442621 90.876472
8313   1 37.048937 60.090154 90.857087
12372  1 38.661451 61.267798 88.859007
14462  1 37.773914 62.442621 90.876472
20787  1 39.526410 60.090154 90.857087
8      1 37.249494 62.401228  9.940519
6333   1 38.294951 60.092531  9.982024
12482  1 39.726967 62.401228  9.940519
12471  1 38.723660 61.261263 92.867205
2088   1 40.771524  2.844216 11.957649
4167   1 42.287949  0.512802 11.964084
16640  1 39.810476  0.512802 11.964084
8423   1 38.953124  1.679647 13.994302
2187   1 40.600277  2.846073 16.024614
4266   1 42.100490  0.533911 16.046872
16739  1 39.623017  0.533911 16.046872
20898  1 41.430596  1.679647 13.994302
2286   1 40.508571  2.860014 20.092697
4365   1 42.028188  0.544031 20.106868
16838  1 39.550716  0.544031 20.106868
20997  1 41.304381  1.696569 18.068837
4464   1 41.995428  0.549658 24.156252
16937  1 39.517956  0.549658 24.156252
21096  1 41.246575  1.706145 22.127025
4563   1 41.981614  0.552646 28.201059
17036  1 39.504141  0.552646 28.201059
21195  1 41.222059  1.711047 26.176762
21294  1 41.221509  1.712096 30.223975
4662   1 41.983875  0.553350 32.245399
17135  1 39.506403  0.553350 32.245399
21393  1 41.255883  1.708713 34.275095
2682   1 40.570173  2.855038 36.321384
4761   1 42.020944  0.552548 36.293864
17234  1 39.543471  0.552548 36.293864
21492  1 41.404559  1.693909 38.347992
4860   1 42.324264  0.563275 40.366849
9116   1 39.457959  1.755785 42.404210
17333  1 39.846792  0.563275 40.366849
21591  1 41.935431  1.755785 42.404210
9215   1 39.696258  1.743311 46.394330
17432  1 40.541951  0.574723 44.373656
21690  1 42.173731  1.743311 46.394330
9314   1 39.752253  1.735568 50.425920
17531  1 40.597066  0.567542 48.400778
21789  1 42.229726  1.735568 50.425920
5157   1 40.610445  0.564891 52.444692
5256   1 40.614013  0.563656 56.492324
9414   1 42.251568  1.733389 54.469649
21888  1 39.774095  1.733389 54.469649
5355   1 40.613398  0.563186 60.540879
9513   1 42.261754  1.733384 58.516636
21987  1 39.784281  1.733384 58.516636
5454   1 40.610125  0.563358 64.589817
9612   1 42.265436  1.734164 62.564629
22086  1 39.787964  1.734164 62.564629
5553   1 40.604452  0.564192 68.639117
9711   1 42.264107  1.735321 66.613197
22185  1 39.786634  1.735321 66.613197
5652   1 40.595936  0.565766 72.688317
9810   1 42.258076  1.737023 70.661996
22284  1 39.780603  1.737023 70.661996
9909   1 42.246659  1.739599 74.710062
22383  1 39.769187  1.739599 74.710062
5751   1 40.583293  0.568216 76.736261
10008  1 42.227631  1.743386 78.755719
22482  1 39.750158  1.743386 78.755719
5850   1 40.563620  0.571853 80.781124
10107  1 42.195807  1.748817 82.796669
22581  1 39.718334  1.748817 82.796670
5949   1 40.530297  0.577482 84.820306
10206  1 42.140439  1.755312 86.831561
22680  1 39.662967  1.755312 86.831561
6048   1 40.470374  0.583290 88.854522
10305  1 42.018435  1.762760 90.849826
22779  1 39.540963  1.762760 90.849826
8324   1 39.220713  1.700933  9.933014
20799  1 41.698185  1.700932  9.933014
6147   1 40.278273  0.585566 92.861406
18621  1 42.755745  0.585566 92.861406
10403  1 39.207316  5.183195 11.964904
22878  1 41.684789  5.183195 11.964904
10502  1 39.062995  5.168707 16.020164
119    1 40.821732  6.337766 13.994692
6345   1 42.381847  4.004509 13.988057
18818  1 39.904374  4.004509 13.988058
22977  1 41.540468  5.168707 16.020164
218    1 40.713730  6.334048 18.052852
6444   1 42.260098  4.012033 18.054530
18917  1 39.782626  4.012033 18.054530
23076  1 41.450937  5.177534 20.084669
2385   1 40.465463  2.868236 24.149493
317    1 40.648970  6.342416 22.115556
6543   1 42.193052  4.023520 22.118399
19016  1 39.715579  4.023520 22.118399
23175  1 41.404827  5.186409 24.146249
2484   1 40.454487  2.871126 28.200888
416    1 40.622894  6.348008 26.176520
6642   1 42.166159  4.029435 26.175056
19115  1 39.688687  4.029435 26.175056
23274  1 41.396830  5.188756 28.204493
515    1 40.636497  6.345742 30.237505
6741   1 42.175013  4.028547 30.230386
19214  1 39.697540  4.028547 30.230386
2583   1 40.477829  2.868093 32.253945
614    1 40.697985  6.337111 34.300554
6840   1 42.234625  4.018476 34.293624
19313  1 39.757153  4.018475 34.293624
23373  1 41.431818  5.182372 32.265780
713    1 40.823360  6.343134 38.356206
6939   1 42.386983  4.011230 38.362221
10997  1 39.051175  5.172101 36.331445
19412  1 39.909510  4.011230 38.362221
23472  1 41.528648  5.172101 36.331445
2781   1 40.834723  2.868487 40.389556
812    1 41.028352  6.401588 42.396112
7038   1 42.687475  4.079176 42.402651
11096  1 39.243944  5.200163 40.382632
19511  1 40.210003  4.079176 42.402651
23571  1 41.721417  5.200163 40.382632
2880   1 41.208306  2.925349 44.409737
911    1 41.202778  6.424110 46.427592
11195  1 39.489109  5.257210 44.415204
19610  1 40.427764  4.089077 46.420663
23670  1 41.966582  5.257210 44.415204
2979   1 41.346085  2.909885 48.417078
1010   1 41.310479  6.416678 50.451843
11294  1 39.632687  5.252222 48.435352
19709  1 40.526150  4.076269 50.439555
23769  1 42.110160  5.252222 48.435352
15552  1 41.398028  2.903626 52.451116
11394  1 42.189050  5.243709 52.461345
23868  1 39.711577  5.243708 52.461345
15651  1 41.424011  2.903001 56.494339
7335   1 40.574891  4.072701 54.475402
11493  1 42.235503  5.243265 56.498530
13583  1 41.379006  6.412901 54.482368
23967  1 39.758030  5.243265 56.498530
15750  1 41.437868  2.904371 60.540506
7434   1 40.602818  4.073971 58.518166
11592  1 42.263617  5.246128 60.540953
13682  1 41.423350  6.415317 58.520469
24066  1 39.786144  5.246128 60.540953
15849  1 41.443334  2.906092 64.587899
7533   1 40.617969  4.076392 62.563634
11691  1 42.277964  5.249113 64.585957
13781  1 41.449900  6.419066 62.562744
24165  1 39.800492  5.249113 64.585957
15948  1 41.441731  2.908014 68.635977
7632   1 40.623033  4.078729 66.610515
11790  1 42.280710  5.251908 68.632425
13880  1 41.461606  6.422241 66.607560
24264  1 39.803238  5.251908 68.632425
16047  1 41.433212  2.910629 72.683914
7731   1 40.619152  4.081379 70.657970
11889  1 42.272669  5.255450 72.679067
13979  1 41.460334  6.425573 70.653670
24363  1 39.795196  5.255450 72.679067
7830   1 40.606018  4.085116 74.704609
14078  1 41.446319  6.430291 74.699274
16146  1 41.416434  2.914458 76.730180
7929   1 40.581198  4.090462 78.748376
11988  1 42.252745  5.260582 76.723943
14177  1 41.417432  6.436943 78.742058
24462  1 39.775273  5.260582 76.723944
16245  1 41.387612  2.919861 80.772613
8028   1 40.538889  4.097306 82.786987
12087  1 42.217089  5.267441 80.764722
14276  1 41.368093  6.444825 82.779675
24561  1 39.739616  5.267441 80.764722
16344  1 41.338649  2.926578 84.809143
8127   1 40.465443  4.104915 86.817249
12186  1 42.156979  5.275142 84.798903
14375  1 41.288328  6.449952 86.812211
24660  1 39.679506  5.275143 84.798903
16443  1 41.246810  2.934348 88.834541
8226   1 40.332981  4.102839 90.842992
12285  1 42.056576  5.277923 88.827920
14474  1 41.163181  6.437355 90.846545
24759  1 39.579103  5.277923 88.827920
20700  1 42.810454  4.102839 90.842992
16542  1 41.054368  2.918270 92.857904
20     1 40.983268  6.380488  9.949044
6246   1 42.581944  4.041927  9.939286
18719  1 40.104472  4.041927  9.939286
12384  1 41.890844  5.249046 92.862377
24858  1 39.413372  5.249046 92.862377
2099   1 40.989316  9.859046 11.990266
4178   1 42.580427  7.521876 11.976475
16651  1 40.102954  7.521876 11.976475
8434   1 39.244055  8.673171 14.006704
2198   1 40.877277  9.830783 16.038837
4277   1 42.455699  7.498188 16.026812
16750  1 39.978226  7.498188 16.026812
20909  1 41.721527  8.673171 14.006704
8533   1 39.147507  8.661559 18.060070
2297   1 40.803512  9.826622 20.093598
4376   1 42.374631  7.499684 20.085894
16849  1 39.897158  7.499685 20.085894
21008  1 41.624979  8.661559 18.060070
2396   1 40.763813  9.830548 24.151956
4475   1 42.331242  7.506395 24.147412
16948  1 39.853769  7.506395 24.147412
21107  1 41.566027  8.665223 22.119113
2495   1 40.757669  9.832293 28.211023
4574   1 42.325196  7.508079 28.208681
17047  1 39.847724  7.508079 28.208681
21206  1 41.542186  8.669422 26.179780
21305  1 41.555009  8.667995 30.240205
2594   1 40.786883  9.830603 32.267803
4673   1 42.360078  7.502824 32.270133
8929   1 39.130560  8.664879 34.297369
17146  1 39.882606  7.502823 32.270133
21404  1 41.608032  8.664879 34.297369
2693   1 40.855732  9.835487 36.317867
4772   1 42.443266  7.501102 36.327141
9028   1 39.232048  8.678514 38.345369
17245  1 39.965793  7.501102 36.327141
21503  1 41.709521  8.678514 38.345369
2792   1 40.971884  9.865995 40.359622
4871   1 42.589680  7.533124 40.371732
9127   1 39.385513  8.726378 42.385563
17344  1 40.112207  7.533124 40.371732
21602  1 41.862986  8.726378 42.385564
2891   1 41.112438  9.907050 44.400068
4970   1 42.769040  7.582651 44.410006
9226   1 39.527870  8.752824 46.423695
17443  1 40.291567  7.582651 44.410006
21701  1 42.005343  8.752824 46.423695
2990   1 41.228046  9.919069 48.437522
5069   1 42.898760  7.588235 48.440977
9325   1 39.632731  8.753000 50.455404
17542  1 40.421287  7.588235 48.440976
21800  1 42.110203  8.753001 50.455404
5168   1 40.510401  7.583297 52.469149
15563  1 41.319854  9.920022 52.470598
5267   1 40.572957  7.584106 56.502563
9425   1 42.189465  8.752556 54.486680
15662  1 41.393596  9.924471 56.504039
21899  1 39.711992  8.752556 54.486680
5366   1 40.614516  7.588444 60.541324
9524   1 42.247663  8.757036 58.521912
15761  1 41.447205  9.930926 60.540530
21998  1 39.770191  8.757036 58.521912
5465   1 40.637817  7.592334 64.583740
9623   1 42.285192  8.762020 62.561334
15860  1 41.479364  9.935438 64.580881
22097  1 39.807719  8.762020 62.561334
5564   1 40.645317  7.595598 68.628630
9722   1 42.303789  8.765581 66.604254
15959  1 41.492106  9.938611 68.624693
22196  1 39.826317  8.765581 66.604254
5663   1 40.638488  7.599741 72.674394
9821   1 42.305764  8.769123 70.649447
16058  1 41.487425  9.942810 72.670402
22295  1 39.828292  8.769123 70.649447
9920   1 42.291973  8.774413 74.694896
22394  1 39.814501  8.774413 74.694896
5762   1 40.616766  7.605877 76.718806
10019  1 42.260970  8.781924 78.738183
16157  1 41.465422  9.949443 76.715683
22493  1 39.783497  8.781924 78.738183
5861   1 40.576865  7.613765 80.759482
10118  1 42.208757  8.789661 82.777742
16256  1 41.424010  9.957572 80.758472
22592  1 39.731284  8.789661 82.777742
5960   1 40.512320  7.620463 84.795571
10217  1 42.128869  8.790793 86.815166
16355  1 41.358976  9.962263 84.798710
22691  1 39.651397  8.790794 86.815166
6059   1 40.413522  7.616362 88.830908
10316  1 42.012486  8.770551 90.855415
16454  1 41.263830  9.952411 88.839460
22790  1 39.535014  8.770551 90.855415
18533  1 42.890995  7.616361 88.830908
8335   1 39.382714  8.717066  9.961144
20810  1 41.860186  8.717066  9.961144
6158   1 40.269063  7.580896 92.871464
16553  1 41.133172  9.913643 92.883347
18632  1 42.746535  7.580896 92.871465
10414  1 39.391567 12.194793 12.005279
22889  1 41.869039 12.194793 12.005279
10513  1 39.286643 12.164845 16.053041
130    1 41.011855 13.343834 14.036437
6356   1 42.610007 11.008681 14.021154
18829  1 40.132534 11.008681 14.021154
22988  1 41.764116 12.164845 16.053041
10612  1 39.217215 12.157676 20.104098
229    1 40.926389 13.326429 18.084652
6455   1 42.520923 10.992665 18.071710
18928  1 40.043450 10.992665 18.071710
23087  1 41.694688 12.157676 20.104098
328    1 40.873872 13.325151 22.134780
6554   1 42.466451 10.992804 22.126495
19027  1 39.988978 10.992804 22.126495
23186  1 41.656906 12.159983 24.157659
427    1 40.850677 13.328368 26.186023
6653   1 42.443738 10.996027 26.183244
19126  1 39.966265 10.996026 26.183244
23285  1 41.649073 12.162522 28.211564
526    1 40.856078 13.331015 30.236087
6752   1 42.453063 10.996649 30.239012
19225  1 39.975590 10.996649 30.239012
10909  1 39.194599 12.164183 32.262578
625    1 40.891860 13.335931 34.281973
6851   1 42.496700 10.998462 34.290031
19324  1 40.019227 10.998461 34.290031
23384  1 41.672072 12.164184 32.262578
724    1 40.961899 13.352125 38.322664
6950   1 42.580161 11.014892 38.333635
11008  1 39.251820 12.172648 36.307660
19423  1 40.102689 11.014891 38.333635
23483  1 41.729293 12.172649 36.307660
823    1 41.062815 13.382172 42.362040
7049   1 42.701928 11.053300 42.373721
11107  1 39.347125 12.199305 40.347696
19522  1 40.224455 11.053300 42.373720
23582  1 41.824598 12.199305 40.347696
922    1 41.168523 13.404469 46.403434
7148   1 42.822369 11.078918 46.414577
11206  1 39.463044 12.232285 44.388485
19621  1 40.344897 11.078918 46.414577
23681  1 41.940516 12.232285 44.388485
1021   1 41.265548 13.414408 50.443707
7247   1 42.922519 11.085213 50.451760
11305  1 39.568144 12.246851 48.429063
19720  1 40.445046 11.085213 50.451760
23780  1 42.045617 12.246851 48.429064
11405  1 42.138635 12.253483 52.466425
23879  1 39.661162 12.253483 52.466425
7346   1 40.530625 11.090128 54.486178
11504  1 42.221370 12.263364 56.501771
13594  1 41.356914 13.425180 54.481317
19820  1 43.008098 11.090129 54.486178
23978  1 39.743897 12.263363 56.501771
7445   1 40.600174 11.098367 58.521022
11603  1 42.285917 12.272983 60.537713
13693  1 41.437142 13.438663 58.517191
24077  1 39.808445 12.272983 60.537713
7544   1 40.648029 11.104826 62.558736
11702  1 42.326802 12.277914 64.577052
13792  1 41.494994 13.446933 62.554533
24176  1 39.849329 12.277914 64.577052
7643   1 40.673742 11.108269 66.600466
11801  1 42.345348 12.280304 68.620673
13891  1 41.528123 13.449680 66.596137
24275  1 39.867875 12.280304 68.620673
7742   1 40.679739 11.111362 70.645548
11900  1 42.343870 12.283834 72.667372
13990  1 41.539026 13.451515 70.642118
24374  1 39.866397 12.283834 72.667372
7841   1 40.667414 11.116614 74.692014
14089  1 41.529393 13.455997 74.690753
7940   1 40.636209 11.124344 78.737561
11999  1 42.323046 12.290317 76.714942
14188  1 41.499288 13.463461 78.739855
24473  1 39.845574 12.290317 76.714942
8039   1 40.583707 11.131287 82.780960
12098  1 42.281881 12.298200 80.761440
14287  1 41.447346 13.469792 82.787922
24572  1 39.804408 12.298200 80.761440
8138   1 40.505380 11.128923 86.823368
12197  1 42.217582 12.301184 84.806444
14386  1 41.370018 13.465471 86.834806
24671  1 39.740110 12.301184 84.806444
20612  1 42.982852 11.128923 86.823368
8237   1 40.395141 11.103884 90.867370
12296  1 42.125025 12.287639 88.851313
14485  1 41.262368 13.437837 90.881237
24770  1 39.647553 12.287639 88.851313
20711  1 42.872613 11.103883 90.867370
31     1 41.131357 13.386790  9.989791
6257   1 42.735454 11.052352  9.974944
18730  1 40.257981 11.052352  9.974944
12395  1 42.001631 12.247010 92.897076
24869  1 39.524159 12.247010 92.897076
8346   1 39.524770 15.720653 10.004947
2110   1 41.132333 16.863292 12.035563
4189   1 42.742711 14.529435 12.020659
16662  1 40.265239 14.529435 12.020659
20821  1 42.002243 15.720653 10.004947
8445   1 39.404869 15.678770 14.051349
2209   1 41.027720 16.836296 16.080419
4288   1 42.640102 14.499948 16.067408
16761  1 40.162630 14.499948 16.067408
20920  1 41.882342 15.678770 14.051348
8544   1 39.319652 15.662660 18.096752
2308   1 40.958807 16.830852 20.123258
4387   1 42.572055 14.492463 20.114626
16860  1 40.094582 14.492464 20.114626
18939  1 40.177994 18.001597 18.106331
21019  1 41.797124 15.662660 18.096752
8643   1 39.266975 15.661998 22.141931
2407   1 40.920012 16.834065 24.166217
4486   1 42.534270 14.494670 24.162781
16959  1 40.056797 14.494670 24.162781
19038  1 40.124194 18.002982 22.146541
21118  1 41.744448 15.661998 22.141930
2506   1 40.907699 16.838634 28.209756
4585   1 42.524115 14.498292 28.211019
17058  1 40.046642 14.498292 28.211019
21217  1 41.719871 15.665918 26.187688
21316  1 41.721793 15.670036 30.232789
8940   1 39.273892 15.676337 34.274959
2605   1 40.921166 16.843683 32.252079
4684   1 42.541798 14.502223 32.256922
17157  1 40.064326 14.502223 32.256922
21415  1 41.751364 15.676338 34.274959
9039   1 39.333761 15.690569 38.313600
2704   1 40.962247 16.852862 36.291417
4783   1 42.590015 14.511841 36.298460
17256  1 40.112543 14.511841 36.298460
21514  1 41.811233 15.690569 38.313600
2803   1 41.031767 16.869610 40.328636
4882   1 42.670511 14.533671 40.336997
9138   1 39.420402 15.713057 42.351743
17355  1 40.193038 14.533671 40.336997
21613  1 41.897875 15.713057 42.351743
2902   1 41.120494 16.887706 44.367011
4981   1 42.770201 14.559035 44.376991
9237   1 39.516431 15.730574 46.392222
17454  1 40.292728 14.559035 44.376991
21712  1 41.993904 15.730575 46.392222
3001   1 41.215154 16.899208 48.407598
5080   1 42.868500 14.573204 48.418436
9336   1 39.612787 15.741661 50.433583
17553  1 40.391027 14.573204 48.418436
21811  1 42.090260 15.741661 50.433583
5179   1 40.486526 14.584166 52.458577
15574  1 41.315564 16.912686 52.448927
17653  1 42.963999 14.584166 52.458577
5278   1 40.578855 14.600470 56.496140
9436   1 42.189228 15.757909 54.473522
15673  1 41.420327 16.935977 56.488247
17752  1 43.056328 14.600470 56.496140
21910  1 39.711755 15.757909 54.473522
5377   1 40.654515 14.614125 60.532648
9535   1 42.281623 15.777733 58.510806
15772  1 41.508849 16.954145 60.525806
22009  1 39.804150 15.777733 58.510806
5476   1 40.704287 14.619160 64.572181
9634   1 42.350010 15.787848 62.548814
15871  1 41.568250 16.958587 64.566669
22108  1 39.872537 15.787848 62.548814
5575   1 40.729327 14.619950 68.616692
9733   1 42.391113 15.789134 66.591478
15970  1 41.600631 16.956839 68.613143
22207  1 39.913641 15.789134 66.591478
5674   1 40.732144 14.621982 72.665366
9832   1 42.407885 15.788821 70.639318
16069  1 41.608760 16.956585 72.664352
22306  1 39.930413 15.788821 70.639318
9931   1 42.402009 15.791821 74.690814
22405  1 39.924537 15.791821 74.690814
5773   1 40.713613 14.627728 76.716199
10030  1 42.373649 15.798791 78.743994
16168  1 41.593293 16.961142 76.718583
22504  1 39.896176 15.798791 78.743994
5872   1 40.673338 14.635375 80.767192
10129  1 42.321972 15.805281 82.796960
16267  1 41.553874 16.968869 80.774102
22603  1 39.844500 15.805282 82.796960
5971   1 40.609367 14.637815 84.816994
10228  1 42.244023 15.801049 86.847995
16366  1 41.488984 16.972371 84.828691
22702  1 39.766550 15.801049 86.847995
18445  1 43.086839 14.637815 84.816994
6070   1 40.517176 14.622833 88.865120
10327  1 42.135017 15.772678 90.896155
16465  1 41.394348 16.958378 88.879837
22801  1 39.657544 15.772679 90.896155
18544  1 42.994649 14.622832 88.865120
6169   1 40.395065 14.580915 92.911871
16564  1 41.267397 16.915461 92.926988
18643  1 42.872537 14.580915 92.911870
10425  1 39.513735 19.196664 12.049121
6268   1 42.869625 18.054058 10.019662
18741  1 40.392152 18.054058 10.019662
42     1 41.254220 20.386937 10.033193
4200   1 42.838258 21.530049 12.060200
16673  1 40.360785 21.530050 12.060200
22900  1 41.991207 19.196664 12.049121
10524  1 39.403245 19.174521 16.090590
6367   1 42.743100 18.013933 14.064785
18840  1 40.265627 18.013933 14.064785
141    1 41.114297 20.350130 14.075417
4299   1 42.719027 21.515730 16.095972
16772  1 40.241554 21.515730 16.095972
22999  1 41.880717 19.174521 16.090590
6466   1 42.655467 18.001597 18.106331
240    1 41.022878 20.343778 18.111694
4398   1 42.647871 21.518447 20.128945
16871  1 40.170398 21.518447 20.128945
23098  1 41.809965 19.172861 20.128457
6565   1 42.601667 18.002982 22.146541
339    1 40.968853 20.347629 22.147617
4497   1 42.610260 21.523690 24.165612
16970  1 40.132788 21.523690 24.165613
23197  1 41.770592 19.177405 24.167222
6664   1 42.575869 18.007761 26.187904
19137  1 40.098397 18.007761 26.187904
438    1 40.943289 20.352782 26.186553
4596   1 42.597220 21.528347 28.205699
17069  1 40.119748 21.528347 28.205699
23296  1 41.757098 19.182392 28.207916
6763   1 42.575175 18.012598 30.229748
19236  1 40.097703 18.012597 30.229748
537    1 40.941116 20.357551 30.227233
6862   1 42.599734 18.019038 34.269905
19335  1 40.122261 18.019037 34.269905
636    1 40.961338 20.363354 34.267198
4695   1 42.605014 21.533010 32.246642
17168  1 40.127542 21.533009 32.246642
23395  1 41.767327 19.187603 32.248604
6961   1 42.651386 18.030529 38.307431
19434  1 40.173913 18.030528 38.307431
735    1 41.005456 20.372043 38.304914
4794   1 42.634008 21.539327 36.286247
17267  1 40.156535 21.539327 36.286247
23494  1 41.802258 19.195504 36.287258
11118  1 39.385303 19.207474 40.323759
7060   1 42.727628 18.046193 42.344140
19533  1 40.250155 18.046193 42.344140
834    1 41.072878 20.381867 42.340647
4893   1 42.685735 21.547329 40.323313
17366  1 40.208263 21.547329 40.323313
23593  1 41.862776 19.207474 40.323759
7159   1 42.817446 18.057990 46.382546
19632  1 40.339973 18.057990 46.382546
933    1 41.158295 20.387509 46.376136
4992   1 42.759048 21.552714 44.357914
11217  1 39.466032 19.218750 44.360067
17465  1 40.281576 21.552714 44.357914
23692  1 41.943504 19.218750 44.360067
7258   1 42.915704 18.067799 50.423177
19731  1 40.438231 18.067799 50.423177
1032   1 41.260802 20.393573 50.414054
5091   1 42.852440 21.553838 48.392132
11316  1 39.559481 19.225739 48.398211
17564  1 40.374968 21.553838 48.392133
23791  1 42.036954 19.225739 48.398210
5190   1 40.494799 21.565085 52.430211
11416  1 42.145327 19.239528 52.439022
17664  1 42.972272 21.565085 52.430211
23890  1 39.667854 19.239528 52.439022
7357   1 40.548147 18.088679 54.464300
19831  1 43.025620 18.088679 54.464299
5289   1 40.642501 21.604009 56.470429
11515  1 42.267531 19.270317 56.479315
13605  1 41.386493 20.417749 54.454954
17763  1 43.119973 21.604009 56.470428
23989  1 39.790058 19.270317 56.479316
7456   1 40.656321 18.115772 58.502787
19930  1 43.133793 18.115772 58.502787
5388   1 40.769004 21.630603 60.510892
11614  1 42.372320 19.293017 60.518127
13704  1 41.516614 20.453168 58.494212
17862  1 43.246477 21.630602 60.510891
24088  1 39.894847 19.293017 60.518128
7555   1 40.736822 18.127189 62.542255
5487   1 40.852187 21.629328 64.558469
11713  1 42.442710 19.295588 64.561518
13803  1 41.611862 20.464507 62.536090
24187  1 39.965237 19.295589 64.561518
7654   1 40.786794 18.125959 66.587181
5586   1 40.901206 21.619999 68.611477
11812  1 42.483279 19.290353 68.610911
13902  1 41.671749 20.459445 66.584602
24286  1 40.005807 19.290353 68.610911
7753   1 40.810346 18.122672 70.637544
5685   1 40.921088 21.614347 72.666246
11911  1 42.497421 19.287307 72.664483
14001  1 41.702505 20.452740 70.637632
24385  1 40.019949 19.287307 72.664483
7852   1 40.809065 18.123636 74.691737
14100  1 41.706217 20.451485 74.693202
7951   1 40.782806 18.129997 78.748493
5784   1 40.913400 21.615758 76.722675
12010  1 42.485622 19.290352 76.721042
14199  1 41.682665 20.456986 78.751640
24484  1 40.008149 19.290352 76.721042
8050   1 40.730660 18.137593 82.806166
5883   1 40.876882 21.623596 80.782990
12109  1 42.447068 19.298370 80.780152
14298  1 41.629927 20.466168 82.813123
24583  1 39.969595 19.298370 80.780152
20524  1 43.208132 18.137593 82.806166
8149   1 40.649944 18.135776 86.861539
5982   1 40.807246 21.633243 84.847028
12208  1 42.379892 19.304539 84.839605
14397  1 41.544322 20.469113 86.873677
24682  1 39.902420 19.304540 84.839605
20623  1 43.127416 18.135775 86.861539
18456  1 43.284719 21.633243 84.847028
8248   1 40.535153 18.108681 90.911358
6081   1 40.697656 21.630174 88.907441
12307  1 42.279538 19.294339 88.894415
14496  1 41.418464 20.446119 90.926112
24781  1 39.802065 19.294339 88.894415
20722  1 43.012626 18.108681 90.911358
18555  1 43.175129 21.630174 88.907441
6180   1 40.537237 21.587715 92.955577
12406  1 42.140638 19.250911 92.941748
24880  1 39.663165 19.250911 92.941748
18654  1 43.014710 21.587715 92.955577
8357   1 39.629609 22.719025 10.044645
2121   1 41.187875 23.864913 12.066600
6279   1 42.940196 25.050132 10.052159
18752  1 40.462724 25.050132 10.052159
20832  1 42.107081 22.719025 10.044645
8456   1 39.468566 22.688920 14.081034
2220   1 41.061195 23.861353 16.093897
6378   1 42.752280 25.033013 14.077663
18851  1 40.274808 25.033013 14.077663
20931  1 41.946038 22.688920 14.081034
2319   1 40.995666 23.866971 20.124551
6477   1 42.667036 25.039208 18.104027
18950  1 40.189564 25.039208 18.104027
21030  1 41.852693 22.689762 18.111058
2418   1 40.963816 23.871673 24.162180
6576   1 42.626634 25.044021 22.140234
19049  1 40.149162 25.044021 22.140234
21129  1 41.802193 22.695100 22.145000
2517   1 40.952972 23.875398 28.203468
6675   1 42.609064 25.047611 26.181031
19148  1 40.131591 25.047611 26.181031
21228  1 41.779388 22.699755 26.184006
6774   1 42.607391 25.050461 30.224333
19247  1 40.129918 25.050460 30.224333
21327  1 41.776919 22.703806 30.225384
2616   1 40.958994 23.878996 32.246085
6873   1 42.619747 25.053727 34.268089
19346  1 40.142275 25.053727 34.268090
21426  1 41.793123 22.708505 34.266753
2715   1 40.981843 23.883635 36.288004
6972   1 42.647289 25.057850 38.310686
19445  1 40.169816 25.057850 38.310686
21525  1 41.829346 22.714747 38.306257
2814   1 41.023576 23.888732 40.327498
7071   1 42.692995 25.060595 42.350026
19544  1 40.215522 25.060595 42.350026
21624  1 41.887231 22.720178 42.342523
2913   1 41.087163 23.889994 44.362306
7170   1 42.763723 25.056880 46.382216
9248   1 39.490129 22.720135 46.375171
19643  1 40.286251 25.056880 46.382216
21723  1 41.967602 22.720135 46.375171
3012   1 41.178808 23.885050 48.392000
7269   1 42.875293 25.049165 50.408069
9347   1 39.598250 22.720035 50.408035
19742  1 40.397820 25.049165 50.408069
21822  1 42.075722 22.720035 50.408035
15585  1 41.313391 23.889977 52.424059
7368   1 40.578572 25.070598 54.440497
9447   1 42.224065 22.745146 54.446597
15684  1 41.500355 23.937588 56.462498
19842  1 43.056044 25.070598 54.440497
21921  1 39.746592 22.745146 54.446597
7467   1 40.792747 25.126837 58.480177
9546   1 42.386515 22.790262 58.486189
15783  1 41.657334 23.966095 60.505980
22020  1 39.909042 22.790262 58.486189
19941  1 43.270219 25.126837 58.480177
7566   1 40.929836 25.128268 62.534115
9645   1 42.500267 22.798883 62.532274
15882  1 41.754890 23.958456 64.560231
22119  1 40.022795 22.798883 62.532274
7665   1 41.008237 25.113145 66.593309
9744   1 42.570563 22.788760 66.585833
15981  1 41.810492 23.945591 68.616559
22218  1 40.093090 22.788760 66.585833
7764   1 41.046769 25.102802 70.647302
9843   1 42.607411 22.779147 70.640725
16080  1 41.833795 23.938654 72.670079
22317  1 40.129939 22.779148 70.640725
7863   1 41.057080 25.099311 74.697840
9942   1 42.615457 22.776193 74.695203
22416  1 40.137985 22.776194 74.695203
7962   1 41.043373 25.101594 78.750007
10041  1 42.595977 22.780293 78.752062
16179  1 41.830222 23.938671 76.723300
22515  1 40.118505 22.780293 78.752062
8061   1 41.000577 25.109346 82.808929
10140  1 42.544995 22.790113 82.814788
16278  1 41.799049 23.944927 80.780894
22614  1 40.067522 22.790114 82.814788
8160   1 40.910419 25.122785 86.879651
10239  1 42.453935 22.799350 86.881531
16377  1 41.731014 23.956489 84.846963
22713  1 39.976463 22.799351 86.881531
8259   1 40.741870 25.124154 90.949488
10338  1 42.310322 22.785030 90.939525
16476  1 41.610124 23.963827 88.916136
22812  1 39.832849 22.785030 90.939525
20733  1 43.219343 25.124153 90.949488
16575  1 41.412677 23.926584 92.967882
53     1 41.235160 27.383180 10.052468
4211   1 42.693514 28.559705 12.041231
16684  1 40.216042 28.559705 12.041231
22911  1 41.976032 26.205467 12.063358
152    1 41.047005 27.384731 14.061617
4310   1 42.645466 28.562005 16.076181
16783  1 40.167993 28.562005 16.076181
23010  1 41.859597 26.211726 16.083117
251    1 40.993024 27.389405 18.096481
4409   1 42.619867 28.567031 20.112581
16882  1 40.142395 28.567031 20.112581
23109  1 41.811298 26.216669 20.118230
350    1 40.967212 27.393502 22.135280
4508   1 42.609595 28.568985 24.155396
16981  1 40.132122 28.568984 24.155396
23208  1 41.788611 26.220342 24.158232
449    1 40.957129 27.395567 26.178663
4607   1 42.607506 28.569744 28.201151
17080  1 40.130033 28.569744 28.201152
23307  1 41.781558 26.222695 28.201758
548    1 40.957104 27.396919 30.224233
647    1 40.965760 27.398477 34.270533
4706   1 42.611426 28.570255 32.248216
17179  1 40.133954 28.570255 32.248216
23406  1 41.786342 26.224868 32.246695
746    1 40.984020 27.400498 38.316582
4805   1 42.621421 28.571038 36.295757
17278  1 40.143949 28.571038 36.295757
23505  1 41.802810 26.227692 36.291566
845    1 41.014794 27.401524 42.360794
4904   1 42.639031 28.571801 40.343072
17377  1 40.161559 28.571801 40.343072
23604  1 41.832984 26.230593 40.334944
944    1 41.066631 27.397666 46.398548
5003   1 42.668420 28.570718 44.388121
17476  1 40.190948 28.570718 44.388121
23703  1 41.881757 26.230127 44.373755
1043   1 41.169204 27.384543 50.419381
5102   1 42.724102 28.564014 48.424224
17575  1 40.246629 28.564014 48.424224
23802  1 41.963889 26.221404 48.401603
5201   1 40.389363 28.548264 52.433501
11427  1 42.112597 26.215961 52.423349
17675  1 42.866835 28.548264 52.433501
23901  1 39.635124 26.215961 52.423349
5300   1 40.769989 28.604085 56.455121
11526  1 42.365338 26.271449 56.456677
13616  1 41.393238 27.393709 54.438954
24000  1 39.887865 26.271450 56.456677
17774  1 43.247462 28.604084 56.455121
5399   1 41.043939 28.615807 60.523223
11625  1 42.568232 26.296777 60.507100
13715  1 41.702614 27.460395 58.479673
24099  1 40.090759 26.296777 60.507100
5498   1 41.147590 28.598165 64.589310
11724  1 42.678335 26.281187 64.570392
13814  1 41.865296 27.449041 62.547195
24198  1 40.200862 26.281187 64.570392
5597   1 41.188453 28.589644 68.638183
11823  1 42.733286 26.267987 68.626500
13913  1 41.940236 27.433418 66.607255
24297  1 40.255813 26.267987 68.626500
5696   1 41.205109 28.585362 72.681488
11922  1 42.755460 26.261832 72.675572
14012  1 41.972555 27.425537 70.655912
24396  1 40.277988 26.261832 72.675572
14111  1 41.982663 27.422437 74.701023
5795   1 41.208207 28.583885 76.724317
12021  1 42.755511 26.260926 76.723534
14210  1 41.976047 27.422949 78.747384
24495  1 40.278038 26.260926 76.723534
5894   1 41.199035 28.584812 80.769940
12120  1 42.733784 26.264513 80.775208
14309  1 41.948899 27.426934 82.798928
24594  1 40.256311 26.264513 80.775208
5993   1 41.170312 28.588354 84.821267
12219  1 42.678984 26.273172 84.835939
14408  1 41.881042 27.435885 86.861480
24693  1 40.201511 26.273172 84.835939
6092   1 41.088744 28.596589 88.884658
12318  1 42.555964 26.289172 88.913137
14507  1 41.698209 27.455701 90.946776
24792  1 40.078492 26.289172 88.913137
6191   1 40.738732 28.602240 92.974095
12417  1 42.293104 26.267977 92.977356
24891  1 39.815632 26.267977 92.977357
18665  1 43.216205 28.602239 92.974095
2132   1 40.935033 30.913092 12.065387
6290   1 42.601744 32.079654 10.052128
14606  1 43.412505 30.913092 12.065386
18763  1 40.124272 32.079654 10.052128
20843  1 41.738036 29.741527 10.052649
2231   1 40.942129 30.916224 16.072978
6389   1 42.549475 32.095066 14.061883
14705  1 43.419601 30.916224 16.072978
18862  1 40.072003 32.095066 14.061883
20942  1 41.805803 29.734785 14.061393
2330   1 40.947401 30.917467 20.110710
6488   1 42.579572 32.093084 18.091684
14804  1 43.424873 30.917467 20.110710
18961  1 40.102099 32.093084 18.091684
21041  1 41.787848 29.741025 18.091085
2429   1 40.951531 30.917332 24.155066
6587   1 42.595106 32.092114 22.133410
14903  1 43.429004 30.917332 24.155066
19060  1 40.117633 32.092114 22.133410
21140  1 41.781618 29.742915 22.132455
2528   1 40.955006 30.916410 28.202088
6686   1 42.603657 32.090585 26.179384
15002  1 43.432479 30.916410 28.202087
19159  1 40.126184 32.090585 26.179384
21239  1 41.780572 29.743231 26.177911
6785   1 42.608136 32.088569 30.227342
19258  1 40.130664 32.088569 30.227342
21338  1 41.782712 29.742940 30.225219
2627   1 40.958254 30.915118 32.250431
6884   1 42.609657 32.086140 34.276365
15101  1 43.435726 30.915118 32.250431
19357  1 40.132185 32.086140 34.276365
21437  1 41.787787 29.742568 34.273442
2726   1 40.961763 30.913645 36.299591
6983   1 42.608742 32.083311 38.326183
15200  1 43.439235 30.913645 36.299591
19456  1 40.131269 32.083311 38.326183
21536  1 41.796515 29.742263 38.322175
2825   1 40.966411 30.911986 40.349380
7082   1 42.606058 32.080371 42.376551
15299  1 43.443884 30.911986 40.349380
19555  1 40.128586 32.080371 42.376551
21635  1 41.810836 29.741498 42.370760
2924   1 40.974276 30.909911 44.398962
7181   1 42.602662 32.077948 46.426069
15398  1 43.451749 30.909911 44.398962
19654  1 40.125189 32.077948 46.426069
21734  1 41.836447 29.738730 46.416583
3023   1 40.991610 30.906646 48.445117
7280   1 42.599583 32.076373 50.470094
15497  1 43.469082 30.906646 48.445117
19753  1 40.122110 32.076374 50.470094
21833  1 41.896717 29.730533 50.450241
15596  1 41.051330 30.899087 52.474183
19852  1 40.120045 32.075984 54.470905
7379   1 42.597517 32.075984 54.470905
9458   1 42.140615 29.717673 54.442311
15695  1 41.750938 30.910446 56.483247
21932  1 39.663142 29.717673 54.442311
7478   1 41.356225 32.076517 58.541977
9557   1 42.680418 29.779709 58.499594
15794  1 42.064804 30.919954 60.557395
22031  1 40.202945 29.779709 58.499593
3419   1 39.632487 30.915712 64.605433
7577   1 41.354791 32.075692 62.587096
9656   1 42.837124 29.760984 62.572675
15893  1 42.109959 30.915712 64.605433
22130  1 40.359651 29.760984 62.572675
3518   1 39.648631 30.912357 68.647046
7676   1 41.355625 32.074784 66.629458
9755   1 42.884067 29.753334 66.621689
15992  1 42.126104 30.912357 68.647046
22229  1 40.406594 29.753334 66.621689
3617   1 39.657072 30.909835 72.686403
7775   1 41.358366 32.073304 70.668757
9854   1 42.903384 29.748926 70.663872
16091  1 42.134544 30.909835 72.686403
22328  1 40.425912 29.748926 70.663872
7874   1 41.363621 32.071231 74.707770
9953   1 42.911501 29.746442 74.704465
22427  1 40.434029 29.746442 74.704465
3716   1 39.662798 30.907845 76.726355
7973   1 41.372710 32.068778 78.748787
10052  1 42.912678 29.745449 78.746502
16190  1 42.140270 30.907845 76.726355
22526  1 40.435205 29.745449 78.746502
3815   1 39.667697 30.906493 80.768947
8072   1 41.388873 32.066341 82.793680
10151  1 42.906292 29.746025 82.792087
16289  1 42.145169 30.906493 80.768947
22625  1 40.428820 29.746025 82.792087
3914   1 39.672768 30.906120 84.815542
8171   1 41.421912 32.064569 86.843897
10250  1 42.883923 29.748205 86.842757
16388  1 42.150240 30.906120 84.815542
22724  1 40.406450 29.748205 86.842757
4013   1 39.678109 30.906768 88.865266
8270   1 41.510839 32.056322 90.902226
10349  1 42.804243 29.758957 90.902892
16487  1 42.155581 30.906768 88.865266
22823  1 40.326770 29.758957 90.902892
4112   1 39.684594 30.910624 92.937453
16586  1 42.162066 30.910624 92.937453
22922  1 41.654593 33.266320 12.041912
64     1 40.626785 34.439274 10.054683
4222   1 42.371346 35.621145 12.065508
12538  1 43.104258 34.439274 10.054683
16695  1 39.893874 35.621145 12.065508
20854  1 41.397676 36.772939 10.055410
23021  1 41.716447 33.270485 16.077183
163    1 40.831078 34.445169 14.062854
4321   1 42.503013 35.620819 16.085095
12637  1 43.308551 34.445169 14.062854
16794  1 40.025540 35.620819 16.085095
20953  1 41.603481 36.797292 14.080148
23120  1 41.752753 33.267821 20.114092
262    1 40.897501 34.444661 18.098295
4420   1 42.562396 35.617933 20.121278
12736  1 43.374973 34.444661 18.098295
16893  1 40.084924 35.617933 20.121278
21052  1 41.702222 36.794751 18.107087
23219  1 41.771362 33.265484 24.157788
361    1 40.932828 34.441243 22.138152
4519   1 42.593625 35.613544 24.163014
12835  1 43.410300 34.441243 22.138152
16992  1 40.116152 35.613544 24.163014
21151  1 41.752499 36.790154 22.145041
23318  1 41.780428 33.262800 28.204707
460    1 40.950510 34.437771 26.183068
4618   1 42.607716 35.609034 28.208801
12934  1 43.427982 34.437771 26.183068
17091  1 40.130243 35.609034 28.208801
21250  1 41.777828 36.784784 26.188332
559    1 40.957156 34.433982 30.230534
13033  1 43.434629 34.433982 30.230534
21349  1 41.786062 36.779289 30.234615
23417  1 41.782982 33.259645 32.253186
658    1 40.954974 34.429520 34.279104
4717   1 42.609295 35.604078 32.256396
13132  1 43.432446 34.429520 34.279104
17190  1 40.131823 35.604078 32.256397
21448  1 41.779801 36.773016 34.281735
23516  1 41.779914 33.255847 36.302505
757    1 40.944198 34.424202 38.328110
4816   1 42.599377 35.598111 36.304442
13231  1 43.421671 34.424202 38.328110
17289  1 40.121905 35.598111 36.304442
21547  1 41.758802 36.765508 38.328314
23615  1 41.771379 33.251614 40.352405
856    1 40.924216 34.419102 42.376864
4915   1 42.577352 35.591505 40.352062
13330  1 43.401689 34.419102 42.376864
17388  1 40.099879 35.591505 40.352062
21646  1 41.721454 36.758663 42.372786
23714  1 41.757073 33.248175 44.402060
955    1 40.891508 34.417076 46.422781
5014   1 42.540900 35.587119 44.397282
13429  1 43.368981 34.417076 46.422781
17487  1 40.063428 35.587118 44.397282
21745  1 41.661599 36.757872 46.410632
23813  1 41.732956 33.247470 48.448239
1054   1 40.824682 34.422348 50.456324
5113   1 42.477820 35.590055 48.433398
13528  1 43.302154 34.422348 50.456324
17586  1 40.000348 35.590055 48.433398
21844  1 41.551611 36.768414 50.431316
17685  1 39.851337 35.604020 52.442471
23912  1 41.667781 33.252884 52.477013
5212   1 42.328809 35.604020 52.442470
11537  1 43.436573 33.242408 56.487543
24011  1 40.959101 33.242408 56.487543
1153   1 40.575295 34.434555 54.448393
5311   1 41.941176 35.548818 56.464681
13627  1 43.052767 34.434555 54.448392
21943  1 41.320828 36.758823 54.450900
11636  1 43.122546 33.232187 60.560556
24110  1 40.645074 33.232187 60.560556
1252   1 40.029727 34.373572 58.506327
5410   1 41.664506 35.536961 60.532298
9568   1 43.483776 36.692947 58.491423
13726  1 42.507199 34.373571 58.506326
22042  1 41.006304 36.692947 58.491423
11735  1 43.077292 33.234962 64.608339
24209  1 40.599819 33.234962 64.608340
1351   1 39.871713 34.390718 62.578605
5509   1 41.560572 35.553107 64.597786
9667   1 43.318887 36.703490 62.558464
13825  1 42.349186 34.390718 62.578605
22141  1 40.841414 36.703490 62.558464
11834  1 43.064584 33.235960 68.649869
24308  1 40.587112 33.235959 68.649869
1450   1 39.826287 34.396533 66.627332
5608   1 41.522801 35.559251 68.646456
9766   1 43.244907 36.717330 66.618132
13924  1 42.303760 34.396533 66.627332
22240  1 40.767434 36.717330 66.618132
11933  1 43.063888 33.234883 72.689318
24407  1 40.586416 33.234883 72.689318
1549   1 39.812292 34.397942 70.669498
5707   1 41.513541 35.559806 72.689965
9865   1 43.217362 36.722165 70.666747
14023  1 42.289765 34.397943 70.669498
22339  1 40.739890 36.722165 70.666747
1648   1 39.814495 34.396149 74.710528
9964   1 43.216876 36.720734 74.712396
14122  1 42.291967 34.396149 74.710528
22438  1 40.739404 36.720734 74.712396
12032  1 43.071961 33.232210 76.729741
24506  1 40.594489 33.232210 76.729741
1747   1 39.831024 34.391920 78.754061
5806   1 41.523650 35.556262 76.733864
10063  1 43.239603 36.714429 78.760581
14221  1 42.308496 34.391920 78.754061
22537  1 40.762131 36.714429 78.760581
12131  1 43.090841 33.228431 80.773717
24605  1 40.613369 33.228431 80.773717
1846   1 39.867856 34.385787 82.803617
5905   1 41.554750 35.549457 80.782521
10162  1 43.291836 36.704042 82.816462
14320  1 42.345328 34.385787 82.803617
22636  1 40.814364 36.704043 82.816462
12230  1 43.129713 33.223995 84.823935
24704  1 40.652240 33.223995 84.823935
1945   1 39.946563 34.377137 86.864762
6004   1 41.619693 35.539512 84.841129
10261  1 43.393309 36.690225 86.885311
14419  1 42.424035 34.377137 86.864762
22735  1 40.915837 36.690225 86.885311
12329  1 43.222460 33.217660 88.886186
24803  1 40.744987 33.217660 88.886186
2044   1 40.143582 34.360200 90.949407
6103   1 41.755266 35.524856 88.917254
10360  1 43.576846 36.691921 90.954086
14518  1 42.621055 34.360200 90.949407
22834  1 41.099374 36.691922 90.954086
24902  1 41.115355 33.218915 92.975182
6202   1 42.036437 35.552140 92.980484
2143   1 40.681873 37.962288 12.069917
6301   1 42.230211 39.104557 10.049162
14617  1 43.159346 37.962288 12.069917
22933  1 41.509592 40.297890 12.064575
2242   1 40.825064 37.971418 16.097112
6400   1 42.410660 39.141907 14.084652
14716  1 43.302536 37.971418 16.097112
18873  1 39.933188 39.141907 14.084652
23032  1 41.646736 40.317335 16.100305
2341   1 40.902450 37.967204 20.129165
6499   1 42.518566 39.144092 18.115468
14815  1 43.379922 37.967204 20.129164
18972  1 40.041093 39.144092 18.115469
23131  1 41.730582 40.315107 20.135188
2440   1 40.943140 37.961241 24.169358
6598   1 42.579507 39.138196 22.151779
14914  1 43.420613 37.961240 24.169358
19071  1 40.102034 39.138196 22.151779
23230  1 41.777409 40.307837 24.175239
2539   1 40.961054 37.955028 28.213881
6697   1 42.610237 39.131251 26.194177
15013  1 43.438527 37.955028 28.213880
19170  1 40.132764 39.131251 26.194177
23329  1 41.797410 40.300350 28.219362
6796   1 42.619022 39.124361 30.239359
19269  1 40.141549 39.124361 30.239359
2638   1 40.961061 37.948530 32.260070
6895   1 42.608077 39.116729 34.284595
15112  1 43.438534 37.948530 32.260069
19368  1 40.130605 39.116729 34.284595
23428  1 41.794914 40.292846 32.264321
2737   1 40.943854 37.940770 36.305842
6994   1 42.576516 39.107426 38.327928
15211  1 43.421326 37.940770 36.305842
19467  1 40.099044 39.107426 38.327928
23527  1 41.769901 40.283809 36.307563
2836   1 40.908131 37.932154 40.349637
7093   1 42.522611 39.098947 42.367467
15310  1 43.385603 37.932154 40.349636
19566  1 40.045138 39.098946 42.367467
23626  1 41.720752 40.273249 40.347431
2935   1 40.851011 37.927229 44.388586
7192   1 42.442319 39.098212 46.399587
15409  1 43.328484 37.927230 44.388585
19665  1 39.964846 39.098212 46.399587
23725  1 41.646787 40.266689 44.382157
19764  1 39.844563 39.103812 50.425072
3034   1 40.760346 37.932485 48.416348
7291   1 42.322035 39.103812 50.425072
15508  1 43.237818 37.932484 48.416348
23824  1 41.544960 40.268564 48.411463
3133   1 40.604165 37.936593 52.437787
15607  1 43.081637 37.936593 52.437787
23923  1 41.401608 40.262908 52.442750
3232   1 40.344911 37.881640 56.470714
7390   1 42.133761 39.082318 54.456874
11548  1 43.684912 40.216054 56.480332
15706  1 42.822383 37.881640 56.470714
24022  1 41.207439 40.216054 56.480332
3331   1 40.137953 37.856652 60.520842
7489   1 41.913847 39.026920 58.496018
11647  1 43.522804 40.188245 60.523398
15805  1 42.615425 37.856652 60.520842
24121  1 41.045331 40.188245 60.523398
3430   1 40.026646 37.871176 64.583759
7588   1 41.773450 39.025342 62.549692
11746  1 43.422833 40.195365 64.577499
15904  1 42.504118 37.871176 64.583759
24220  1 40.945361 40.195365 64.577499
3529   1 39.974002 37.882087 68.639660
7687   1 41.694960 39.039011 66.608664
11845  1 43.368246 40.206270 68.633749
16003  1 42.451474 37.882087 68.639660
24319  1 40.890773 40.206270 68.633749
3628   1 39.958356 37.884436 72.688859
7786   1 41.660121 39.046429 70.662580
11944  1 43.349892 40.209625 72.687118
16102  1 42.435828 37.884436 72.688859
24418  1 40.872420 40.209625 72.687119
7885   1 41.657968 39.045352 74.713232
3727   1 39.970062 37.880005 76.737607
7984   1 41.684834 39.037206 78.765839
12043  1 43.362690 40.204500 76.739878
16201  1 42.447534 37.880005 76.737607
24517  1 40.885218 40.204500 76.739878
3826   1 40.009878 37.870144 80.791321
8083   1 41.744756 39.024174 82.824850
12142  1 43.406573 40.192857 80.796046
16300  1 42.487350 37.870144 80.791321
24616  1 40.929101 40.192857 80.796046
3925   1 40.088064 37.856585 84.854551
8182   1 41.847303 39.013792 86.889063
12241  1 43.486073 40.180451 84.856587
16399  1 42.565537 37.856585 84.854551
24715  1 41.008600 40.180451 84.856587
4024   1 40.222071 37.850138 88.922117
8281   1 42.006664 39.031063 90.945552
12340  1 43.609304 40.183742 88.914784
16498  1 42.699543 37.850138 88.922117
24814  1 41.131831 40.183742 88.914784
4123   1 40.437675 37.893228 92.972506
16597  1 42.915147 37.893228 92.972506
24913  1 41.311511 40.231977 92.961405
75     1 40.605380 41.437160 10.038628
4233   1 42.358092 42.632179 12.054167
12549  1 43.082853 41.437160 10.038628
16706  1 39.880620 42.632179 12.054167
20865  1 41.467549 43.770579 10.025536
174    1 40.766859 41.481393 14.079931
4332   1 42.488346 42.658844 16.095824
12648  1 43.244331 41.481393 14.079931
16805  1 40.010873 42.658844 16.095824
20964  1 41.618769 43.818433 14.069814
273    1 40.874031 41.489859 18.117381
4431   1 42.572715 42.659725 20.136386
12747  1 43.351503 41.489859 18.117381
16904  1 40.095243 42.659725 20.136387
21063  1 41.723621 43.831533 18.113247
372    1 40.939108 41.484413 22.156474
4530   1 42.621626 42.652247 24.179473
12846  1 43.416580 41.484413 22.156474
17003  1 40.144153 42.652247 24.179473
21162  1 41.789102 43.827255 22.157720
471    1 40.972682 41.476386 26.199634
4629   1 42.641668 42.644213 28.224778
12945  1 43.450154 41.476386 26.199633
17102  1 40.164196 42.644213 28.224778
21261  1 41.822726 43.819094 26.204088
570    1 40.980578 41.468745 30.244587
13044  1 43.458050 41.468745 30.244587
21360  1 41.827982 43.811682 30.250219
669    1 40.964141 41.460436 34.288222
4728   1 42.635424 42.636555 32.269359
13143  1 43.441613 41.460436 34.288222
17201  1 40.157951 42.636555 32.269360
21459  1 41.805029 43.803613 34.293165
768    1 40.921870 41.449597 38.328542
4827   1 42.602057 42.626824 36.310622
13242  1 43.399343 41.449597 38.328541
17300  1 40.124585 42.626824 36.310622
21558  1 41.751932 43.791288 38.331552
867    1 40.853314 41.438545 42.364735
4926   1 42.540156 42.613769 40.347797
13341  1 43.330786 41.438545 42.364735
17399  1 40.062684 42.613769 40.347797
21657  1 41.670369 43.775943 42.366699
966    1 40.761171 41.434392 46.396953
5025   1 42.453585 42.603165 44.381882
13440  1 43.238643 41.434392 46.396953
17498  1 39.976113 42.603165 44.381882
21756  1 41.570271 43.766422 46.401215
1065   1 40.642693 41.433012 50.428984
5124   1 42.347862 42.599518 48.415216
13539  1 43.120165 41.433012 50.428984
21855  1 41.455466 43.759686 50.437687
5223   1 42.217759 42.588274 52.451981
1164   1 40.485714 41.408346 54.466419
5322   1 42.061702 42.550512 56.490930
13638  1 42.963187 41.408346 54.466419
21954  1 41.319751 43.736603 54.476916
1263   1 40.316501 41.364325 58.505198
5421   1 41.928963 42.524944 60.530825
9579   1 43.659202 43.702594 58.515059
13737  1 42.793974 41.364325 58.505198
22053  1 41.181730 43.702594 58.515059
1362   1 40.198278 41.356057 62.551054
5520   1 41.842027 42.526185 64.578462
9678   1 43.558312 43.691968 62.556784
13836  1 42.675750 41.356057 62.551054
22152  1 41.080839 43.691968 62.556784
1461   1 40.126459 41.365231 66.604652
5619   1 41.792248 42.534133 68.631653
9777   1 43.495300 43.696610 66.605694
13935  1 42.603932 41.365231 66.604652
22251  1 41.017827 43.696610 66.605694
1560   1 40.091591 41.372359 70.659465
5718   1 41.774939 42.536915 72.685965
9876   1 43.464214 43.701634 70.658813
14034  1 42.569063 41.372359 70.659465
22350  1 40.986741 43.701634 70.658813
1659   1 40.089306 41.371247 74.713229
9975   1 43.463057 43.699960 74.712919
14133  1 42.566779 41.371247 74.713229
22449  1 40.985585 43.699960 74.712919
1758   1 40.117874 41.362157 78.767935
5817   1 41.788384 42.531394 76.740271
10074  1 43.491493 43.690913 78.766894
14232  1 42.595347 41.362157 78.767935
22548  1 41.014021 43.690914 78.766894
1857   1 40.178590 41.349319 82.825308
5916   1 41.832428 42.519737 80.795430
10173  1 43.550162 43.679462 82.820279
14331  1 42.656063 41.349319 82.825308
22647  1 41.072690 43.679462 82.820279
1956   1 40.275729 41.344304 86.882635
6015   1 41.908865 42.510048 84.850790
10272  1 43.642294 43.678096 86.871616
14430  1 42.753201 41.344304 86.882635
22746  1 41.164822 43.678096 86.871616
2055   1 40.418525 41.369785 90.933126
6114   1 42.023484 42.519472 88.902702
10371  1 43.775643 43.706800 90.918935
14529  1 42.895997 41.369785 90.933126
22845  1 41.298171 43.706801 90.918936
6213   1 42.183828 42.568623 92.948282
2154   1 40.742019 44.966674 12.040766
6312   1 42.335300 46.104630 10.010748
14628  1 43.219492 44.966674 12.040766
22944  1 41.613211 47.301972 12.025458
2253   1 40.868961 44.997215 16.086342
6411   1 42.484643 46.154503 14.056477
14727  1 43.346434 44.997215 16.086342
18884  1 40.007170 46.154502 14.056477
23043  1 41.741861 47.333198 16.074016
2352   1 40.952579 45.000154 20.133125
6510   1 42.589010 46.169342 18.105071
14826  1 43.430052 45.000153 20.133125
18983  1 40.111538 46.169342 18.105071
23142  1 41.825903 47.335906 20.127153
2451   1 41.001036 44.993080 24.181498
6609   1 42.653933 46.165602 22.156024
14925  1 43.478509 44.993080 24.181498
19082  1 40.176460 46.165602 22.156024
23241  1 41.872908 47.329164 24.181858
2550   1 41.018901 44.985578 28.229888
6708   1 42.685560 46.158112 26.207379
15024  1 43.496374 44.985578 28.229888
19181  1 40.208088 46.158112 26.207380
23340  1 41.886565 47.323342 28.234547
6807   1 42.686167 46.152235 30.256159
19280  1 40.208694 46.152235 30.256159
2649   1 41.007356 44.978938 32.275352
6906   1 42.655349 46.145598 34.299667
15123  1 43.484828 44.978938 32.275351
19379  1 40.177877 46.145598 34.299667
23439  1 41.867827 47.319189 32.282141
2748   1 40.964893 44.969201 36.315760
7005   1 42.590786 46.131890 38.337447
15222  1 43.442366 44.969201 36.315760
19478  1 40.113313 46.131890 38.337447
23538  1 41.815038 47.310433 36.323014
2847   1 40.890416 44.952757 40.351840
7104   1 42.495751 46.110696 42.372837
15321  1 43.367889 44.952757 40.351840
19577  1 40.018278 46.110696 42.372837
23637  1 41.726620 47.289938 40.359070
2946   1 40.792571 44.936263 44.387005
7203   1 42.387581 46.095408 46.409571
15420  1 43.270044 44.936263 44.387005
23736  1 41.615724 47.266446 44.395528
3045   1 40.684178 44.927480 48.423602
7302   1 42.274827 46.085960 50.447933
15519  1 43.161650 44.927480 48.423602
23835  1 41.503044 47.254150 48.433690
3144   1 40.563833 44.914571 52.462401
15618  1 43.041305 44.914571 52.462401
23934  1 41.388910 47.242576 52.472072
11460  1 43.866383 47.242576 52.472072
3243   1 40.432031 44.885416 56.500958
7401   1 42.153459 46.066892 54.486693
15717  1 42.909504 44.885416 56.500958
24033  1 41.273531 47.221304 56.509179
11559  1 43.751004 47.221304 56.509179
3342   1 40.319949 44.863979 60.539127
7500   1 42.036381 46.041450 58.523825
11658  1 43.654465 47.204419 60.546238
15816  1 42.797422 44.863978 60.539127
24132  1 41.176992 47.204420 60.546238
3441   1 40.244492 44.861745 64.582918
7599   1 41.949240 46.030921 62.563395
11757  1 43.588925 47.200503 64.588091
15915  1 42.721965 44.861745 64.582918
24231  1 41.111452 47.200503 64.588091
3540   1 40.201134 44.866301 68.632943
7698   1 41.894550 46.032207 66.609291
11856  1 43.551709 47.202284 68.635947
16014  1 42.678607 44.866300 68.632943
24330  1 41.074236 47.202284 68.635947
3639   1 40.186565 44.867649 72.686075
7797   1 41.868053 46.034825 70.660246
11955  1 43.539884 47.202228 72.687359
16113  1 42.664037 44.867649 72.686076
24429  1 41.062411 47.202228 72.687359
7896   1 41.868230 46.032500 74.712975
3738   1 40.200268 44.862028 76.739476
7995   1 41.895545 46.024082 78.764553
12054  1 43.553216 47.196856 76.738803
16212  1 42.677741 44.862027 76.739476
24528  1 41.075743 47.196856 76.738803
3837   1 40.242741 44.851243 80.791561
8094   1 41.951615 46.013932 82.813271
12153  1 43.593319 47.187232 80.787298
16311  1 42.720214 44.851243 80.791561
24627  1 41.115846 47.187232 80.787298
3936   1 40.315873 44.843554 84.841449
8193   1 42.040560 46.013689 86.859206
12252  1 43.663724 47.180250 84.831859
16410  1 42.793345 44.843554 84.841450
24726  1 41.186252 47.180250 84.831859
4035   1 40.425455 44.855306 88.888756
8292   1 42.170244 46.042103 90.903940
12351  1 43.771445 47.190931 88.874647
16509  1 42.902928 44.855306 88.888756
24825  1 41.293972 47.190931 88.874647
4134   1 40.577174 44.903729 92.933789
16608  1 43.054647 44.903729 92.933789
24924  1 41.445734 47.237605 92.918511
2165   1 40.907819 51.976143 11.992869
4244   1 42.493628 49.638432 12.009113
185    1 40.885719 48.490169 14.041393
12659  1 43.363192 48.490169 14.041393
2264   1 41.060071 51.996176 16.050511
4343   1 42.630169 49.666663 16.060992
16816  1 40.152697 49.666663 16.060992
20975  1 41.778347 50.825144 14.026241
284    1 40.993004 48.503196 18.095141
12758  1 43.470477 48.503196 18.095141
2363   1 41.150832 51.990576 20.117458
4442   1 42.716869 49.666328 20.120887
16915  1 40.239397 49.666328 20.120887
21074  1 41.892792 50.832247 18.086426
383    1 41.057917 48.498605 22.152947
12857  1 43.535389 48.498605 22.152946
2462   1 41.192049 51.984498 24.181225
4541   1 42.761892 49.659674 24.181561
17014  1 40.284419 49.659674 24.181561
21173  1 41.958127 50.825621 22.150485
482    1 41.086086 48.492383 26.209746
12956  1 43.563559 48.492383 26.209746
2561   1 41.191440 51.984986 28.239853
4640   1 42.769351 49.656632 28.238321
17113  1 40.291879 49.656632 28.238321
21272  1 41.981143 50.821337 26.211103
581    1 41.079906 48.489475 30.261979
13055  1 43.557379 48.489475 30.261978
21371  1 41.966141 50.822601 30.266460
680    1 41.039465 48.485777 34.307337
13154  1 43.516938 48.485777 34.307337
2660   1 41.152566 51.990068 32.293776
4739   1 42.741346 49.656527 32.288892
17212  1 40.263873 49.656527 32.288892
21470  1 41.914105 50.823555 34.314973
779    1 40.961754 48.471268 38.345675
13253  1 43.439227 48.471268 38.345675
2759   1 41.072987 51.988434 36.340181
4838   1 42.676345 49.650259 36.331621
17311  1 40.198873 49.650259 36.331621
21569  1 41.820383 50.809654 38.355108
878    1 40.850180 48.442962 42.381637
13352  1 43.327653 48.442962 42.381637
2858   1 40.944559 51.960077 40.378069
4937   1 42.570707 49.625550 40.368262
15332  1 43.422031 51.960077 40.378069
17410  1 40.093234 49.625550 40.368262
21668  1 41.686221 50.773021 42.391477
977    1 40.731220 48.422491 46.419575
13451  1 43.208693 48.422491 46.419575
2957   1 40.790264 51.920460 44.415050
5036   1 42.442132 49.594325 44.405466
15431  1 43.267736 51.920460 44.415050
21767  1 41.551763 50.748706 46.429168
1076   1 40.618009 48.413098 50.457527
13550  1 43.095482 48.413098 50.457528
3056   1 40.659654 51.908793 48.450095
5135   1 42.322272 49.580825 48.443255
15530  1 43.137127 51.908793 48.450095
21866  1 41.435613 50.742137 50.464448
9392   1 43.913085 50.742137 50.464448
3155   1 40.550830 51.906020 52.482086
5234   1 42.211538 49.572856 52.479265
15629  1 43.028303 51.906020 52.482086
1175   1 40.506430 48.399321 54.494307
13649  1 42.983902 48.399321 54.494307
3254   1 40.458241 51.897641 56.515398
5333   1 42.108261 49.558639 56.514347
15728  1 42.935714 51.897641 56.515399
21965  1 41.331313 50.734164 54.498238
9491   1 43.808786 50.734164 54.498239
1274   1 40.404641 48.381127 58.530218
13748  1 42.882114 48.381127 58.530218
3353   1 40.386709 51.888205 60.552589
5432   1 42.024580 49.545930 60.550913
15827  1 42.864181 51.888205 60.552589
22064  1 41.242234 50.721807 58.533273
9590   1 43.719706 50.721807 58.533273
1373   1 40.329077 48.371802 62.568904
13847  1 42.806549 48.371802 62.568904
3452   1 40.338981 51.883531 64.594885
5531   1 41.968055 49.541377 64.592331
9689   1 43.654846 50.713917 62.572283
15926  1 42.816453 51.883531 64.594885
22163  1 41.177374 50.713917 62.572283
1472   1 40.281895 48.370912 66.613379
13946  1 42.759368 48.370912 66.613379
3551   1 40.312236 51.882225 68.641904
5630   1 41.936335 49.541227 68.639230
9788   1 43.614658 50.711740 66.616709
16025  1 42.789709 51.882225 68.641904
22262  1 41.137186 50.711740 66.616709
1571   1 40.259543 48.371593 70.662747
14045  1 42.737016 48.371593 70.662747
3650   1 40.303701 51.880827 72.691557
5729   1 41.926555 49.540230 72.689369
9887   1 43.595743 50.711163 70.665406
16124  1 42.781174 51.880827 72.691557
22361  1 41.118270 50.711163 70.665406
1670   1 40.260457 48.368920 74.713824
14144  1 42.737930 48.368920 74.713824
9986   1 43.596490 50.708568 74.715430
22460  1 41.119017 50.708568 74.715430
1769   1 40.285690 48.361549 78.762915
14243  1 42.763162 48.361549 78.762915
3749   1 40.313221 51.877090 76.740628
5828   1 41.938539 49.535512 76.739172
10085  1 43.618266 50.702644 78.763101
16223  1 42.790694 51.877090 76.740628
22559  1 41.140794 50.702644 78.763101
1868   1 40.338646 48.352430 82.807357
14342  1 42.816119 48.352430 82.807357
3848   1 40.343991 51.870854 80.785560
5927   1 41.975028 49.527352 80.784958
10184  1 43.666201 50.694830 82.804898
16322  1 42.821463 51.870854 80.785560
22658  1 41.188728 50.694830 82.804898
1967   1 40.425666 48.351064 86.847841
14441  1 42.903138 48.351064 86.847842
3947   1 40.404574 51.864261 84.822930
6026   1 42.042135 49.520316 84.824840
10283  1 43.750365 50.691197 86.840144
16421  1 42.882047 51.864261 84.822930
22757  1 41.272892 50.691197 86.840144
2066   1 40.556618 48.376056 90.889069
14540  1 43.034090 48.376056 90.889069
4046   1 40.511267 51.865279 88.853772
6125   1 42.149969 49.527025 88.862117
10382  1 43.886350 50.709372 90.875666
16520  1 42.988740 51.865279 88.853773
22856  1 41.408878 50.709372 90.875666
86     1 40.729402 48.439385  9.994952
12560  1 43.206875 48.439385  9.994952
20876  1 41.603966 50.775233  9.978856
4145   1 40.688909 51.901914 92.889061
6224   1 42.310191 49.570352 92.903224
16619  1 43.166382 51.901914 92.889061
14639  1 43.385291 51.976143 11.992870
22955  1 41.818804 54.313953 11.979262
14738  1 43.537544 51.996176 16.050511
196    1 41.162055 55.481333 14.013218
6422   1 42.690901 53.157525 14.014191
12670  1 43.639527 55.481333 14.013218
18895  1 40.213428 53.157525 14.014191
23054  1 41.995166 54.318272 16.048581
14837  1 43.628304 51.990576 20.117458
295    1 41.288751 55.470017 18.090004
6521   1 42.815651 53.154756 18.083347
12769  1 43.766223 55.470017 18.090004
18994  1 40.338178 53.154756 18.083347
23153  1 42.084742 54.308842 20.119535
14936  1 43.669522 51.984498 24.181225
394    1 41.338833 55.465004 22.151344
6620   1 42.878461 53.146904 22.150235
12868  1 43.816305 55.465004 22.151344
19093  1 40.400989 53.146904 22.150235
23252  1 42.117381 54.305076 24.180209
15035  1 43.668913 51.984986 28.239853
493    1 41.345303 55.465766 26.206121
6719   1 42.893955 53.145286 26.210335
12967  1 43.822775 55.465766 26.206122
19192  1 40.416482 53.145286 26.210335
23351  1 42.108608 54.308470 28.236937
592    1 41.314319 55.473599 30.261437
6818   1 42.869409 53.150857 30.267273
13066  1 43.791791 55.473598 30.261437
19291  1 40.391936 53.150858 30.267273
15134  1 43.630039 51.990068 32.293776
691    1 41.237998 55.486872 34.319978
6917   1 42.804395 53.157957 34.320410
13165  1 43.715470 55.486872 34.319978
19390  1 40.326923 53.157957 34.320409
23450  1 42.059562 54.318463 32.293730
15233  1 43.550460 51.988434 36.340181
790    1 41.098826 55.484147 38.371758
7016   1 42.690574 53.147350 38.364386
13264  1 43.576299 55.484146 38.371758
19489  1 40.213102 53.147350 38.364386
23549  1 41.963270 54.324109 36.346537
889    1 40.878698 55.426651 42.408259
7115   1 42.523295 53.100981 42.400883
13363  1 43.356170 55.426651 42.408259
23648  1 41.802988 54.294076 40.387252
988    1 40.689480 55.404405 46.437401
7214   1 42.366387 53.075306 46.436176
13462  1 43.166952 55.404404 46.437401
23747  1 41.609066 54.245610 44.422372
1087   1 40.566261 55.410421 50.460430
7313   1 42.245732 53.074213 50.466320
13561  1 43.043733 55.410421 50.460430
23846  1 41.464270 54.239747 48.451339
11372  1 43.941742 54.239747 48.451339
23945  1 41.358737 54.242525 52.478657
11471  1 43.836210 54.242525 52.478657
1186   1 40.480990 55.411097 54.490622
7412   1 42.148851 53.071576 54.497123
13660  1 42.958463 55.411098 54.490622
24044  1 41.278559 54.238027 56.512048
11570  1 43.756031 54.238027 56.512048
1285   1 40.419526 55.405114 58.529063
7511   1 42.072525 53.063335 58.532648
11669  1 43.697428 54.230757 60.551523
13759  1 42.896999 55.405114 58.529063
24143  1 41.219956 54.230757 60.551523
1384   1 40.376921 55.399460 62.572447
7610   1 42.018523 53.056655 62.573318
11768  1 43.658641 54.226282 64.595693
13858  1 42.854393 55.399460 62.572447
24242  1 41.181169 54.226282 64.595692
1483   1 40.350209 55.396605 66.619420
7709   1 41.985122 53.053854 66.618743
11867  1 43.636522 54.224483 68.643540
13957  1 42.827681 55.396605 66.619420
24341  1 41.159049 54.224483 68.643540
1582   1 40.336512 55.395331 70.668836
7808   1 41.969037 53.052659 70.667578
11966  1 43.628569 54.223143 72.693344
14056  1 42.813985 55.395331 70.668836
24440  1 41.151096 54.223143 72.693344
1681   1 40.334430 55.393897 74.718858
7907   1 41.968723 53.050519 74.717346
14155  1 42.811903 55.393897 74.718858
1780   1 40.345008 55.391354 78.766974
8006   1 41.985579 53.046248 78.764818
12065  1 43.634574 54.220589 76.742532
14254  1 42.822481 55.391354 78.766973
24539  1 41.157101 54.220590 76.742532
1879   1 40.372992 55.387687 82.810225
8105   1 42.024991 53.040509 82.806736
12164  1 43.657573 54.216386 80.788001
14353  1 42.850465 55.387687 82.810225
24638  1 41.180100 54.216386 80.788001
1978   1 40.429206 55.384756 86.846877
8204   1 42.100788 53.035608 86.839284
12263  1 43.705537 54.211790 84.827008
14452  1 42.906679 55.384756 86.846877
24737  1 41.228064 54.211790 84.827008
2077   1 40.557028 55.383801 90.866028
8303   1 42.241291 53.043781 90.866238
12362  1 43.801570 54.208628 88.853951
14551  1 43.034501 55.383801 90.866028
24836  1 41.324097 54.208628 88.853951
97     1 40.887161 55.452831  9.950203
6323   1 42.481362 53.112901  9.963397
12571  1 43.364634 55.452831  9.950203
12461  1 44.003360 54.232344 92.878191
24935  1 41.525887 54.232345 92.878191
2176   1 41.416503 58.946749 12.018693
4255   1 42.779287 56.644159 11.978195
14650  1 43.893976 58.946749 12.018694
16728  1 40.301814 56.644159 11.978194
2275   1 41.500783 58.940831 16.076314
4354   1 42.969662 56.629791 16.062369
14749  1 43.978255 58.940831 16.076314
16827  1 40.492190 56.629791 16.062369
20986  1 42.177560 57.787226 14.037659
2374   1 41.524656 58.941896 20.126011
4453   1 43.037537 56.624749 20.124477
14848  1 44.002128 58.941896 20.126011
16926  1 40.560064 56.624748 20.124477
21085  1 42.262737 57.783612 18.099669
2473   1 41.525898 58.943467 24.171971
4552   1 43.056208 56.624066 24.177344
14947  1 44.003370 58.943467 24.171971
17025  1 40.578736 56.624066 24.177344
21184  1 42.288610 57.783040 22.150936
2572   1 41.509642 58.947198 28.217031
4651   1 43.042000 56.628339 28.228508
15046  1 43.987115 58.947198 28.217031
17124  1 40.564528 56.628339 28.228508
21283  1 42.285813 57.785137 26.198735
21382  1 42.255534 57.791835 30.248295
2671   1 41.466902 58.955175 32.266204
4750   1 42.989505 56.639923 32.284725
15145  1 43.944375 58.955175 32.266204
17223  1 40.512033 56.639923 32.284725
21481  1 42.179400 57.806617 34.307758
2770   1 41.359362 58.972662 36.331271
4849   1 42.878007 56.654500 36.346660
15244  1 43.836834 58.972662 36.331272
17322  1 40.400535 56.654500 36.346660
21580  1 42.012323 57.817536 38.373470
2869   1 41.077412 58.960122 40.397264
4948   1 42.669869 56.627959 40.394391
15343  1 43.554884 58.960121 40.397265
21679  1 41.695199 57.749725 42.411151
2968   1 40.688561 58.903883 44.415680
5047   1 42.409638 56.571636 44.424413
15442  1 43.166034 58.903883 44.415680
21778  1 41.462811 57.739687 46.427471
9304   1 43.940283 57.739687 46.427471
3067   1 40.536381 58.918193 48.421785
5146   1 42.251136 56.575816 48.443034
15541  1 43.013853 58.918193 48.421785
21877  1 41.349260 57.750742 50.445407
9403   1 43.826732 57.750742 50.445407
3166   1 40.469133 58.921928 52.455399
5245   1 42.156385 56.581954 52.468385
15640  1 42.946605 58.921929 52.455399
3265   1 40.427066 58.919040 56.498716
5344   1 42.093221 56.578833 56.505629
15739  1 42.904539 58.919040 56.498716
21976  1 41.284500 57.751186 54.481072
9502   1 43.761973 57.751187 54.481072
3364   1 40.397233 58.914724 60.545326
5443   1 42.048705 56.573039 60.548685
15838  1 42.874705 58.914724 60.545326
22075  1 41.240157 57.746441 58.524146
9601   1 43.717630 57.746442 58.524146
3463   1 40.376476 58.911847 64.593650
5542   1 42.018972 56.569136 64.595111
9700   1 43.686737 57.741954 62.570457
15937  1 42.853948 58.911847 64.593650
22174  1 41.209265 57.741954 62.570457
3562   1 40.362862 58.910679 68.643326
5641   1 42.001215 56.567414 68.644003
9799   1 43.666574 57.739583 66.618936
16036  1 42.840335 58.910679 68.643326
22273  1 41.189101 57.739583 66.618936
3661   1 40.354868 58.910402 72.693701
5740   1 41.993381 56.566478 72.694192
9898   1 43.654957 57.738663 70.668923
16135  1 42.832341 58.910401 72.693701
22372  1 41.177484 57.738663 70.668923
9997   1 43.650654 57.738078 74.719215
22471  1 41.173181 57.738078 74.719215
3760   1 40.351805 58.910315 76.743521
5839   1 41.995077 56.565169 76.743842
10096  1 43.653979 57.737193 78.768025
16234  1 42.829277 58.910314 76.743521
22570  1 41.176507 57.737193 78.768025
3859   1 40.354175 58.910204 80.791011
5938   1 42.008401 56.563057 80.790549
10195  1 43.667685 57.735886 82.812980
16333  1 42.831648 58.910204 80.791011
22669  1 41.190212 57.735886 82.812980
3958   1 40.364463 58.910120 84.833456
6037   1 42.039803 56.560155 84.831328
10294  1 43.699528 57.733684 86.850281
16432  1 42.841936 58.910120 84.833456
22768  1 41.222055 57.733684 86.850281
4057   1 40.389597 58.908610 88.863192
6136   1 42.102244 56.559630 88.866741
10393  1 43.756498 57.737816 90.885098
16531  1 42.867069 58.908610 88.863192
22867  1 41.279026 57.737816 90.885098
20887  1 41.814347 57.784706  9.950026
4156   1 40.330876 58.923721 92.871906
6235   1 42.301583 56.565000 92.873931
16630  1 42.808348 58.923721 92.871906
22966  1 42.606782 61.243139 12.013499
108    1 41.846735 62.406607 14.027496
6433   1 43.250801 60.096832 14.052441
18906  1 40.773329 60.096832 14.052441
23065  1 42.523282 61.256100 16.070926
207    1 41.760241 62.416198 18.088433
6532   1 43.249796 60.099821 18.100610
19005  1 40.772323 60.099820 18.100610
23164  1 42.493858 61.260227 20.119875
306    1 41.724679 62.421554 22.137768
6631   1 43.244649 60.102212 22.146526
19104  1 40.767177 60.102212 22.146526
23263  1 42.476885 61.263539 24.164462
12780  1 44.202151 62.421554 22.137768
405    1 41.705615 62.425141 26.182008
6730   1 43.233132 60.104956 26.189943
19203  1 40.755659 60.104956 26.189943
23362  1 42.461100 61.266653 28.206748
12879  1 44.183088 62.425141 26.182009
504    1 41.693496 62.427710 30.224283
6829   1 43.210090 60.109301 30.233545
19302  1 40.732617 60.109301 30.233545
12978  1 44.170969 62.427710 30.224284
603    1 41.685050 62.429740 34.267717
6928   1 43.158690 60.117026 34.282535
19401  1 40.681218 60.117026 34.282535
23461  1 42.438752 61.270502 32.249620
13077  1 44.162522 62.429740 34.267717
702    1 41.682380 62.433104 38.312194
7027   1 42.995632 60.136253 38.354095
19500  1 40.518159 60.136253 38.354095
23560  1 42.387739 61.275509 36.297405
13176  1 44.159853 62.433103 38.312195
13274  1 40.429528 62.431751 42.380356
801    1 42.907001 62.431751 42.380356
7126   1 42.443928 60.073683 42.409573
23659  1 42.063322 61.264743 40.369522
13373  1 40.421765 62.431332 46.379250
900    1 42.899237 62.431332 46.379250
7225   1 42.192970 60.085624 46.397928
23758  1 41.353692 61.254793 44.376027
11284  1 43.831164 61.254793 44.376027
13472  1 40.414669 62.430282 50.420990
999    1 42.892142 62.430282 50.420990
7324   1 42.122279 60.091412 50.428844
23857  1 41.284493 61.260602 48.402327
11383  1 43.761965 61.260603 48.402327
23956  1 41.256314 61.260604 52.446123
11482  1 43.733786 61.260604 52.446123
1098   1 40.407014 62.428685 54.468305
7423   1 42.084940 60.090417 54.472522
13572  1 42.884487 62.428685 54.468305
24055  1 41.236984 61.258344 56.493801
11581  1 43.714457 61.258344 56.493801
1197   1 40.399085 62.426974 58.517027
7522   1 42.058757 60.086988 58.519698
13671  1 42.876558 62.426974 58.517026
24154  1 41.221834 61.255854 60.542515
11680  1 43.699307 61.255854 60.542515
1296   1 40.391347 62.425871 62.566114
7621   1 42.039530 60.084038 62.568149
11779  1 43.687346 61.254403 64.591778
13770  1 42.868819 62.425871 62.566114
24253  1 41.209873 61.254403 64.591778
1395   1 40.383781 62.425696 66.615589
7720   1 42.025732 60.082612 66.617570
11878  1 43.677722 61.254142 68.641637
13869  1 42.861253 62.425696 66.615589
24352  1 41.200249 61.254142 68.641637
1494   1 40.375862 62.426382 70.665365
7819   1 42.016001 60.082381 70.667745
11977  1 43.669447 61.254720 72.691706
13968  1 42.853334 62.426382 70.665365
24451  1 41.191974 61.254720 72.691706
1593   1 40.366673 62.427802 74.714725
7918   1 42.009260 60.082744 74.717883
14067  1 42.844146 62.427802 74.714725
1692   1 40.354660 62.429995 78.762314
8017   1 42.004882 60.083406 78.766632
12076  1 43.661500 61.255862 76.740966
14166  1 42.832133 62.429995 78.762314
24550  1 41.184027 61.255862 76.740966
1791   1 40.336611 62.433419 82.806085
8116   1 42.002632 60.084519 82.812045
12175  1 43.652550 61.257638 80.787839
14265  1 42.814084 62.433419 82.806085
24649  1 41.175078 61.257638 80.787839
8215   1 42.002452 60.086606 86.849943
12274  1 43.639908 61.260729 84.829728
14364  1 42.782181 62.439647 86.842403
24748  1 41.162436 61.260729 84.829728
8314   1 42.003882 60.090154 90.857087
12373  1 43.616396 61.267798 88.859007
14463  1 42.728859 62.442621 90.876472
24847  1 41.138923 61.267798 88.859007
9      1 42.204439 62.401228  9.940519
6334   1 43.249897 60.092531  9.982025
18807  1 40.772424 60.092531  9.982025
12472  1 43.678605 61.261263 92.867205
24946  1 41.201133 61.261263 92.867205
16641  1 44.765421  0.512801 11.964084
8424   1 43.908069  1.679647 13.994302
16740  1 44.577962  0.533911 16.046872
20899  1 46.385541  1.679647 13.994301
8523   1 43.781853  1.696569 18.068837
16839  1 44.505661  0.544031 20.106868
20998  1 46.259326  1.696569 18.068837
8622   1 43.724047  1.706145 22.127025
16938  1 44.472901  0.549658 24.156252
21097  1 46.201520  1.706144 22.127025
8721   1 43.699531  1.711047 26.176762
17037  1 44.459086  0.552646 28.201059
21196  1 46.177003  1.711047 26.176762
8820   1 43.698982  1.712096 30.223975
21295  1 46.176455  1.712096 30.223975
8919   1 43.733356  1.708713 34.275094
17136  1 44.461348  0.553350 32.245399
21394  1 46.210829  1.708713 34.275094
9018   1 43.882032  1.693909 38.347992
17235  1 44.498416  0.552548 36.293864
21493  1 46.359504  1.693909 38.347991
9117   1 44.412903  1.755785 42.404210
17334  1 44.801737  0.563275 40.366849
4959   1 43.019423  0.574723 44.373656
9216   1 44.651203  1.743311 46.394330
17433  1 45.496896  0.574723 44.373656
5058   1 43.074538  0.567542 48.400778
9315   1 44.707198  1.735568 50.425920
17532  1 45.552011  0.567542 48.400778
17631  1 43.087917  0.564892 52.444692
5158   1 45.565390  0.564892 52.444692
17730  1 43.091486  0.563656 56.492324
5257   1 45.568958  0.563656 56.492324
21889  1 44.729040  1.733389 54.469649
17829  1 43.090870  0.563186 60.540879
5356   1 45.568343  0.563186 60.540879
21988  1 44.739227  1.733384 58.516636
17928  1 43.087598  0.563358 64.589817
5455   1 45.565070  0.563358 64.589817
22087  1 44.742909  1.734164 62.564629
18027  1 43.081925  0.564192 68.639117
5554   1 45.559397  0.564192 68.639117
22186  1 44.741580  1.735321 66.613197
18126  1 43.073409  0.565766 72.688317
5653   1 45.550881  0.565766 72.688317
22285  1 44.735548  1.737023 70.661996
22384  1 44.724132  1.739599 74.710062
18225  1 43.060766  0.568215 76.736261
5752   1 45.538238  0.568215 76.736261
22483  1 44.705103  1.743386 78.755719
5851   1 45.518566  0.571852 80.781124
18324  1 43.041093  0.571853 80.781124
22582  1 44.673279  1.748817 82.796669
5950   1 45.485242  0.577482 84.820306
18423  1 43.007770  0.577482 84.820306
22681  1 44.617912  1.755312 86.831561
6049   1 45.425319  0.583289 88.854522
18522  1 42.947846  0.583290 88.854522
22780  1 44.495908  1.762759 90.849826
8325   1 44.175658  1.700932  9.933014
20800  1 46.653131  1.700932  9.933014
6148   1 45.233218  0.585565 92.861406
2089   1 45.726469  2.844215 11.957649
14562  1 43.248997  2.844216 11.957649
10404  1 44.162261  5.183195 11.964904
22879  1 46.639734  5.183194 11.964904
2188   1 45.555222  2.846073 16.024614
14661  1 43.077749  2.846073 16.024614
120    1 45.776677  6.337766 13.994692
10503  1 44.017940  5.168707 16.020164
12593  1 43.299205  6.337766 13.994692
18819  1 44.859319  4.004509 13.988057
22978  1 46.495413  5.168706 16.020163
2287   1 45.463516  2.860014 20.092697
14760  1 42.986044  2.860014 20.092697
219    1 45.668675  6.334048 18.052852
10602  1 43.928410  5.177534 20.084669
12692  1 43.191202  6.334048 18.052852
18918  1 44.737571  4.012032 18.054530
23077  1 46.405882  5.177534 20.084669
2386   1 45.420408  2.868236 24.149493
14859  1 42.942936  2.868236 24.149493
318    1 45.603915  6.342415 22.115555
10701  1 43.882299  5.186409 24.146249
12791  1 43.126442  6.342416 22.115556
19017  1 44.670524  4.023520 22.118399
23176  1 46.359772  5.186409 24.146249
2485   1 45.409432  2.871126 28.200888
14958  1 42.931960  2.871126 28.200888
417    1 45.577839  6.348008 26.176520
10800  1 43.874303  5.188756 28.204493
12890  1 43.100366  6.348008 26.176520
19116  1 44.643632  4.029434 26.175056
23275  1 46.351776  5.188756 28.204493
516    1 45.591443  6.345742 30.237505
12989  1 43.113970  6.345742 30.237505
19215  1 44.652485  4.028547 30.230386
2584   1 45.432774  2.868093 32.253945
15057  1 42.955301  2.868093 32.253945
615    1 45.652931  6.337112 34.300554
10899  1 43.909291  5.182372 32.265780
13088  1 43.175458  6.337111 34.300554
19314  1 44.712098  4.018476 34.293624
23374  1 46.386763  5.182372 32.265780
2683   1 45.525119  2.855038 36.321384
15156  1 43.047646  2.855038 36.321384
714    1 45.778305  6.343134 38.356206
10998  1 44.006120  5.172101 36.331445
13187  1 43.300832  6.343134 38.356206
19413  1 44.864455  4.011230 38.362221
23473  1 46.483593  5.172101 36.331445
2782   1 45.789668  2.868487 40.389556
15255  1 43.312195  2.868487 40.389556
813    1 45.983297  6.401588 42.396112
11097  1 44.198889  5.200163 40.382632
13286  1 43.505824  6.401588 42.396112
19512  1 45.164948  4.079176 42.402651
23572  1 46.676362  5.200163 40.382632
7137   1 42.905236  4.089077 46.420663
2881   1 46.163251  2.925349 44.409737
15354  1 43.685779  2.925349 44.409737
912    1 46.157723  6.424110 46.427592
11196  1 44.444055  5.257210 44.415204
13385  1 43.680251  6.424110 46.427592
19611  1 45.382709  4.089077 46.420663
7236   1 43.003623  4.076270 50.439555
2980   1 46.301031  2.909885 48.417077
15453  1 43.823558  2.909885 48.417077
1011   1 46.265425  6.416678 50.451843
11295  1 44.587633  5.252222 48.435352
13484  1 43.787952  6.416678 50.451843
19710  1 45.481095  4.076270 50.439555
3079   1 43.875501  2.903626 52.451116
15553  1 46.352974  2.903626 52.451116
23869  1 44.666523  5.243709 52.461345
19809  1 43.052363  4.072701 54.475402
3178   1 43.901484  2.903002 56.494339
15652  1 46.378957  2.903002 56.494339
1110   1 43.856479  6.412901 54.482368
7336   1 45.529836  4.072701 54.475402
13584  1 46.333952  6.412901 54.482368
23968  1 44.712976  5.243265 56.498530
19908  1 43.080291  4.073972 58.518166
3277   1 43.915341  2.904371 60.540506
15751  1 46.392813  2.904370 60.540506
1209   1 43.900823  6.415317 58.520469
7435   1 45.557763  4.073972 58.518167
13683  1 46.378296  6.415317 58.520469
24067  1 44.741089  5.246128 60.540953
20007  1 43.095442  4.076391 62.563634
3376   1 43.920807  2.906092 64.587899
15850  1 46.398280  2.906092 64.587899
1308   1 43.927373  6.419066 62.562744
7534   1 45.572914  4.076391 62.563634
13782  1 46.404845  6.419066 62.562744
24166  1 44.755437  5.249113 64.585957
20106  1 43.100506  4.078729 66.610515
3475   1 43.919204  2.908014 68.635977
15949  1 46.396677  2.908014 68.635977
1407   1 43.939079  6.422241 66.607560
7633   1 45.577978  4.078729 66.610515
13881  1 46.416551  6.422241 66.607560
24265  1 44.758183  5.251908 68.632425
20205  1 43.096624  4.081379 70.657970
3574   1 43.910684  2.910629 72.683914
16048  1 46.388157  2.910629 72.683914
1506   1 43.937806  6.425573 70.653670
7732   1 45.574097  4.081379 70.657970
13980  1 46.415279  6.425573 70.653670
24364  1 44.750141  5.255450 72.679066
20304  1 43.083491  4.085116 74.704609
1605   1 43.923792  6.430291 74.699274
7831   1 45.560963  4.085116 74.704609
14079  1 46.401265  6.430291 74.699274
3673   1 43.893906  2.914457 76.730180
16147  1 46.371379  2.914457 76.730180
1704   1 43.894905  6.436943 78.742058
7930   1 45.536144  4.090462 78.748376
14178  1 46.372377  6.436943 78.742058
20403  1 43.058671  4.090462 78.748376
24463  1 44.730218  5.260582 76.723943
3772   1 43.865085  2.919861 80.772613
16246  1 46.342558  2.919861 80.772613
1803   1 43.845566  6.444824 82.779675
8029   1 45.493834  4.097306 82.786987
14277  1 46.323038  6.444824 82.779675
20502  1 43.016362  4.097306 82.786987
24562  1 44.694561  5.267441 80.764722
3871   1 43.816121  2.926578 84.809143
16345  1 46.293594  2.926578 84.809143
1902   1 43.765801  6.449952 86.812211
8128   1 45.420388  4.104915 86.817249
14376  1 46.243273  6.449952 86.812211
20601  1 42.942916  4.104915 86.817249
24661  1 44.634451  5.275142 84.798903
3970   1 43.724283  2.934348 88.834541
16444  1 46.201755  2.934347 88.834541
2001   1 43.640653  6.437355 90.846545
8227   1 45.287926  4.102839 90.842992
14475  1 46.118126  6.437354 90.846545
24760  1 44.534048  5.277922 88.827920
4069   1 43.531841  2.918270 92.857904
16543  1 46.009313  2.918269 92.857904
21     1 45.938214  6.380487  9.949044
12494  1 43.460741  6.380488  9.949044
18720  1 45.059417  4.041926  9.939286
24859  1 44.368316  5.249045 92.862377
2100   1 45.944260  9.859046 11.990265
14573  1 43.466788  9.859046 11.990265
16652  1 45.057899  7.521876 11.976475
2199   1 45.832222  9.830783 16.038837
8435   1 44.199000  8.673171 14.006704
14672  1 43.354750  9.830783 16.038837
16751  1 44.933171  7.498188 16.026812
20910  1 46.676472  8.673171 14.006704
2298   1 45.758457  9.826622 20.093598
8534   1 44.102451  8.661559 18.060069
14771  1 43.280984  9.826622 20.093598
16850  1 44.852103  7.499684 20.085894
21009  1 46.579924  8.661559 18.060069
2397   1 45.718758  9.830548 24.151956
8633   1 44.043500  8.665223 22.119113
14870  1 43.241286  9.830548 24.151956
16949  1 44.808714  7.506395 24.147412
21108  1 46.520972  8.665223 22.119113
2496   1 45.712614  9.832293 28.211023
8732   1 44.019659  8.669422 26.179780
14969  1 43.235141  9.832293 28.211023
17048  1 44.802669  7.508079 28.208682
21207  1 46.497131  8.669422 26.179780
8831   1 44.032481  8.667995 30.240205
21306  1 46.509954  8.667995 30.240205
2595   1 45.741829  9.830603 32.267803
8930   1 44.085505  8.664880 34.297369
15068  1 43.264356  9.830603 32.267803
17147  1 44.837551  7.502824 32.270134
21405  1 46.562978  8.664880 34.297369
2694   1 45.810677  9.835488 36.317867
9029   1 44.186993  8.678514 38.345369
15167  1 43.333204  9.835488 36.317867
17246  1 44.920739  7.501103 36.327141
21504  1 46.664465  8.678515 38.345369
2793   1 45.926829  9.865996 40.359622
9128   1 44.340458  8.726378 42.385564
15266  1 43.449356  9.865996 40.359622
17345  1 45.067152  7.533124 40.371732
21603  1 46.817930  8.726378 42.385563
2892   1 46.067382  9.907050 44.400067
9227   1 44.482815  8.752824 46.423695
15365  1 43.589910  9.907050 44.400068
17444  1 45.246512  7.582651 44.410006
2991   1 46.182991  9.919069 48.437522
9326   1 44.587676  8.753001 50.455404
15464  1 43.705519  9.919069 48.437522
17543  1 45.376232  7.588235 48.440977
17642  1 42.987874  7.583298 52.469149
3090   1 43.797326  9.920022 52.470599
5169   1 45.465347  7.583298 52.469149
15564  1 46.274799  9.920022 52.470598
17741  1 43.050430  7.584106 56.502563
3189   1 43.871069  9.924471 56.504039
5268   1 45.527903  7.584106 56.502563
15663  1 46.348541  9.924471 56.504039
21900  1 44.666938  8.752556 54.486680
17840  1 43.091988  7.588444 60.541324
3288   1 43.924677  9.930926 60.540530
5367   1 45.569461  7.588444 60.541324
15762  1 46.402149  9.930926 60.540530
21999  1 44.725136  8.757036 58.521912
17939  1 43.115290  7.592334 64.583740
3387   1 43.956837  9.935438 64.580881
5466   1 45.592762  7.592334 64.583740
15861  1 46.434309  9.935438 64.580881
22098  1 44.762664  8.762020 62.561334
18038  1 43.122790  7.595598 68.628630
3486   1 43.969578  9.938611 68.624693
5565   1 45.600262  7.595598 68.628630
15960  1 46.447051  9.938611 68.624693
22197  1 44.781262  8.765581 66.604254
18137  1 43.115961  7.599741 72.674394
3585   1 43.964897  9.942810 72.670402
5664   1 45.593433  7.599741 72.674394
16059  1 46.442370  9.942810 72.670402
22296  1 44.783236  8.769123 70.649447
22395  1 44.769446  8.774412 74.694896
3684   1 43.942894  9.949443 76.715683
5763   1 45.571711  7.605876 76.718806
16158  1 46.420367  9.949442 76.715683
18236  1 43.094239  7.605876 76.718806
22494  1 44.738442  8.781924 78.738183
3783   1 43.901482  9.957571 80.758472
5862   1 45.531810  7.613764 80.759482
16257  1 46.378955  9.957571 80.758472
18335  1 43.054337  7.613765 80.759482
22593  1 44.686229  8.789661 82.777742
3882   1 43.836449  9.962263 84.798710
5961   1 45.467265  7.620463 84.795572
16356  1 46.313921  9.962262 84.798710
18434  1 42.989792  7.620463 84.795571
22692  1 44.606342  8.790793 86.815167
3981   1 43.741303  9.952411 88.839460
6060   1 45.368467  7.616361 88.830909
16455  1 46.218775  9.952411 88.839460
22791  1 44.489959  8.770550 90.855415
8336   1 44.337659  8.717066  9.961144
20811  1 46.815131  8.717065  9.961144
4080   1 43.610644  9.913642 92.883347
6159   1 45.224008  7.580895 92.871465
16554  1 46.088116  9.913642 92.883347
10415  1 44.346512 12.194793 12.005279
22890  1 46.823984 12.194793 12.005279
131    1 45.966799 13.343834 14.036436
10514  1 44.241588 12.164845 16.053041
12604  1 43.489327 13.343834 14.036436
18830  1 45.087479 11.008681 14.021154
22989  1 46.719061 12.164845 16.053041
230    1 45.881333 13.326429 18.084651
10613  1 44.172160 12.157676 20.104097
12703  1 43.403861 13.326429 18.084651
18929  1 44.998395 10.992664 18.071710
23088  1 46.649633 12.157676 20.104097
329    1 45.828817 13.325151 22.134779
10712  1 44.134378 12.159983 24.157658
12802  1 43.351345 13.325151 22.134779
19028  1 44.943923 10.992804 22.126495
23187  1 46.611851 12.159983 24.157658
428    1 45.805622 13.328368 26.186023
10811  1 44.126546 12.162522 28.211564
12901  1 43.328150 13.328368 26.186023
19127  1 44.921210 10.996026 26.183244
23286  1 46.604019 12.162522 28.211564
527    1 45.811023 13.331015 30.236087
13000  1 43.333551 13.331015 30.236087
19226  1 44.930535 10.996649 30.239012
626    1 45.846805 13.335931 34.281973
10910  1 44.149544 12.164184 32.262578
13099  1 43.369332 13.335931 34.281973
19325  1 44.974172 10.998462 34.290031
23385  1 46.627017 12.164184 32.262578
725    1 45.916844 13.352126 38.322664
11009  1 44.206765 12.172649 36.307660
13198  1 43.439371 13.352126 38.322664
19424  1 45.057633 11.014892 38.333635
23484  1 46.684237 12.172650 36.307660
824    1 46.017760 13.382172 42.362040
11108  1 44.302070 12.199305 40.347696
13297  1 43.540288 13.382172 42.362040
19523  1 45.179400 11.053300 42.373720
23583  1 46.779542 12.199306 40.347695
923    1 46.123468 13.404469 46.403433
11207  1 44.417989 12.232286 44.388485
13396  1 43.645996 13.404469 46.403433
19622  1 45.299842 11.078919 46.414577
23682  1 46.895461 12.232286 44.388485
1022   1 46.220493 13.414409 50.443707
11306  1 44.523089 12.246851 48.429063
13495  1 43.743020 13.414409 50.443707
19721  1 45.399992 11.085213 50.451760
23880  1 44.616107 12.253484 52.466425
1121   1 43.834386 13.425180 54.481317
7347   1 45.485571 11.090129 54.486178
13595  1 46.311859 13.425180 54.481317
23979  1 44.698843 12.263364 56.501771
19919  1 43.077646 11.098367 58.521022
1220   1 43.914615 13.438663 58.517191
7446   1 45.555119 11.098367 58.521022
13694  1 46.392088 13.438663 58.517191
24078  1 44.763390 12.272983 60.537712
20018  1 43.125502 11.104826 62.558736
1319   1 43.972466 13.446933 62.554533
7545   1 45.602974 11.104826 62.558736
13793  1 46.449938 13.446933 62.554532
24177  1 44.804274 12.277914 64.577052
20117  1 43.151215 11.108269 66.600466
1418   1 44.005595 13.449680 66.596137
7644   1 45.628687 11.108269 66.600466
13892  1 46.483068 13.449680 66.596137
24276  1 44.822820 12.280304 68.620673
20216  1 43.157212 11.111362 70.645548
1517   1 44.016498 13.451515 70.642118
7743   1 45.634684 11.111362 70.645548
13991  1 46.493970 13.451515 70.642118
24375  1 44.821342 12.283834 72.667372
1616   1 44.006865 13.455997 74.690753
7842   1 45.622359 11.116613 74.692014
14090  1 46.484338 13.455997 74.690753
20315  1 43.144886 11.116614 74.692014
1715   1 43.976761 13.463460 78.739856
7941   1 45.591154 11.124344 78.737561
14189  1 46.454233 13.463460 78.739856
20414  1 43.113681 11.124344 78.737561
24474  1 44.800519 12.290317 76.714942
1814   1 43.924818 13.469792 82.787922
8040   1 45.538652 11.131287 82.780960
14288  1 46.402291 13.469792 82.787922
20513  1 43.061180 11.131287 82.780960
24573  1 44.759353 12.298200 80.761440
1913   1 43.847491 13.465471 86.834806
8139   1 45.460325 11.128923 86.823368
14387  1 46.324963 13.465470 86.834806
24672  1 44.695055 12.301184 84.806444
2012   1 43.739840 13.437837 90.881237
8238   1 45.350085 11.103883 90.867370
14486  1 46.217313 13.437837 90.881237
24771  1 44.602498 12.287639 88.851313
32     1 46.086302 13.386790  9.989791
12505  1 43.608830 13.386790  9.989791
18731  1 45.212926 11.052352  9.974944
24870  1 44.479104 12.247010 92.897076
12396  1 46.956576 12.247009 92.897076
2111   1 46.087277 16.863292 12.035563
8347   1 44.479715 15.720652 10.004947
14584  1 43.609805 16.863292 12.035563
16663  1 45.220183 14.529435 12.020658
20822  1 46.957187 15.720652 10.004947
2210   1 45.982664 16.836296 16.080418
8446   1 44.359814 15.678770 14.051348
14683  1 43.505192 16.836296 16.080418
16762  1 45.117574 14.499948 16.067408
20921  1 46.837286 15.678770 14.051348
2309   1 45.913752 16.830852 20.123258
8545   1 44.274597 15.662660 18.096751
14782  1 43.436279 16.830852 20.123258
16861  1 45.049527 14.492463 20.114626
21020  1 46.752069 15.662659 18.096751
2408   1 45.874956 16.834065 24.166217
8644   1 44.221920 15.661998 22.141930
14881  1 43.397484 16.834065 24.166217
16960  1 45.011742 14.494670 24.162781
21119  1 46.699393 15.661998 22.141930
2507   1 45.862644 16.838635 28.209756
8743   1 44.197344 15.665918 26.187688
14980  1 43.385172 16.838634 28.209756
17059  1 45.001587 14.498293 28.211018
21218  1 46.674816 15.665918 26.187688
8842   1 44.199265 15.670036 30.232789
21317  1 46.676738 15.670036 30.232788
2606   1 45.876111 16.843684 32.252078
8941   1 44.228837 15.676338 34.274958
15079  1 43.398638 16.843684 32.252079
17158  1 45.019271 14.502224 32.256922
21416  1 46.706309 15.676338 34.274958
2705   1 45.917192 16.852863 36.291416
9040   1 44.288706 15.690570 38.313600
15178  1 43.439719 16.852862 36.291416
17257  1 45.067487 14.511842 36.298460
21515  1 46.766178 15.690570 38.313600
2804   1 45.986711 16.869610 40.328636
9139   1 44.375347 15.713057 42.351743
15277  1 43.509239 16.869610 40.328636
17356  1 45.147983 14.533671 40.336997
21614  1 46.852820 15.713057 42.351742
2903   1 46.075439 16.887706 44.367010
9238   1 44.471376 15.730575 46.392222
15376  1 43.597966 16.887706 44.367011
17455  1 45.247673 14.559036 44.376991
21713  1 46.948849 15.730575 46.392222
3002   1 46.170100 16.899208 48.407598
9337   1 44.567732 15.741661 50.433582
15475  1 43.692627 16.899208 48.407598
17554  1 45.345972 14.573204 48.418435
21812  1 47.045205 15.741661 50.433582
3101   1 43.793037 16.912686 52.448927
5180   1 45.441472 14.584166 52.458576
15575  1 46.270509 16.912686 52.448926
3200   1 43.897800 16.935977 56.488246
5279   1 45.533801 14.600470 56.496140
15674  1 46.375272 16.935978 56.488246
21911  1 44.666701 15.757909 54.473521
17851  1 43.131988 14.614125 60.532648
3299   1 43.986321 16.954145 60.525806
5378   1 45.609460 14.614125 60.532647
15773  1 46.463794 16.954145 60.525806
22010  1 44.759095 15.777733 58.510806
17950  1 43.181760 14.619160 64.572181
3398   1 44.045723 16.958587 64.566669
5477   1 45.659232 14.619160 64.572181
15872  1 46.523195 16.958587 64.566668
22109  1 44.827482 15.787848 62.548814
3497   1 44.078103 16.956839 68.613143
5576   1 45.684272 14.619950 68.616692
15971  1 46.555576 16.956839 68.613143
18049  1 43.206799 14.619950 68.616692
22208  1 44.868586 15.789134 66.591477
3596   1 44.086233 16.956585 72.664352
5675   1 45.687089 14.621982 72.665366
16070  1 46.563706 16.956585 72.664352
18148  1 43.209617 14.621982 72.665366
22307  1 44.885358 15.788821 70.639318
22406  1 44.879482 15.791821 74.690814
3695   1 44.070766 16.961142 76.718583
5774   1 45.668558 14.627727 76.716199
16169  1 46.548238 16.961141 76.718583
18247  1 43.191086 14.627727 76.716199
22505  1 44.851121 15.798791 78.743994
3794   1 44.031347 16.968869 80.774102
5873   1 45.628283 14.635375 80.767192
16268  1 46.508819 16.968868 80.774102
18346  1 43.150811 14.635375 80.767192
22604  1 44.799445 15.805281 82.796960
3893   1 43.966457 16.972371 84.828691
5972   1 45.564312 14.637814 84.816994
16367  1 46.443929 16.972371 84.828691
22703  1 44.721495 15.801048 86.847995
3992   1 43.871821 16.958378 88.879837
6071   1 45.472121 14.622832 88.865120
16466  1 46.349293 16.958377 88.879837
22802  1 44.612489 15.772678 90.896155
4091   1 43.744869 16.915461 92.926988
6170   1 45.350009 14.580914 92.911870
16565  1 46.222341 16.915460 92.926987
18742  1 45.347097 18.054057 10.019662
43     1 46.209165 20.386937 10.033192
10426  1 44.468680 19.196663 12.049121
12516  1 43.731692 20.386937 10.033193
16674  1 45.315731 21.530049 12.060200
22901  1 46.946152 19.196663 12.049121
18841  1 45.220572 18.013933 14.064785
142    1 46.069242 20.350130 14.075417
10525  1 44.358190 19.174521 16.090590
12615  1 43.591769 20.350130 14.075417
16773  1 45.196499 21.515729 16.095972
23000  1 46.835662 19.174521 16.090590
18940  1 45.132939 18.001597 18.106331
241    1 45.977823 20.343777 18.111694
10624  1 44.287437 19.172860 20.128457
12714  1 43.500350 20.343778 18.111694
16872  1 45.125343 21.518447 20.128944
23099  1 46.764909 19.172860 20.128457
19039  1 45.079139 18.002982 22.146540
340    1 45.923797 20.347629 22.147616
10723  1 44.248065 19.177406 24.167222
12813  1 43.446325 20.347629 22.147617
16971  1 45.087733 21.523690 24.165612
23198  1 46.725537 19.177406 24.167221
19138  1 45.053342 18.007761 26.187904
439    1 45.898234 20.352782 26.186552
10822  1 44.234571 19.182392 28.207916
12912  1 43.420762 20.352782 26.186553
17070  1 45.074692 21.528347 28.205698
23297  1 46.712043 19.182392 28.207915
19237  1 45.052648 18.012598 30.229748
538    1 45.896061 20.357552 30.227233
13011  1 43.418589 20.357551 30.227233
19336  1 45.077206 18.019038 34.269904
637    1 45.916283 20.363354 34.267197
10921  1 44.244800 19.187603 32.248604
13110  1 43.438811 20.363354 34.267198
17169  1 45.082487 21.533010 32.246642
23396  1 46.722272 19.187603 32.248603
19435  1 45.128858 18.030529 38.307431
736    1 45.960401 20.372043 38.304914
11020  1 44.279731 19.195504 36.287258
13209  1 43.482928 20.372043 38.304914
17268  1 45.111480 21.539328 36.286247
23495  1 46.757203 19.195504 36.287257
19534  1 45.205100 18.046193 42.344140
835    1 46.027823 20.381867 42.340647
11119  1 44.340248 19.207474 40.323759
13308  1 43.550351 20.381867 42.340647
17367  1 45.163208 21.547329 40.323313
23594  1 46.817721 19.207474 40.323759
19633  1 45.294918 18.057990 46.382546
934    1 46.113240 20.387509 46.376136
11218  1 44.420977 19.218750 44.360067
13407  1 43.635768 20.387509 46.376136
17466  1 45.236521 21.552714 44.357914
23693  1 46.898449 19.218750 44.360067
19732  1 45.393177 18.067799 50.423176
1033   1 46.215747 20.393573 50.414053
11317  1 44.514427 19.225739 48.398210
13506  1 43.738274 20.393573 50.414053
17565  1 45.329913 21.553838 48.392132
23792  1 46.991899 19.225739 48.398210
5191   1 45.449745 21.565085 52.430211
11417  1 47.100272 19.239528 52.439022
23891  1 44.622799 19.239528 52.439022
7358   1 45.503093 18.088679 54.464299
1132   1 43.863966 20.417749 54.454954
5290   1 45.597446 21.604009 56.470428
13606  1 46.341439 20.417749 54.454954
23990  1 44.745004 19.270317 56.479315
7457   1 45.611266 18.115772 58.502787
1231   1 43.994087 20.453168 58.494212
5389   1 45.723949 21.630602 60.510891
13705  1 46.471559 20.453168 58.494212
24089  1 44.849792 19.293017 60.518127
20029  1 43.214295 18.127189 62.542255
7556   1 45.691767 18.127189 62.542255
1330   1 44.089334 20.464507 62.536090
5488   1 45.807132 21.629328 64.558469
13804  1 46.566807 20.464507 62.536089
17961  1 43.329660 21.629328 64.558469
24188  1 44.920182 19.295588 64.561518
7655   1 45.741739 18.125959 66.587181
20128  1 43.264267 18.125959 66.587181
1429   1 44.149221 20.459445 66.584602
5587   1 45.856151 21.619998 68.611477
13903  1 46.626694 20.459445 66.584602
18060  1 43.378679 21.619998 68.611477
24287  1 44.960752 19.290353 68.610911
7754   1 45.765291 18.122672 70.637544
20227  1 43.287819 18.122672 70.637544
1528   1 44.179977 20.452740 70.637632
5686   1 45.876033 21.614347 72.666246
14002  1 46.657450 20.452740 70.637632
18159  1 43.398561 21.614347 72.666246
24386  1 44.974894 19.287307 72.664482
7853   1 45.764010 18.123635 74.691737
20326  1 43.286538 18.123635 74.691737
1627   1 44.183690 20.451484 74.693202
14101  1 46.661162 20.451484 74.693202
7952   1 45.737751 18.129997 78.748493
20425  1 43.260278 18.129997 78.748493
1726   1 44.160137 20.456986 78.751640
5785   1 45.868345 21.615758 76.722675
14200  1 46.637610 20.456986 78.751640
18258  1 43.390872 21.615758 76.722675
24485  1 44.963094 19.290352 76.721042
8051   1 45.685605 18.137593 82.806166
1825   1 44.107399 20.466167 82.813123
5884   1 45.831828 21.623596 80.782990
14299  1 46.584872 20.466167 82.813123
18357  1 43.354355 21.623596 80.782990
24584  1 44.924541 19.298369 80.780152
8150   1 45.604889 18.135775 86.861539
1924   1 44.021795 20.469113 86.873677
5983   1 45.762191 21.633243 84.847028
14398  1 46.499267 20.469112 86.873677
24683  1 44.857365 19.304539 84.839605
8249   1 45.490098 18.108680 90.911358
2023   1 43.895937 20.446119 90.926112
6082   1 45.652602 21.630174 88.907441
14497  1 46.373409 20.446119 90.926112
24782  1 44.757010 19.294338 88.894415
6181   1 45.492182 21.587714 92.955576
24881  1 44.618110 19.250910 92.941747
12407  1 47.095582 19.250910 92.941747
14595  1 43.665348 23.864912 12.066599
2122   1 46.142821 23.864912 12.066599
8358   1 44.584554 22.719025 10.044645
18753  1 45.417669 25.050131 10.052159
20833  1 47.062027 22.719024 10.044645
14694  1 43.538668 23.861353 16.093896
2221   1 46.016140 23.861353 16.093896
8457   1 44.423511 22.688920 14.081034
18852  1 45.229753 25.033012 14.077663
20932  1 46.900983 22.688919 14.081034
14793  1 43.473138 23.866971 20.124551
2320   1 45.950610 23.866971 20.124550
8556   1 44.330166 22.689762 18.111058
18951  1 45.144509 25.039208 18.104026
21031  1 46.807638 22.689762 18.111058
2419   1 45.918761 23.871673 24.162179
8655   1 44.279665 22.695100 22.144999
14892  1 43.441288 23.871673 24.162180
19050  1 45.104107 25.044021 22.140234
21130  1 46.757138 22.695100 22.144999
2518   1 45.907917 23.875398 28.203468
8754   1 44.256861 22.699755 26.184006
14991  1 43.430444 23.875398 28.203468
19149  1 45.086536 25.047611 26.181030
21229  1 46.734333 22.699755 26.184006
8853   1 44.254392 22.703806 30.225384
19248  1 45.084863 25.050461 30.224333
21328  1 46.731864 22.703807 30.225384
2617   1 45.913939 23.878997 32.246085
8952   1 44.270595 22.708506 34.266752
15090  1 43.436466 23.878996 32.246085
19347  1 45.097220 25.053727 34.268089
21427  1 46.748068 22.708506 34.266752
2716   1 45.936788 23.883635 36.288004
9051   1 44.306818 22.714747 38.306257
15189  1 43.459316 23.883635 36.288004
19446  1 45.124761 25.057850 38.310686
21526  1 46.784291 22.714747 38.306257
2815   1 45.978521 23.888732 40.327498
9150   1 44.364704 22.720178 42.342523
15288  1 43.501048 23.888732 40.327498
19545  1 45.170467 25.060595 42.350026
21625  1 46.842176 22.720178 42.342523
2914   1 46.042109 23.889994 44.362306
9249   1 44.445074 22.720135 46.375171
15387  1 43.564636 23.889994 44.362306
19644  1 45.241196 25.056880 46.382216
21724  1 46.922547 22.720135 46.375171
3013   1 46.133753 23.885049 48.392000
9348   1 44.553195 22.720035 50.408035
15486  1 43.656280 23.885049 48.392000
19743  1 45.352766 25.049165 50.408069
21823  1 47.030668 22.720035 50.408035
3112   1 43.790864 23.889977 52.424059
15586  1 46.268336 23.889977 52.424059
3211   1 43.977827 23.937588 56.462498
7369   1 45.533517 25.070598 54.440497
15685  1 46.455300 23.937588 56.462498
21922  1 44.701537 22.745146 54.446597
9448   1 47.179010 22.745146 54.446597
3310   1 44.134806 23.966095 60.505980
7468   1 45.747692 25.126837 58.480177
15784  1 46.612279 23.966095 60.505981
22021  1 44.863987 22.790262 58.486189
3409   1 44.232362 23.958456 64.560231
7567   1 45.884781 25.128267 62.534115
15883  1 46.709835 23.958456 64.560231
20040  1 43.407309 25.128268 62.534115
22120  1 44.977740 22.798883 62.532274
3508   1 44.287965 23.945591 68.616559
7666   1 45.963183 25.113145 66.593310
15982  1 46.765438 23.945591 68.616559
20139  1 43.485710 25.113145 66.593310
22219  1 45.048036 22.788760 66.585833
3607   1 44.311268 23.938654 72.670079
7765   1 46.001714 25.102801 70.647303
16081  1 46.788740 23.938654 72.670079
20238  1 43.524242 25.102802 70.647303
22318  1 45.084884 22.779147 70.640725
7864   1 46.012025 25.099311 74.697840
20337  1 43.534552 25.099311 74.697840
22417  1 45.092930 22.776193 74.695204
3706   1 44.307695 23.938671 76.723300
7963   1 45.998318 25.101594 78.750007
16180  1 46.785167 23.938671 76.723300
20436  1 43.520845 25.101594 78.750007
22516  1 45.073450 22.780292 78.752062
3805   1 44.276521 23.944926 80.780894
8062   1 45.955522 25.109346 82.808929
16279  1 46.753994 23.944926 80.780894
20535  1 43.478049 25.109346 82.808929
22615  1 45.022468 22.790113 82.814788
3904   1 44.208487 23.956489 84.846963
8161   1 45.865364 25.122784 86.879650
16378  1 46.685959 23.956489 84.846963
20634  1 43.387891 25.122785 86.879651
22714  1 44.931408 22.799350 86.881531
4003   1 44.087596 23.963827 88.916135
8260   1 45.696816 25.124153 90.949488
16477  1 46.565069 23.963826 88.916135
22813  1 44.787794 22.785029 90.939525
4102   1 43.890150 23.926584 92.967882
16576  1 46.367622 23.926583 92.967882
12527  1 43.712633 27.383180 10.052468
54     1 46.190105 27.383180 10.052468
10437  1 44.453504 26.205466 12.063358
16685  1 45.170987 28.559705 12.041230
22912  1 46.930977 26.205466 12.063358
12626  1 43.524478 27.384730 14.061617
153    1 46.001950 27.384730 14.061616
10536  1 44.337069 26.211726 16.083117
16784  1 45.122938 28.562005 16.076180
23011  1 46.814542 26.211726 16.083116
12725  1 43.470496 27.389405 18.096481
252    1 45.947969 27.389405 18.096480
10635  1 44.288771 26.216669 20.118230
16883  1 45.097340 28.567031 20.112580
23110  1 46.766243 26.216669 20.118229
12824  1 43.444684 27.393503 22.135280
351    1 45.922157 27.393503 22.135279
10734  1 44.266083 26.220342 24.158231
16982  1 45.087067 28.568985 24.155395
23209  1 46.743556 26.220342 24.158231
12923  1 43.434602 27.395567 26.178663
450    1 45.912074 27.395567 26.178662
10833  1 44.259031 26.222695 28.201758
17081  1 45.084979 28.569744 28.201151
23308  1 46.736504 26.222696 28.201757
13022  1 43.434577 27.396919 30.224233
549    1 45.912049 27.396919 30.224233
13121  1 43.443232 27.398477 34.270533
648    1 45.920704 27.398477 34.270533
10932  1 44.263815 26.224868 32.246695
17180  1 45.088899 28.570255 32.248216
23407  1 46.741287 26.224868 32.246695
747    1 45.938965 27.400498 38.316582
11031  1 44.280283 26.227692 36.291566
13220  1 43.461493 27.400498 38.316582
17279  1 45.098893 28.571038 36.295758
23506  1 46.757755 26.227692 36.291566
846    1 45.969739 27.401524 42.360794
11130  1 44.310457 26.230593 40.334944
13319  1 43.492266 27.401524 42.360794
17378  1 45.116504 28.571801 40.343072
23605  1 46.787930 26.230592 40.334944
945    1 46.021576 27.397666 46.398548
11229  1 44.359230 26.230127 44.373755
13418  1 43.544103 27.397666 46.398548
17477  1 45.145893 28.570718 44.388121
23704  1 46.836702 26.230127 44.373755
1044   1 46.124149 27.384543 50.419381
11328  1 44.441362 26.221404 48.401602
13517  1 43.646676 27.384543 50.419381
17576  1 45.201574 28.564014 48.424224
23803  1 46.918835 26.221404 48.401602
5202   1 45.344308 28.548264 52.433500
11428  1 47.067542 26.215961 52.423348
23902  1 44.590069 26.215961 52.423349
1143   1 43.870711 27.393709 54.438954
5301   1 45.724934 28.604084 56.455121
13617  1 46.348184 27.393709 54.438953
24001  1 44.842810 26.271449 56.456677
1242   1 44.180087 27.460394 58.479674
5400   1 45.998884 28.615806 60.523223
13716  1 46.657559 27.460394 58.479674
17873  1 43.521411 28.615806 60.523223
24100  1 45.045704 26.296777 60.507101
1341   1 44.342768 27.449041 62.547195
5499   1 46.102535 28.598165 64.589310
13815  1 46.820241 27.449041 62.547195
17972  1 43.625062 28.598165 64.589310
24199  1 45.155808 26.281187 64.570392
1440   1 44.417709 27.433418 66.607255
5598   1 46.143398 28.589644 68.638183
13914  1 46.895181 27.433418 66.607255
18071  1 43.665926 28.589644 68.638183
24298  1 45.210758 26.267987 68.626501
1539   1 44.450027 27.425537 70.655912
5697   1 46.160054 28.585362 72.681488
14013  1 46.927500 27.425537 70.655912
18170  1 43.682581 28.585362 72.681488
24397  1 45.232933 26.261832 72.675572
1638   1 44.460135 27.422436 74.701023
14112  1 46.937608 27.422436 74.701023
1737   1 44.453519 27.422949 78.747384
5796   1 46.163151 28.583885 76.724317
14211  1 46.930991 27.422949 78.747384
18269  1 43.685679 28.583885 76.724317
24496  1 45.232983 26.260926 76.723534
1836   1 44.426371 27.426933 82.798928
5895   1 46.153979 28.584811 80.769940
14310  1 46.903844 27.426933 82.798928
18368  1 43.676507 28.584811 80.769940
24595  1 45.211256 26.264513 80.775208
1935   1 44.358515 27.435885 86.861480
5994   1 46.125257 28.588354 84.821267
14409  1 46.835987 27.435885 86.861479
18467  1 43.647784 28.588354 84.821267
24694  1 45.156456 26.273172 84.835939
2034   1 44.175681 27.455701 90.946776
6093   1 46.043690 28.596588 88.884658
14508  1 46.653154 27.455700 90.946776
18566  1 43.566217 28.596588 88.884658
24793  1 45.033437 26.289171 88.913137
6192   1 45.693677 28.602239 92.974095
24892  1 44.770577 26.267977 92.977356
12418  1 47.248049 26.267977 92.977356
2133   1 45.889978 30.913091 12.065386
8369   1 44.215509 29.741527 10.052648
18764  1 45.079217 32.079653 10.052128
20844  1 46.692981 29.741527 10.052648
2232   1 45.897074 30.916223 16.072978
8468   1 44.283276 29.734785 14.061392
18863  1 45.026948 32.095066 14.061882
20943  1 46.760748 29.734785 14.061392
2331   1 45.902346 30.917467 20.110710
8567   1 44.265320 29.741025 18.091085
18962  1 45.057044 32.093084 18.091683
21042  1 46.742793 29.741025 18.091084
2430   1 45.906477 30.917332 24.155066
8666   1 44.259090 29.742915 22.132455
19061  1 45.072578 32.092114 22.133410
21141  1 46.736563 29.742915 22.132454
2529   1 45.909951 30.916410 28.202087
8765   1 44.258045 29.743231 26.177910
19160  1 45.081129 32.090585 26.179384
21240  1 46.735517 29.743231 26.177910
8864   1 44.260184 29.742940 30.225219
19259  1 45.085609 32.088569 30.227342
21339  1 46.737657 29.742940 30.225218
2628   1 45.913199 30.915118 32.250431
8963   1 44.265259 29.742568 34.273442
19358  1 45.087130 32.086140 34.276365
21438  1 46.742732 29.742567 34.273442
2727   1 45.916708 30.913645 36.299591
9062   1 44.273988 29.742263 38.322175
19457  1 45.086214 32.083310 38.326183
21537  1 46.751460 29.742263 38.322175
2826   1 45.921356 30.911985 40.349380
9161   1 44.288309 29.741498 42.370760
19556  1 45.083530 32.080371 42.376551
21636  1 46.765781 29.741498 42.370760
2925   1 45.929221 30.909911 44.398962
9260   1 44.313919 29.738730 46.416583
19655  1 45.080134 32.077948 46.426069
21735  1 46.791391 29.738730 46.416582
3024   1 45.946554 30.906646 48.445117
9359   1 44.374190 29.730533 50.450240
19754  1 45.077055 32.076373 50.470094
21834  1 46.851662 29.730533 50.450240
3123   1 43.528802 30.899087 52.474182
15597  1 46.006275 30.899087 52.474182
3222   1 44.228411 30.910446 56.483247
15696  1 46.705883 30.910446 56.483247
19853  1 45.074990 32.075983 54.470904
21933  1 44.618087 29.717673 54.442311
9459   1 47.095559 29.717672 54.442310
3321   1 44.542277 30.919954 60.557395
7479   1 46.311169 32.076517 58.541977
15795  1 47.019749 30.919953 60.557395
19952  1 43.833697 32.076517 58.541977
22032  1 45.157890 29.779709 58.499594
3420   1 44.587432 30.915711 64.605433
7578   1 46.309736 32.075691 62.587095
15894  1 47.064904 30.915711 64.605433
20051  1 43.832264 32.075691 62.587095
22131  1 45.314596 29.760984 62.572675
3519   1 44.603576 30.912357 68.647046
7677   1 46.310570 32.074784 66.629457
15993  1 47.081049 30.912357 68.647046
20150  1 43.833098 32.074784 66.629457
22230  1 45.361539 29.753334 66.621689
3618   1 44.612016 30.909835 72.686403
7776   1 46.313311 32.073304 70.668757
16092  1 47.089489 30.909835 72.686403
20249  1 43.835838 32.073304 70.668757
22329  1 45.380857 29.748926 70.663872
7875   1 46.318566 32.071231 74.707770
20348  1 43.841094 32.071231 74.707770
22428  1 45.388974 29.746442 74.704465
3717   1 44.617743 30.907846 76.726355
7974   1 46.327654 32.068778 78.748787
16191  1 47.095215 30.907845 76.726354
20447  1 43.850182 32.068778 78.748787
22527  1 45.390150 29.745449 78.746502
3816   1 44.622642 30.906493 80.768947
8073   1 46.343818 32.066341 82.793680
16290  1 47.100114 30.906493 80.768946
20546  1 43.866345 32.066341 82.793680
22626  1 45.383765 29.746025 82.792087
3915   1 44.627712 30.906120 84.815542
8172   1 46.376856 32.064568 86.843897
16389  1 47.105185 30.906119 84.815542
20645  1 43.899384 32.064569 86.843897
22725  1 45.361395 29.748205 86.842757
4014   1 44.633054 30.906768 88.865265
8271   1 46.465784 32.056321 90.902226
16488  1 47.110526 30.906767 88.865265
20744  1 43.988312 32.056322 90.902226
22824  1 45.281715 29.758956 90.902892
4113   1 44.639539 30.910624 92.937453
16587  1 47.117011 30.910623 92.937453
10448  1 44.132065 33.266320 12.041912
22923  1 46.609537 33.266319 12.041912
65     1 45.581730 34.439274 10.054683
8380   1 43.875148 36.772939 10.055410
16696  1 44.848818 35.621144 12.065508
20855  1 46.352620 36.772938 10.055410
4223   1 47.326291 35.621144 12.065507
10547  1 44.193919 33.270485 16.077183
23022  1 46.671392 33.270485 16.077183
164    1 45.786023 34.445169 14.062853
8479   1 44.080953 36.797292 14.080148
16795  1 44.980485 35.620819 16.085095
4322   1 47.457958 35.620818 16.085094
10646  1 44.230226 33.267821 20.114092
23121  1 46.707698 33.267821 20.114091
263    1 45.852446 34.444660 18.098295
8578   1 44.179694 36.794751 18.107087
16894  1 45.039869 35.617933 20.121277
10745  1 44.248835 33.265484 24.157788
23220  1 46.726307 33.265484 24.157787
362    1 45.887772 34.441243 22.138151
8677   1 44.229971 36.790154 22.145041
16993  1 45.071097 35.613544 24.163013
10844  1 44.257900 33.262800 28.204707
23319  1 46.735373 33.262800 28.204707
461    1 45.905455 34.437771 26.183068
8776   1 44.255301 36.784784 26.188332
17092  1 45.085189 35.609034 28.208800
560    1 45.912101 34.433982 30.230534
8875   1 44.263534 36.779289 30.234615
10943  1 44.260455 33.259645 32.253185
23418  1 46.737927 33.259644 32.253185
659    1 45.909919 34.429520 34.279104
8974   1 44.257273 36.773016 34.281735
17191  1 45.086768 35.604078 32.256396
11042  1 44.257387 33.255847 36.302505
23517  1 46.734859 33.255847 36.302505
758    1 45.899143 34.424202 38.328110
9073   1 44.236274 36.765508 38.328314
17290  1 45.076850 35.598111 36.304442
21548  1 46.713746 36.765507 38.328314
11141  1 44.248851 33.251614 40.352405
23616  1 46.726324 33.251614 40.352405
857    1 45.879161 34.419102 42.376864
9172   1 44.198927 36.758663 42.372785
17389  1 45.054824 35.591505 40.352062
21647  1 46.676399 36.758663 42.372785
11240  1 44.234545 33.248175 44.402060
23715  1 46.712018 33.248175 44.402060
956    1 45.846453 34.417076 46.422781
5015   1 47.495845 35.587119 44.397281
9271   1 44.139072 36.757872 46.410632
17488  1 45.018373 35.587119 44.397281
21746  1 46.616544 36.757872 46.410632
11339  1 44.210428 33.247470 48.448239
23814  1 46.687900 33.247469 48.448239
1055   1 45.779627 34.422348 50.456324
5114   1 47.432765 35.590055 48.433398
9370   1 44.029083 36.768414 50.431316
17587  1 44.955293 35.590055 48.433398
21845  1 46.506556 36.768414 50.431315
11438  1 44.145253 33.252883 52.477013
23913  1 46.622725 33.252883 52.477012
5213   1 47.283754 35.604020 52.442470
17686  1 44.806282 35.604020 52.442470
9469   1 43.798300 36.758823 54.450900
24012  1 45.914046 33.242407 56.487542
1154   1 45.530240 34.434555 54.448392
5312   1 46.896120 35.548817 56.464680
17785  1 44.418648 35.548817 56.464681
21944  1 46.275773 36.758823 54.450900
24111  1 45.600019 33.232187 60.560555
1253   1 44.984672 34.373571 58.506326
5411   1 46.619451 35.536961 60.532297
13727  1 47.462144 34.373571 58.506326
17884  1 44.141979 35.536961 60.532297
22043  1 45.961248 36.692946 58.491422
24210  1 45.554764 33.234962 64.608339
1352   1 44.826658 34.390718 62.578605
5510   1 46.515517 35.553107 64.597785
13826  1 47.304131 34.390718 62.578605
17983  1 44.038045 35.553107 64.597786
22142  1 45.796359 36.703490 62.558464
24309  1 45.542057 33.235960 68.649869
1451   1 44.781232 34.396533 66.627331
5609   1 46.477746 35.559251 68.646456
13925  1 47.258705 34.396533 66.627331
18082  1 44.000274 35.559251 68.646456
22241  1 45.722379 36.717330 66.618132
24408  1 45.541361 33.234883 72.689318
1550   1 44.767237 34.397943 70.669497
5708   1 46.468486 35.559806 72.689964
14024  1 47.244709 34.397943 70.669497
18181  1 43.991013 35.559806 72.689964
22340  1 45.694834 36.722166 70.666747
1649   1 44.769439 34.396149 74.710527
14123  1 47.246912 34.396149 74.710527
22439  1 45.694349 36.720734 74.712395
24507  1 45.549433 33.232210 76.729741
1748   1 44.785969 34.391920 78.754061
5807   1 46.478595 35.556261 76.733863
14222  1 47.263441 34.391920 78.754061
18280  1 44.001122 35.556261 76.733863
22538  1 45.717076 36.714429 78.760581
24606  1 45.568313 33.228430 80.773717
1847   1 44.822801 34.385787 82.803617
5906   1 46.509695 35.549456 80.782521
14321  1 47.300273 34.385786 82.803616
18379  1 44.032222 35.549457 80.782521
22637  1 45.769309 36.704042 82.816461
24705  1 45.607185 33.223994 84.823935
1946   1 44.901508 34.377137 86.864762
6005   1 46.574638 35.539512 84.841128
14420  1 47.378980 34.377136 86.864761
18478  1 44.097166 35.539512 84.841129
22736  1 45.870782 36.690224 86.885310
24804  1 45.699932 33.217659 88.886186
2045   1 45.098527 34.360200 90.949407
6104   1 46.710211 35.524856 88.917254
18577  1 44.232739 35.524856 88.917254
22835  1 46.054319 36.691921 90.954086
12428  1 43.592828 33.218915 92.975182
24903  1 46.070300 33.218914 92.975182
6203   1 46.991381 35.552140 92.980484
18676  1 44.513909 35.552140 92.980484
2144   1 45.636818 37.962288 12.069917
10459  1 43.987065 40.297889 12.064575
18775  1 44.707683 39.104556 10.049161
22934  1 46.464537 40.297889 12.064575
6302   1 47.185156 39.104556 10.049161
20954  1 46.558426 36.797292 14.080148
2243   1 45.780009 37.971418 16.097112
10558  1 44.124209 40.317335 16.100305
18874  1 44.888133 39.141907 14.084652
23033  1 46.601681 40.317335 16.100305
6401   1 47.365605 39.141907 14.084651
21053  1 46.657167 36.794751 18.107086
2342   1 45.857394 37.967204 20.129164
10657  1 44.208054 40.315107 20.135188
18973  1 44.996038 39.144092 18.115468
23132  1 46.685527 40.315107 20.135188
6500   1 47.473510 39.144092 18.115468
21152  1 46.707444 36.790154 22.145041
2441   1 45.898085 37.961240 24.169358
10756  1 44.254882 40.307836 24.175239
19072  1 45.056979 39.138195 22.151779
23231  1 46.732354 40.307836 24.175239
6599   1 47.534452 39.138195 22.151779
21251  1 46.732773 36.784784 26.188332
2540   1 45.915999 37.955028 28.213880
10855  1 44.274883 40.300350 28.219361
19171  1 45.087709 39.131250 26.194177
23330  1 46.752355 40.300350 28.219361
6698   1 47.565182 39.131250 26.194177
21350  1 46.741007 36.779289 30.234615
19270  1 45.096495 39.124361 30.239359
6797   1 47.573967 39.124361 30.239359
21449  1 46.734746 36.773016 34.281735
2639   1 45.916007 37.948530 32.260069
6896   1 47.563022 39.116729 34.284595
10954  1 44.272386 40.292846 32.264321
19369  1 45.085550 39.116729 34.284595
23429  1 46.749859 40.292846 32.264321
2738   1 45.898799 37.940770 36.305842
6995   1 47.531461 39.107426 38.327927
11053  1 44.247374 40.283809 36.307562
19468  1 45.053988 39.107426 38.327928
23528  1 46.724846 40.283809 36.307562
2837   1 45.863075 37.932154 40.349636
7094   1 47.477556 39.098947 42.367466
11152  1 44.198224 40.273249 40.347431
19567  1 45.000083 39.098947 42.367467
23627  1 46.675697 40.273249 40.347431
2936   1 45.805956 37.927230 44.388585
7193   1 47.397263 39.098212 46.399586
11251  1 44.124259 40.266689 44.382157
19666  1 44.919791 39.098212 46.399587
23726  1 46.601732 40.266689 44.382157
3035   1 45.715290 37.932484 48.416348
7292   1 47.276980 39.103812 50.425072
11350  1 44.022432 40.268564 48.411463
19765  1 44.799508 39.103812 50.425072
23825  1 46.499905 40.268564 48.411462
3134   1 45.559109 37.936593 52.437787
11449  1 43.879080 40.262908 52.442750
23924  1 46.356552 40.262908 52.442750
3233   1 45.299855 37.881639 56.470713
7391   1 47.088705 39.082317 54.456874
19864  1 44.611233 39.082317 54.456874
24023  1 46.162384 40.216054 56.480332
3332   1 45.092897 37.856651 60.520842
7490   1 46.868792 39.026919 58.496017
19963  1 44.391319 39.026919 58.496018
24122  1 46.000276 40.188245 60.523398
3431   1 44.981590 37.871176 64.583759
7589   1 46.728395 39.025342 62.549691
15905  1 47.459063 37.871176 64.583758
20062  1 44.250922 39.025342 62.549691
24221  1 45.900305 40.195365 64.577499
3530   1 44.928947 37.882087 68.639660
7688   1 46.649904 39.039011 66.608664
16004  1 47.406419 37.882087 68.639659
20161  1 44.172432 39.039011 66.608664
24320  1 45.845718 40.206270 68.633749
3629   1 44.913301 37.884436 72.688859
7787   1 46.615066 39.046429 70.662579
16103  1 47.390773 37.884436 72.688858
20260  1 44.137594 39.046429 70.662580
24419  1 45.827365 40.209625 72.687118
7886   1 46.612913 39.045352 74.713232
20359  1 44.135441 39.045352 74.713232
3728   1 44.925006 37.880005 76.737606
7985   1 46.639779 39.037205 78.765838
16202  1 47.402479 37.880004 76.737606
20458  1 44.162307 39.037206 78.765838
24518  1 45.840162 40.204499 76.739878
3827   1 44.964822 37.870144 80.791320
8084   1 46.699701 39.024173 82.824849
16301  1 47.442295 37.870143 80.791320
20557  1 44.222229 39.024174 82.824850
24617  1 45.884046 40.192856 80.796046
3926   1 45.043010 37.856585 84.854551
8183   1 46.802248 39.013791 86.889062
16400  1 47.520482 37.856584 84.854551
20656  1 44.324775 39.013792 86.889062
24716  1 45.963546 40.180450 84.856587
4025   1 45.177016 37.850138 88.922117
8282   1 46.961609 39.031063 90.945552
20755  1 44.484136 39.031063 90.945552
24815  1 46.086777 40.183741 88.914783
12439  1 43.788983 40.231976 92.961405
4124   1 45.392619 37.893228 92.972505
24914  1 46.266456 40.231976 92.961405
76     1 45.560325 41.437160 10.038628
8391   1 43.945021 43.770579 10.025536
16707  1 44.835565 42.632179 12.054167
20866  1 46.422494 43.770578 10.025536
4234   1 47.313037 42.632179 12.054167
175    1 45.721804 41.481393 14.079931
8490   1 44.096242 43.818433 14.069813
16806  1 44.965818 42.658844 16.095824
20965  1 46.573715 43.818432 14.069813
4333   1 47.443291 42.658844 16.095824
274    1 45.828976 41.489858 18.117381
8589   1 44.201094 43.831533 18.113247
16905  1 45.050188 42.659725 20.136386
21064  1 46.678566 43.831533 18.113247
4432   1 47.527661 42.659724 20.136386
373    1 45.894053 41.484413 22.156474
4531   1 47.576571 42.652246 24.179473
8688   1 44.266575 43.827255 22.157720
17004  1 45.099098 42.652246 24.179473
21163  1 46.744047 43.827254 22.157720
472    1 45.927627 41.476386 26.199633
4630   1 47.596614 42.644213 28.224778
8787   1 44.300199 43.819094 26.204088
17103  1 45.119141 42.644213 28.224778
21262  1 46.777672 43.819094 26.204088
571    1 45.935523 41.468745 30.244587
8886   1 44.305455 43.811682 30.250219
21361  1 46.782928 43.811682 30.250219
670    1 45.919085 41.460436 34.288222
4729   1 47.590369 42.636555 32.269359
8985   1 44.282501 43.803613 34.293165
17202  1 45.112896 42.636555 32.269359
21460  1 46.759973 43.803613 34.293165
769    1 45.876815 41.449597 38.328541
4828   1 47.557002 42.626824 36.310622
9084   1 44.229405 43.791288 38.331552
17301  1 45.079529 42.626824 36.310622
21559  1 46.706877 43.791288 38.331552
868    1 45.808259 41.438545 42.364735
4927   1 47.495101 42.613769 40.347797
9183   1 44.147842 43.775943 42.366699
17400  1 45.017629 42.613769 40.347797
21658  1 46.625315 43.775943 42.366699
967    1 45.716116 41.434391 46.396952
5026   1 47.408530 42.603164 44.381882
9282   1 44.047743 43.766422 46.401215
17499  1 44.931058 42.603165 44.381882
21757  1 46.525216 43.766422 46.401215
1066   1 45.597638 41.433012 50.428984
5125   1 47.302807 42.599518 48.415216
9381   1 43.932939 43.759686 50.437687
17598  1 44.825335 42.599518 48.415216
21856  1 46.410411 43.759685 50.437687
5224   1 47.172704 42.588273 52.451981
17697  1 44.695231 42.588273 52.451981
1165   1 45.440659 41.408345 54.466419
5323   1 47.016647 42.550511 56.490930
9480   1 43.797224 43.736603 54.476916
17796  1 44.539174 42.550512 56.490930
21955  1 46.274697 43.736603 54.476916
1264   1 45.271446 41.364324 58.505198
5422   1 46.883908 42.524944 60.530825
17895  1 44.406436 42.524944 60.530825
22054  1 46.136675 43.702593 58.515059
1363   1 45.153222 41.356057 62.551054
5521   1 46.796972 42.526185 64.578462
17994  1 44.319500 42.526185 64.578462
22153  1 46.035784 43.691968 62.556783
13837  1 47.630695 41.356057 62.551054
1462   1 45.081404 41.365231 66.604652
5620   1 46.747193 42.534133 68.631653
13936  1 47.558877 41.365231 66.604652
18093  1 44.269721 42.534133 68.631653
22252  1 45.972772 43.696610 66.605694
1561   1 45.046536 41.372359 70.659465
5719   1 46.729884 42.536914 72.685965
14035  1 47.524008 41.372359 70.659465
18192  1 44.252411 42.536915 72.685965
22351  1 45.941686 43.701634 70.658813
1660   1 45.044251 41.371247 74.713229
14134  1 47.521723 41.371247 74.713229
22450  1 45.940530 43.699959 74.712919
1759   1 45.072819 41.362157 78.767935
5818   1 46.743329 42.531393 76.740271
14233  1 47.550292 41.362157 78.767935
18291  1 44.265857 42.531394 76.740271
22549  1 45.968966 43.690913 78.766894
1858   1 45.133536 41.349319 82.825308
5917   1 46.787373 42.519736 80.795430
14332  1 47.611008 41.349318 82.825308
18390  1 44.309901 42.519736 80.795430
22648  1 46.027635 43.679461 82.820279
1957   1 45.230674 41.344303 86.882635
6016   1 46.863810 42.510047 84.850789
18489  1 44.386337 42.510047 84.850790
22747  1 46.119767 43.678095 86.871616
2056   1 45.373470 41.369784 90.933126
6115   1 46.978429 42.519471 88.902702
18588  1 44.500957 42.519471 88.902702
22846  1 46.253116 43.706800 90.918935
6214   1 47.138773 42.568623 92.948282
18687  1 44.661301 42.568623 92.948282
2155   1 45.696965 44.966673 12.040766
10470  1 44.090684 47.301972 12.025458
18786  1 44.812773 46.104629 10.010748
22945  1 46.568157 47.301972 12.025458
6313   1 47.290246 46.104629 10.010748
2254   1 45.823906 44.997215 16.086342
6412   1 47.439589 46.154502 14.056477
10569  1 44.219334 47.333198 16.074016
18885  1 44.962116 46.154502 14.056477
23044  1 46.696806 47.333197 16.074016
2353   1 45.907524 45.000153 20.133125
6511   1 47.543956 46.169342 18.105071
10668  1 44.303375 47.335905 20.127153
18984  1 45.066483 46.169342 18.105071
23143  1 46.780848 47.335905 20.127153
2452   1 45.955982 44.993080 24.181498
6610   1 47.608878 46.165601 22.156024
10767  1 44.350381 47.329164 24.181858
19083  1 45.131405 46.165601 22.156024
23242  1 46.827853 47.329164 24.181858
2551   1 45.973846 44.985578 28.229888
6709   1 47.640506 46.158112 26.207379
10866  1 44.364037 47.323342 28.234547
19182  1 45.163033 46.158112 26.207379
23341  1 46.841510 47.323342 28.234547
6808   1 47.641112 46.152236 30.256159
19281  1 45.163639 46.152236 30.256159
2650   1 45.962301 44.978938 32.275351
6907   1 47.610294 46.145598 34.299667
10965  1 44.345300 47.319189 32.282141
19380  1 45.132822 46.145598 34.299667
23440  1 46.822772 47.319189 32.282141
2749   1 45.919838 44.969201 36.315760
7006   1 47.545731 46.131890 38.337447
11064  1 44.292510 47.310433 36.323014
19479  1 45.068259 46.131890 38.337447
23539  1 46.769983 47.310433 36.323014
2848   1 45.845361 44.952757 40.351840
7105   1 47.450696 46.110695 42.372837
11163  1 44.204092 47.289938 40.359070
19578  1 44.973223 46.110696 42.372837
23638  1 46.681565 47.289938 40.359070
2947   1 45.747516 44.936262 44.387005
7204   1 47.342526 46.095408 46.409572
11262  1 44.093196 47.266446 44.395528
19677  1 44.865054 46.095408 46.409571
23737  1 46.570669 47.266446 44.395528
3046   1 45.639123 44.927479 48.423602
7303   1 47.229772 46.085960 50.447933
11361  1 43.980517 47.254150 48.433690
19776  1 44.752299 46.085960 50.447933
23836  1 46.457989 47.254150 48.433690
3145   1 45.518778 44.914571 52.462401
23935  1 46.343855 47.242576 52.472072
3244   1 45.386977 44.885416 56.500958
7402   1 47.108405 46.066892 54.486693
19875  1 44.630932 46.066892 54.486693
24034  1 46.228476 47.221304 56.509179
3343   1 45.274894 44.863978 60.539127
7501   1 46.991326 46.041450 58.523825
19974  1 44.513853 46.041450 58.523825
24133  1 46.131937 47.204419 60.546237
3442   1 45.199437 44.861745 64.582918
7600   1 46.904185 46.030920 62.563395
20073  1 44.426713 46.030920 62.563395
24232  1 46.066398 47.200502 64.588091
15916  1 47.676910 44.861745 64.582918
3541   1 45.156079 44.866300 68.632943
7699   1 46.849495 46.032206 66.609291
20172  1 44.372022 46.032207 66.609291
24331  1 46.029181 47.202284 68.635947
16015  1 47.633552 44.866300 68.632943
3640   1 45.141509 44.867649 72.686076
7798   1 46.822998 46.034825 70.660246
16114  1 47.618982 44.867649 72.686076
20271  1 44.345526 46.034825 70.660246
24430  1 46.017356 47.202228 72.687359
7897   1 46.823175 46.032499 74.712975
20370  1 44.345702 46.032500 74.712975
3739   1 45.155213 44.862027 76.739476
7996   1 46.850490 46.024082 78.764553
16213  1 47.632686 44.862027 76.739476
20469  1 44.373018 46.024082 78.764553
24529  1 46.030689 47.196856 76.738803
3838   1 45.197686 44.851242 80.791561
8095   1 46.906560 46.013931 82.813271
16312  1 47.675159 44.851242 80.791561
20568  1 44.429087 46.013932 82.813271
24628  1 46.070791 47.187231 80.787298
3937   1 45.270818 44.843553 84.841450
8194   1 46.995505 46.013689 86.859206
20667  1 44.518033 46.013689 86.859206
24727  1 46.141197 47.180249 84.831859
4036   1 45.380400 44.855305 88.888756
8293   1 47.125189 46.042103 90.903940
20766  1 44.647717 46.042103 90.903940
24826  1 46.248917 47.190930 88.874647
12450  1 43.923207 47.237604 92.918511
4135   1 45.532120 44.903729 92.933788
24925  1 46.400679 47.237604 92.918511
4245   1 47.448574 49.638431 12.009114
16718  1 44.971101 49.638432 12.009113
186    1 45.840665 48.490169 14.041393
4344   1 47.585114 49.666662 16.060992
8501   1 44.255819 50.825144 14.026241
16817  1 45.107642 49.666662 16.060992
20976  1 46.733292 50.825144 14.026241
285    1 45.947949 48.503196 18.095141
4443   1 47.671814 49.666328 20.120887
8600   1 44.370264 50.832247 18.086426
16916  1 45.194342 49.666328 20.120887
21075  1 46.847737 50.832247 18.086426
384    1 46.012862 48.498605 22.152946
4542   1 47.716837 49.659674 24.181561
8699   1 44.435599 50.825621 22.150485
17015  1 45.239364 49.659674 24.181561
21174  1 46.913072 50.825621 22.150485
483    1 46.041032 48.492383 26.209746
4641   1 47.724297 49.656632 28.238321
8798   1 44.458615 50.821337 26.211103
17114  1 45.246824 49.656632 28.238321
21273  1 46.936088 50.821337 26.211102
582    1 46.034851 48.489475 30.261978
8897   1 44.443613 50.822601 30.266460
21372  1 46.921086 50.822601 30.266460
681    1 45.994410 48.485777 34.307337
4740   1 47.696291 49.656527 32.288892
8996   1 44.391577 50.823555 34.314973
17213  1 45.218819 49.656527 32.288892
21471  1 46.869050 50.823555 34.314974
780    1 45.916699 48.471268 38.345676
4839   1 47.631291 49.650259 36.331621
9095   1 44.297855 50.809654 38.355109
17312  1 45.153818 49.650259 36.331621
21570  1 46.775328 50.809654 38.355109
879    1 45.805125 48.442962 42.381637
4938   1 47.525652 49.625549 40.368262
9194   1 44.163693 50.773021 42.391477
17411  1 45.048179 49.625550 40.368262
21669  1 46.641166 50.773021 42.391477
978    1 45.686165 48.422491 46.419575
2958   1 45.745209 51.920460 44.415050
5037   1 47.397077 49.594324 44.405466
9293   1 44.029236 50.748706 46.429168
17510  1 44.919604 49.594325 44.405466
21768  1 46.506708 50.748706 46.429168
1077   1 45.572954 48.413098 50.457528
3057   1 45.614599 51.908793 48.450096
5136   1 47.277217 49.580824 48.443255
17609  1 44.799745 49.580824 48.443255
21867  1 46.390558 50.742137 50.464448
3156   1 45.505775 51.906020 52.482086
5235   1 47.166483 49.572856 52.479265
17708  1 44.689011 49.572856 52.479265
1176   1 45.461375 48.399321 54.494307
3255   1 45.413186 51.897641 56.515399
5334   1 47.063206 49.558639 56.514347
17807  1 44.585733 49.558639 56.514347
21966  1 46.286258 50.734164 54.498239
1275   1 45.359586 48.381127 58.530218
3354   1 45.341654 51.888205 60.552590
5433   1 46.979525 49.545929 60.550913
17906  1 44.502053 49.545930 60.550913
22065  1 46.197179 50.721807 58.533273
1374   1 45.284022 48.371802 62.568904
3453   1 45.293926 51.883531 64.594885
5532   1 46.923000 49.541376 64.592331
18005  1 44.445527 49.541377 64.592331
22164  1 46.132319 50.713916 62.572284
13848  1 47.761494 48.371802 62.568904
1473   1 45.236840 48.370912 66.613379
3552   1 45.267182 51.882225 68.641904
5631   1 46.891280 49.541226 68.639230
18104  1 44.413807 49.541227 68.639230
22263  1 46.092131 50.711740 66.616709
13947  1 47.714313 48.370911 66.613379
1572   1 45.214488 48.371593 70.662747
3651   1 45.258646 51.880826 72.691557
5730   1 46.881500 49.540229 72.689369
18203  1 44.404028 49.540229 72.689369
22362  1 46.073215 50.711162 70.665406
14046  1 47.691961 48.371593 70.662747
1671   1 45.215403 48.368920 74.713824
14145  1 47.692875 48.368919 74.713824
22461  1 46.073962 50.708568 74.715430
1770   1 45.240635 48.361549 78.762915
14244  1 47.718107 48.361548 78.762915
3750   1 45.268166 51.877089 76.740628
5829   1 46.893484 49.535512 76.739172
18302  1 44.416012 49.535512 76.739172
22560  1 46.095739 50.702644 78.763101
1869   1 45.293591 48.352429 82.807357
14343  1 47.771063 48.352429 82.807357
3849   1 45.298936 51.870854 80.785560
5928   1 46.929972 49.527351 80.784957
16323  1 47.776408 51.870853 80.785560
18401  1 44.452500 49.527351 80.784958
22659  1 46.143673 50.694830 82.804898
1968   1 45.380611 48.351064 86.847842
3948   1 45.359519 51.864261 84.822930
6027   1 46.997080 49.520315 84.824840
16422  1 47.836991 51.864261 84.822929
18500  1 44.519608 49.520315 84.824840
22758  1 46.227837 50.691196 86.840144
2067   1 45.511563 48.376056 90.889069
4047   1 45.466212 51.865279 88.853772
6126   1 47.104914 49.527024 88.862117
18599  1 44.627442 49.527025 88.862117
22857  1 46.363823 50.709371 90.875667
87     1 45.684348 48.439385  9.994952
8402   1 44.081439 50.775233  9.978856
20877  1 46.558911 50.775233  9.978856
4146   1 45.643854 51.901914 92.889061
6225   1 47.265136 49.570351 92.903225
18698  1 44.787663 49.570351 92.903225
2166   1 45.862763 51.976143 11.992870
10481  1 44.296276 54.313953 11.979262
22956  1 46.773749 54.313953 11.979262
2265   1 46.015016 51.996176 16.050511
197    1 46.117000 55.481333 14.013218
6423   1 47.645845 53.157525 14.014192
10580  1 44.472638 54.318272 16.048581
18896  1 45.168373 53.157525 14.014192
23055  1 46.950111 54.318272 16.048581
2364   1 46.105776 51.990576 20.117458
296    1 46.243696 55.470016 18.090004
6522   1 47.770596 53.154756 18.083347
10679  1 44.562214 54.308842 20.119536
18995  1 45.293123 53.154756 18.083347
23154  1 47.039687 54.308842 20.119536
2463   1 46.146994 51.984498 24.181225
395    1 46.293778 55.465004 22.151345
6621   1 47.833406 53.146904 22.150236
10778  1 44.594853 54.305076 24.180209
19094  1 45.355934 53.146904 22.150236
23253  1 47.072325 54.305076 24.180209
2562   1 46.146385 51.984985 28.239853
494    1 46.300248 55.465766 26.206122
6720   1 47.848900 53.145286 26.210335
10877  1 44.586080 54.308470 28.236937
19193  1 45.371427 53.145286 26.210335
23352  1 47.063553 54.308470 28.236937
593    1 46.269264 55.473598 30.261437
6819   1 47.824354 53.150857 30.267273
19292  1 45.346882 53.150857 30.267273
2661   1 46.107512 51.990068 32.293776
692    1 46.192943 55.486872 34.319978
6918   1 47.759341 53.157956 34.320410
10976  1 44.537034 54.318463 32.293731
19391  1 45.281868 53.157956 34.320410
23451  1 47.014507 54.318463 32.293731
2760   1 46.027932 51.988434 36.340181
791    1 46.053771 55.484146 38.371758
7017   1 47.645520 53.147350 38.364386
11075  1 44.440742 54.324109 36.346537
19490  1 45.168047 53.147350 38.364386
23550  1 46.918215 54.324109 36.346537
2859   1 45.899504 51.960077 40.378069
890    1 45.833643 55.426650 42.408259
7116   1 47.478240 53.100981 42.400883
11174  1 44.280460 54.294075 40.387252
19589  1 45.000768 53.100981 42.400883
23649  1 46.757933 54.294075 40.387252
989    1 45.644424 55.404404 46.437401
7215   1 47.321332 53.075305 46.436176
11273  1 44.086538 54.245610 44.422372
19688  1 44.843859 53.075305 46.436176
23748  1 46.564011 54.245610 44.422372
1088   1 45.521206 55.410421 50.460430
7314   1 47.200677 53.074213 50.466320
19787  1 44.723204 53.074213 50.466320
23847  1 46.419214 54.239746 48.451339
23946  1 46.313682 54.242525 52.478657
1187   1 45.435935 55.411098 54.490622
7413   1 47.103796 53.071576 54.497123
19886  1 44.626324 53.071576 54.497123
24045  1 46.233504 54.238027 56.512048
13661  1 47.913408 55.411098 54.490622
1286   1 45.374471 55.405114 58.529063
7512   1 47.027470 53.063335 58.532648
19985  1 44.549998 53.063335 58.532648
24144  1 46.174901 54.230757 60.551523
15828  1 47.819126 51.888205 60.552590
13760  1 47.851944 55.405114 58.529063
1385   1 45.331866 55.399460 62.572447
7611   1 46.973467 53.056654 62.573318
20084  1 44.495995 53.056655 62.573318
24243  1 46.136113 54.226282 64.595693
15927  1 47.771398 51.883531 64.594885
13859  1 47.809338 55.399460 62.572447
1484   1 45.305154 55.396605 66.619420
7710   1 46.940067 53.053854 66.618743
20183  1 44.462595 53.053854 66.618743
24342  1 46.113994 54.224482 68.643540
16026  1 47.744654 51.882225 68.641904
13958  1 47.782626 55.396605 66.619420
1583   1 45.291457 55.395331 70.668836
7809   1 46.923982 53.052659 70.667578
20282  1 44.446510 53.052659 70.667578
24441  1 46.106041 54.223143 72.693344
16125  1 47.736119 51.880826 72.691557
14057  1 47.768930 55.395331 70.668836
1682   1 45.289375 55.393897 74.718858
7908   1 46.923668 53.050518 74.717345
20381  1 44.446196 53.050519 74.717346
14156  1 47.766848 55.393897 74.718858
1781   1 45.299953 55.391354 78.766973
8007   1 46.940524 53.046247 78.764817
20480  1 44.463051 53.046248 78.764818
24540  1 46.112046 54.220589 76.742532
16224  1 47.745638 51.877089 76.740627
14255  1 47.777426 55.391354 78.766973
1880   1 45.327937 55.387687 82.810224
8106   1 46.979936 53.040508 82.806736
20579  1 44.502463 53.040508 82.806736
24639  1 46.135045 54.216386 80.788001
14354  1 47.805409 55.387687 82.810224
1979   1 45.384152 55.384756 86.846877
8205   1 47.055733 53.035607 86.839284
14453  1 47.861624 55.384755 86.846877
20678  1 44.578260 53.035607 86.839284
24738  1 46.183009 54.211790 84.827008
2078   1 45.511973 55.383801 90.866028
8304   1 47.196236 53.043781 90.866238
20777  1 44.718763 53.043781 90.866238
24837  1 46.279042 54.208628 88.853951
98     1 45.842106 55.452831  9.950203
6324   1 47.436307 53.112901  9.963397
18797  1 44.958835 53.112901  9.963397
24936  1 46.480832 54.232344 92.878191
2177   1 46.371448 58.946749 12.018694
4256   1 47.734232 56.644159 11.978195
16729  1 45.256759 56.644159 11.978195
2276   1 46.455728 58.940831 16.076314
4355   1 47.924607 56.629790 16.062370
8512   1 44.655033 57.787226 14.037659
16828  1 45.447135 56.629791 16.062370
20987  1 47.132506 57.787226 14.037660
2375   1 46.479601 58.941896 20.126012
8611   1 44.740209 57.783612 18.099669
16927  1 45.515009 56.624749 20.124478
21086  1 47.217682 57.783612 18.099669
2474   1 46.480842 58.943467 24.171971
8710   1 44.766082 57.783040 22.150936
17026  1 45.533681 56.624066 24.177344
21185  1 47.243555 57.783040 22.150936
2573   1 46.464587 58.947198 28.217031
8809   1 44.763285 57.785137 26.198735
17125  1 45.519472 56.628339 28.228508
21284  1 47.240758 57.785137 26.198735
8908   1 44.733007 57.791835 30.248295
21383  1 47.210479 57.791834 30.248295
2672   1 46.421848 58.955175 32.266204
4751   1 47.944450 56.639923 32.284725
9007   1 44.656873 57.806617 34.307758
17224  1 45.466978 56.639923 32.284725
21482  1 47.134345 57.806616 34.307758
2771   1 46.314307 58.972662 36.331272
4850   1 47.832952 56.654500 36.346660
9106   1 44.489795 57.817536 38.373471
17323  1 45.355480 56.654500 36.346660
21581  1 46.967268 57.817535 38.373471
2870   1 46.032357 58.960121 40.397265
4949   1 47.624814 56.627959 40.394392
9205   1 44.172672 57.749725 42.411151
17422  1 45.147342 56.627959 40.394391
21680  1 46.650144 57.749725 42.411152
2969   1 45.643506 58.903883 44.415680
5048   1 47.364583 56.571636 44.424413
17521  1 44.887110 56.571636 44.424413
21779  1 46.417756 57.739687 46.427471
3068   1 45.491326 58.918193 48.421785
5147   1 47.206080 56.575816 48.443034
17620  1 44.728608 56.575816 48.443034
21878  1 46.304205 57.750742 50.445407
15542  1 47.968798 58.918193 48.421784
3167   1 45.424078 58.921929 52.455399
5246   1 47.111330 56.581954 52.468385
17719  1 44.633857 56.581954 52.468385
15641  1 47.901550 58.921929 52.455398
3266   1 45.382012 58.919040 56.498716
5345   1 47.048167 56.578833 56.505629
17818  1 44.570694 56.578833 56.505629
21977  1 46.239446 57.751187 54.481072
15740  1 47.859484 58.919040 56.498716
3365   1 45.352178 58.914723 60.545326
5444   1 47.003650 56.573039 60.548685
17917  1 44.526177 56.573039 60.548685
22076  1 46.195102 57.746441 58.524146
15839  1 47.829650 58.914723 60.545326
3464   1 45.331420 58.911847 64.593650
5543   1 46.973917 56.569136 64.595111
18016  1 44.496444 56.569136 64.595111
22175  1 46.164210 57.741954 62.570457
15938  1 47.808893 58.911846 64.593650
3563   1 45.317807 58.910679 68.643326
5642   1 46.956160 56.567414 68.644003
18115  1 44.478688 56.567414 68.644003
22274  1 46.144046 57.739583 66.618936
16037  1 47.795280 58.910678 68.643326
3662   1 45.309813 58.910401 72.693701
5741   1 46.948326 56.566478 72.694192
18214  1 44.470853 56.566478 72.694192
22373  1 46.132429 57.738663 70.668923
16136  1 47.787286 58.910401 72.693701
22472  1 46.128127 57.738077 74.719215
3761   1 45.306750 58.910314 76.743520
5840   1 46.950022 56.565168 76.743842
18313  1 44.472549 56.565169 76.743842
22571  1 46.131452 57.737193 78.768025
16235  1 47.784223 58.910314 76.743520
3860   1 45.309121 58.910204 80.791011
5939   1 46.963345 56.563056 80.790549
18412  1 44.485873 56.563057 80.790549
22670  1 46.145157 57.735886 82.812980
16334  1 47.786593 58.910204 80.791011
3959   1 45.319408 58.910120 84.833456
6038   1 46.994748 56.560155 84.831328
18511  1 44.517275 56.560155 84.831328
22769  1 46.177000 57.733683 86.850281
16433  1 47.796881 58.910119 84.833456
4058   1 45.344542 58.908610 88.863192
6137   1 47.057189 56.559629 88.866741
16532  1 47.822014 58.908609 88.863192
18610  1 44.579716 56.559630 88.866741
22868  1 46.233970 57.737815 90.885098
8413   1 44.291820 57.784706  9.950026
20888  1 46.769292 57.784706  9.950026
4157   1 45.285821 58.923721 92.871906
6236   1 47.256528 56.565000 92.873932
16631  1 47.763293 58.923720 92.871906
18709  1 44.779056 56.565000 92.873932
10492  1 45.084255 61.243139 12.013499
22967  1 47.561727 61.243138 12.013499
109    1 46.801680 62.406607 14.027496
10591  1 45.000755 61.256100 16.070927
12582  1 44.324207 62.406607 14.027496
18907  1 45.728274 60.096832 14.052441
23066  1 47.478227 61.256100 16.070927
208    1 46.715186 62.416198 18.088433
10690  1 44.971331 61.260227 20.119875
12681  1 44.237714 62.416198 18.088433
19006  1 45.727268 60.099820 18.100610
23165  1 47.448803 61.260227 20.119875
307    1 46.679623 62.421554 22.137768
10789  1 44.954357 61.263538 24.164462
19105  1 45.722121 60.102212 22.146526
23264  1 47.431829 61.263538 24.164462
406    1 46.660560 62.425141 26.182009
10888  1 44.938572 61.266652 28.206748
19204  1 45.710604 60.104956 26.189943
23363  1 47.416045 61.266652 28.206748
505    1 46.648441 62.427709 30.224284
19303  1 45.687562 60.109300 30.233545
604    1 46.639995 62.429740 34.267717
10987  1 44.916225 61.270502 32.249620
19402  1 45.636163 60.117026 34.282535
23462  1 47.393697 61.270502 32.249620
703    1 46.637325 62.433104 38.312194
7028   1 47.950577 60.136252 38.354095
11086  1 44.865212 61.275509 36.297405
19501  1 45.473105 60.136253 38.354095
23561  1 47.342684 61.275508 36.297405
802    1 47.861945 62.431750 42.380356
7127   1 47.398873 60.073683 42.409573
11185  1 44.540795 61.264743 40.369522
13275  1 45.384473 62.431751 42.380356
19600  1 44.921401 60.073683 42.409573
23660  1 47.018267 61.264743 40.369522
901    1 47.854182 62.431331 46.379250
7226   1 47.147915 60.085624 46.397928
13374  1 45.376710 62.431332 46.379250
19699  1 44.670443 60.085624 46.397928
23759  1 46.308637 61.254793 44.376027
1000   1 47.847087 62.430282 50.420990
7325   1 47.077225 60.091412 50.428844
13473  1 45.369614 62.430282 50.420990
19798  1 44.599752 60.091412 50.428844
23858  1 46.239438 61.260603 48.402327
23957  1 46.211259 61.260604 52.446123
1099   1 45.361959 62.428686 54.468305
7424   1 47.039885 60.090417 54.472522
13573  1 47.839432 62.428686 54.468305
19897  1 44.562412 60.090417 54.472522
24056  1 46.191929 61.258344 56.493801
1198   1 45.354030 62.426974 58.517026
7523   1 47.013702 60.086988 58.519698
13672  1 47.831503 62.426974 58.517027
19996  1 44.536230 60.086988 58.519698
24155  1 46.176779 61.255853 60.542515
1297   1 45.346292 62.425871 62.566114
7622   1 46.994475 60.084037 62.568149
13771  1 47.823764 62.425871 62.566114
20095  1 44.517003 60.084037 62.568149
24254  1 46.164818 61.254403 64.591778
1396   1 45.338726 62.425696 66.615589
7721   1 46.980677 60.082612 66.617570
13870  1 47.816198 62.425696 66.615589
20194  1 44.503205 60.082612 66.617570
24353  1 46.155194 61.254142 68.641637
1495   1 45.330806 62.426382 70.665365
7820   1 46.970946 60.082381 70.667745
13969  1 47.808279 62.426382 70.665365
20293  1 44.493474 60.082381 70.667745
24452  1 46.146920 61.254719 72.691706
1594   1 45.321618 62.427802 74.714724
7919   1 46.964205 60.082743 74.717883
14068  1 47.799091 62.427802 74.714724
20392  1 44.486733 60.082744 74.717883
1693   1 45.309605 62.429995 78.762314
8018   1 46.959827 60.083405 78.766632
14167  1 47.787078 62.429995 78.762313
20491  1 44.482354 60.083406 78.766632
24551  1 46.138972 61.255861 76.740966
1792   1 45.291556 62.433419 82.806085
8117   1 46.957577 60.084518 82.812044
14266  1 47.769029 62.433419 82.806085
20590  1 44.480105 60.084518 82.812045
24650  1 46.130023 61.257637 80.787838
1891   1 45.259654 62.439647 86.842403
8216   1 46.957397 60.086605 86.849943
14365  1 47.737126 62.439647 86.842403
20689  1 44.479924 60.086605 86.849943
24749  1 46.117381 61.260729 84.829728
1990   1 45.206332 62.442620 90.876472
8315   1 46.958827 60.090153 90.857087
14464  1 47.683804 62.442620 90.876472
20788  1 44.481354 60.090154 90.857087
24848  1 46.093868 61.267798 88.859007
10     1 47.159384 62.401228  9.940519
12483  1 44.681912 62.401228  9.940519
18808  1 45.727369 60.092531  9.982025
24947  1 46.156078 61.261262 92.867205
4168   1 47.242894  0.512801 11.964084
16642  1 49.720366  0.512800 11.964084
4267   1 47.055435  0.533911 16.046872
8425   1 48.863014  1.679646 13.994301
16741  1 49.532907  0.533911 16.046872
4366   1 46.983133  0.544031 20.106868
8524   1 48.736798  1.696569 18.068837
16840  1 49.460606  0.544031 20.106868
4465   1 46.950373  0.549657 24.156252
8623   1 48.678992  1.706144 22.127025
16939  1 49.427846  0.549657 24.156252
4564   1 46.936559  0.552646 28.201059
8722   1 48.654476  1.711047 26.176762
17038  1 49.414031  0.552645 28.201059
8821   1 48.653927  1.712096 30.223975
4663   1 46.938820  0.553350 32.245400
8920   1 48.688301  1.708713 34.275094
17137  1 49.416293  0.553350 32.245400
4762   1 46.975889  0.552548 36.293864
9019   1 48.836977  1.693909 38.347992
17236  1 49.453361  0.552547 36.293864
21592  1 46.890376  1.755784 42.404210
4861   1 47.279209  0.563275 40.366849
9118   1 49.367848  1.755784 42.404210
17335  1 49.756682  0.563275 40.366849
21691  1 47.128676  1.743311 46.394330
4960   1 47.974368  0.574723 44.373656
9217   1 49.606148  1.743310 46.394330
17434  1 50.451841  0.574722 44.373656
21790  1 47.184671  1.735568 50.425920
5059   1 48.029484  0.567542 48.400778
9316   1 49.662144  1.735568 50.425920
17533  1 50.506956  0.567541 48.400778
5159   1 50.520335  0.564891 52.444692
17632  1 48.042863  0.564891 52.444692
9415   1 47.206513  1.733389 54.469649
5258   1 50.523904  0.563656 56.492324
17731  1 48.046431  0.563656 56.492324
21890  1 49.683986  1.733389 54.469649
5357   1 50.523288  0.563185 60.540879
9514   1 47.216699  1.733384 58.516636
17830  1 48.045816  0.563186 60.540879
21989  1 49.694172  1.733384 58.516636
5456   1 50.520015  0.563357 64.589817
9613   1 47.220381  1.734163 62.564629
17929  1 48.042543  0.563358 64.589817
22088  1 49.697854  1.734163 62.564629
5555   1 50.514343  0.564191 68.639117
9712   1 47.219052  1.735321 66.613197
18028  1 48.036870  0.564192 68.639117
22187  1 49.696525  1.735321 66.613197
5654   1 50.505827  0.565765 72.688317
9811   1 47.213021  1.737023 70.661996
18127  1 48.028354  0.565765 72.688317
22286  1 49.690493  1.737023 70.661996
9910   1 47.201604  1.739599 74.710062
22385  1 49.679077  1.739599 74.710062
5753   1 50.493183  0.568215 76.736261
10009  1 47.182576  1.743385 78.755719
18226  1 48.015711  0.568215 76.736261
22484  1 49.660048  1.743385 78.755719
5852   1 50.473511  0.571852 80.781124
10108  1 47.150752  1.748817 82.796669
18325  1 47.996038  0.571852 80.781124
22583  1 49.628225  1.748816 82.796669
5951   1 50.440188  0.577482 84.820306
10207  1 47.095384  1.755312 86.831561
18424  1 47.962715  0.577482 84.820306
22682  1 49.572857  1.755311 86.831561
6050   1 50.380264  0.583289 88.854522
10306  1 46.973380  1.762759 90.849826
18523  1 47.902791  0.583289 88.854522
22781  1 49.450853  1.762758 90.849825
8326   1 49.130603  1.700931  9.933014
6149   1 50.188163  0.585564 92.861406
18622  1 47.710690  0.585565 92.861406
14563  1 48.203942  2.844215 11.957649
10405  1 49.117207  5.183194 11.964904
2189   1 50.510167  2.846072 16.024614
14662  1 48.032694  2.846073 16.024614
6346   1 47.336792  4.004508 13.988057
10504  1 48.972885  5.168706 16.020163
12594  1 48.254150  6.337765 13.994692
18820  1 49.814265  4.004508 13.988057
2288   1 50.418461  2.860013 20.092697
14761  1 47.940988  2.860014 20.092697
220    1 50.623620  6.334047 18.052852
6445   1 47.215043  4.012032 18.054530
10603  1 48.883355  5.177534 20.084669
12693  1 48.146147  6.334047 18.052852
18919  1 49.692516  4.012032 18.054530
2387   1 50.375353  2.868235 24.149493
14860  1 47.897881  2.868236 24.149493
319    1 50.558860  6.342415 22.115555
6544   1 47.147997  4.023520 22.118399
10702  1 48.837244  5.186408 24.146249
12792  1 48.081387  6.342415 22.115555
19018  1 49.625469  4.023520 22.118398
2486   1 50.364377  2.871125 28.200888
14959  1 47.886905  2.871126 28.200888
418    1 50.532784  6.348008 26.176519
6643   1 47.121104  4.029434 26.175056
10801  1 48.829248  5.188755 28.204493
12891  1 48.055311  6.348008 26.176520
19117  1 49.598576  4.029434 26.175056
517    1 50.546388  6.345742 30.237505
6742   1 47.129958  4.028547 30.230386
12990  1 48.068915  6.345742 30.237505
19216  1 49.607431  4.028547 30.230386
2585   1 50.387719  2.868092 32.253945
15058  1 47.910247  2.868093 32.253945
616    1 50.607876  6.337111 34.300554
6841   1 47.189571  4.018476 34.293624
10900  1 48.864236  5.182372 32.265780
13089  1 48.130403  6.337112 34.300554
19315  1 49.667043  4.018476 34.293624
2684   1 50.480064  2.855038 36.321384
15157  1 48.002591  2.855038 36.321384
6940   1 47.341928  4.011230 38.362220
10999  1 48.961065  5.172101 36.331445
13188  1 48.255777  6.343134 38.356206
19414  1 49.819401  4.011230 38.362220
15256  1 48.267141  2.868487 40.389556
7039   1 47.642420  4.079176 42.402651
11098  1 49.153834  5.200163 40.382632
13287  1 48.460769  6.401588 42.396112
19513  1 50.119893  4.079176 42.402651
23671  1 46.921527  5.257210 44.415204
15355  1 48.640724  2.925349 44.409737
7138   1 47.860182  4.089077 46.420663
11197  1 49.399000  5.257210 44.415204
13386  1 48.635196  6.424110 46.427592
19612  1 50.337654  4.089077 46.420663
23770  1 47.065105  5.252222 48.435352
15454  1 48.778503  2.909885 48.417077
7237   1 47.958568  4.076269 50.439555
11296  1 49.542578  5.252222 48.435352
13485  1 48.742897  6.416678 50.451843
19711  1 50.436041  4.076269 50.439555
11395  1 47.143996  5.243709 52.461345
3080   1 48.830446  2.903626 52.451116
23870  1 49.621468  5.243708 52.461345
3179   1 48.856429  2.903001 56.494339
1111   1 48.811424  6.412901 54.482368
7337   1 50.484781  4.072701 54.475402
11494  1 47.190448  5.243265 56.498530
19810  1 48.007309  4.072701 54.475402
23969  1 49.667921  5.243265 56.498530
3278   1 48.870286  2.904370 60.540506
1210   1 48.855768  6.415317 58.520469
7436   1 50.512708  4.073971 58.518166
11593  1 47.218562  5.246128 60.540953
19909  1 48.035236  4.073971 58.518167
24068  1 49.696034  5.246128 60.540953
3377   1 48.875752  2.906092 64.587899
1309   1 48.882318  6.419066 62.562744
7535   1 50.527859  4.076391 62.563634
11692  1 47.232909  5.249113 64.585957
20008  1 48.050387  4.076391 62.563634
24167  1 49.710382  5.249112 64.585957
3476   1 48.874149  2.908014 68.635976
1408   1 48.894024  6.422241 66.607560
7634   1 50.532923  4.078728 66.610514
11791  1 47.235655  5.251908 68.632425
20107  1 48.055451  4.078728 66.610515
24266  1 49.713128  5.251907 68.632425
3575   1 48.865629  2.910629 72.683914
1507   1 48.892751  6.425573 70.653669
7733   1 50.529042  4.081378 70.657969
11890  1 47.227614  5.255450 72.679066
20206  1 48.051569  4.081379 70.657969
24365  1 49.705086  5.255449 72.679066
1606   1 48.878737  6.430291 74.699274
7832   1 50.515908  4.085116 74.704608
20305  1 48.038435  4.085116 74.704609
3674   1 48.848851  2.914457 76.730180
1705   1 48.849849  6.436943 78.742058
7931   1 50.491089  4.090461 78.748376
11989  1 47.207690  5.260581 76.723944
20404  1 48.013616  4.090462 78.748376
24464  1 49.685163  5.260581 76.723944
3773   1 48.820030  2.919861 80.772613
1804   1 48.800511  6.444824 82.779675
8030   1 50.448780  4.097306 82.786987
12088  1 47.172034  5.267440 80.764722
20503  1 47.971307  4.097306 82.786987
24563  1 49.649506  5.267440 80.764722
3872   1 48.771066  2.926578 84.809143
1903   1 48.720746  6.449951 86.812211
8129   1 50.375333  4.104914 86.817249
12187  1 47.111924  5.275142 84.798903
20602  1 47.897860  4.104915 86.817249
24662  1 49.589397  5.275142 84.798903
3971   1 48.679228  2.934347 88.834541
2002   1 48.595598  6.437354 90.846545
8228   1 50.242871  4.102838 90.842992
12286  1 47.011520  5.277922 88.827920
20701  1 47.765399  4.102838 90.842992
24761  1 49.488993  5.277922 88.827920
4070   1 48.486786  2.918269 92.857904
6247   1 47.536889  4.041926  9.939286
12495  1 48.415686  6.380487  9.949044
18721  1 50.014362  4.041925  9.939286
12385  1 46.845789  5.249045 92.862377
24860  1 49.323261  5.249044 92.862377
4179   1 47.535372  7.521876 11.976475
14574  1 48.421733  9.859046 11.990265
16653  1 50.012844  7.521875 11.976475
2200   1 50.787167  9.830782 16.038837
4278   1 47.410644  7.498188 16.026812
8436   1 49.153945  8.673171 14.006704
14673  1 48.309695  9.830782 16.038837
16752  1 49.888116  7.498188 16.026811
2299   1 50.713402  9.826621 20.093598
4377   1 47.329576  7.499684 20.085894
8535   1 49.057396  8.661559 18.060069
14772  1 48.235929  9.826621 20.093598
16851  1 49.807048  7.499684 20.085893
2398   1 50.673703  9.830547 24.151956
4476   1 47.286187  7.506395 24.147412
8634   1 48.998445  8.665223 22.119113
14871  1 48.196231  9.830548 24.151956
16950  1 49.763659  7.506395 24.147412
2497   1 50.667559  9.832293 28.211023
4575   1 47.280141  7.508079 28.208682
8733   1 48.974604  8.669422 26.179780
14970  1 48.190086  9.832293 28.211023
17049  1 49.757614  7.508078 28.208681
8832   1 48.987426  8.667995 30.240204
2596   1 50.696774  9.830603 32.267802
4674   1 47.315024  7.502824 32.270133
8931   1 49.040450  8.664880 34.297369
15069  1 48.219301  9.830603 32.267802
17148  1 49.792496  7.502824 32.270133
2695   1 50.765622  9.835488 36.317866
4773   1 47.398211  7.501103 36.327141
9030   1 49.141938  8.678515 38.345368
15168  1 48.288149  9.835488 36.317867
17247  1 49.875684  7.501103 36.327141
4872   1 47.544624  7.533124 40.371732
9129   1 49.295403  8.726378 42.385563
15267  1 48.404301  9.865996 40.359622
17346  1 50.022097  7.533124 40.371732
21702  1 46.960288  8.752824 46.423695
4971   1 47.723985  7.582650 44.410005
9228   1 49.437760  8.752824 46.423695
15366  1 48.544855  9.907050 44.400067
17445  1 50.201457  7.582650 44.410005
21801  1 47.065148  8.753001 50.455404
5070   1 47.853705  7.588235 48.440976
9327   1 49.542621  8.753001 50.455404
15465  1 48.660464  9.919069 48.437521
17544  1 50.331178  7.588235 48.440976
3091   1 48.752272  9.920022 52.470598
5170   1 50.420292  7.583298 52.469148
17643  1 47.942819  7.583298 52.469149
9426   1 47.144410  8.752556 54.486680
3190   1 48.826014  9.924471 56.504039
5269   1 50.482848  7.584106 56.502563
17742  1 48.005375  7.584106 56.502563
21901  1 49.621883  8.752556 54.486680
3289   1 48.879622  9.930926 60.540529
5368   1 50.524406  7.588444 60.541324
9525   1 47.202608  8.757036 58.521912
17841  1 48.046933  7.588444 60.541324
22000  1 49.680081  8.757036 58.521911
3388   1 48.911782  9.935438 64.580881
5467   1 50.547707  7.592333 64.583740
9624   1 47.240136  8.762020 62.561334
17940  1 48.070235  7.592334 64.583740
22099  1 49.717609  8.762020 62.561334
3487   1 48.924523  9.938610 68.624693
5566   1 50.555207  7.595598 68.628630
9723   1 47.258734  8.765581 66.604254
18039  1 48.077735  7.595598 68.628630
22198  1 49.736207  8.765580 66.604254
3586   1 48.919842  9.942810 72.670402
5665   1 50.548379  7.599741 72.674394
9822   1 47.260709  8.769123 70.649447
18138  1 48.070906  7.599741 72.674394
22297  1 49.738181  8.769123 70.649447
9921   1 47.246918  8.774412 74.694896
22396  1 49.724391  8.774412 74.694896
3685   1 48.897839  9.949442 76.715683
5764   1 50.526656  7.605876 76.718806
10020  1 47.215915  8.781924 78.738183
18237  1 48.049184  7.605876 76.718806
22495  1 49.693387  8.781924 78.738183
3784   1 48.856428  9.957571 80.758472
5863   1 50.486755  7.613764 80.759482
10119  1 47.163702  8.789661 82.777742
18336  1 48.009282  7.613764 80.759482
22594  1 49.641174  8.789661 82.777742
3883   1 48.791394  9.962262 84.798710
5962   1 50.422210  7.620463 84.795572
10218  1 47.083814  8.790793 86.815167
18435  1 47.944737  7.620463 84.795572
22693  1 49.561287  8.790792 86.815167
3982   1 48.696247  9.952410 88.839460
6061   1 50.323412  7.616360 88.830909
10317  1 46.967431  8.770550 90.855415
18534  1 47.845939  7.616361 88.830909
22792  1 49.444903  8.770549 90.855415
8337   1 49.292603  8.717065  9.961144
4081   1 48.565589  9.913642 92.883347
6160   1 50.178953  7.580894 92.871465
18633  1 47.701480  7.580895 92.871465
10416  1 49.301457 12.194792 12.005279
6357   1 47.564952 11.008681 14.021154
10515  1 49.196533 12.164844 16.053041
12605  1 48.444272 13.343833 14.036436
18831  1 50.042424 11.008680 14.021154
231    1 50.836278 13.326429 18.084651
6456   1 47.475867 10.992664 18.071710
10614  1 49.127105 12.157676 20.104097
12704  1 48.358806 13.326429 18.084651
18930  1 49.953340 10.992664 18.071710
330    1 50.783762 13.325151 22.134779
6555   1 47.421396 10.992804 22.126495
10713  1 49.089323 12.159983 24.157658
12803  1 48.306290 13.325151 22.134779
19029  1 49.898868 10.992803 22.126495
429    1 50.760567 13.328368 26.186023
6654   1 47.398683 10.996026 26.183244
10812  1 49.081491 12.162522 28.211564
12902  1 48.283094 13.328368 26.186023
19128  1 49.876155 10.996026 26.183244
528    1 50.765968 13.331015 30.236086
6753   1 47.408008 10.996649 30.239011
13001  1 48.288496 13.331015 30.236086
19227  1 49.885481 10.996649 30.239011
627    1 50.801750 13.335932 34.281972
6852   1 47.451645 10.998462 34.290030
10911  1 49.104489 12.164184 32.262578
13100  1 48.324277 13.335931 34.281972
19326  1 49.929118 10.998462 34.290030
726    1 50.871788 13.352126 38.322663
6951   1 47.535106 11.014892 38.333635
11010  1 49.161710 12.172650 36.307660
13199  1 48.394316 13.352126 38.322663
19425  1 50.012578 11.014892 38.333634
7050   1 47.656872 11.053300 42.373720
11109  1 49.257015 12.199306 40.347695
13298  1 48.495233 13.382172 42.362040
19524  1 50.134344 11.053300 42.373720
7149   1 47.777314 11.078919 46.414577
11208  1 49.372933 12.232286 44.388484
13397  1 48.600941 13.404469 46.403433
19623  1 50.254787 11.078919 46.414576
23781  1 47.000562 12.246851 48.429063
7248   1 47.877464 11.085213 50.451759
11307  1 49.478034 12.246851 48.429063
13496  1 48.697965 13.414409 50.443707
19722  1 50.354936 11.085213 50.451759
11406  1 47.093580 12.253484 52.466425
23881  1 49.571052 12.253484 52.466424
1122   1 48.789332 13.425180 54.481316
7348   1 50.440516 11.090129 54.486177
11505  1 47.176315 12.263364 56.501771
19821  1 47.963043 11.090129 54.486177
23980  1 49.653788 12.263364 56.501771
1221   1 48.869560 13.438663 58.517191
7447   1 50.510064 11.098367 58.521022
11604  1 47.240862 12.272983 60.537712
19920  1 48.032591 11.098367 58.521022
24079  1 49.718335 12.272983 60.537712
1320   1 48.927411 13.446932 62.554532
7546   1 50.557919 11.104825 62.558736
11703  1 47.281747 12.277913 64.577051
20019  1 48.080447 11.104826 62.558736
24178  1 49.759219 12.277913 64.577051
1419   1 48.960540 13.449680 66.596137
7645   1 50.583632 11.108269 66.600465
11802  1 47.300293 12.280304 68.620673
20118  1 48.106160 11.108269 66.600465
24277  1 49.777765 12.280304 68.620673
1518   1 48.971443 13.451515 70.642118
7744   1 50.589629 11.111361 70.645547
11901  1 47.298815 12.283833 72.667372
20217  1 48.112156 11.111361 70.645547
24376  1 49.776287 12.283833 72.667372
1617   1 48.961810 13.455997 74.690753
7843   1 50.577304 11.116613 74.692014
20316  1 48.099831 11.116613 74.692014
1716   1 48.931706 13.463460 78.739855
7942   1 50.546099 11.124343 78.737561
12000  1 47.277991 12.290317 76.714942
20415  1 48.068626 11.124344 78.737561
24475  1 49.755464 12.290316 76.714942
1815   1 48.879763 13.469792 82.787922
8041   1 50.493597 11.131287 82.780960
12099  1 47.236826 12.298200 80.761440
20514  1 48.016125 11.131287 82.780960
24574  1 49.714298 12.298200 80.761440
1914   1 48.802436 13.465470 86.834806
8140   1 50.415270 11.128922 86.823368
12198  1 47.172528 12.301184 84.806444
20613  1 47.937797 11.128922 86.823368
24673  1 49.650000 12.301183 84.806444
2013   1 48.694785 13.437836 90.881237
8239   1 50.305030 11.103882 90.867370
12297  1 47.079970 12.287639 88.851313
20712  1 47.827558 11.103882 90.867370
24772  1 49.557443 12.287638 88.851313
6258   1 47.690398 11.052351  9.974944
12506  1 48.563774 13.386789  9.989791
18732  1 50.167871 11.052351  9.974944
24871  1 49.434048 12.247009 92.897076
4190   1 47.697656 14.529435 12.020658
8348   1 49.434660 15.720652 10.004947
14585  1 48.564750 16.863292 12.035563
16664  1 50.175128 14.529434 12.020658
2211   1 50.937609 16.836295 16.080418
4289   1 47.595047 14.499948 16.067408
8447   1 49.314759 15.678770 14.051348
14684  1 48.460137 16.836296 16.080418
16763  1 50.072519 14.499948 16.067408
2310   1 50.868696 16.830851 20.123258
4388   1 47.527000 14.492463 20.114625
8546   1 49.229542 15.662659 18.096751
14783  1 48.391224 16.830852 20.123258
16862  1 50.004472 14.492463 20.114625
2409   1 50.829901 16.834065 24.166216
4487   1 47.489215 14.494670 24.162781
8645   1 49.176865 15.661998 22.141930
14882  1 48.352429 16.834065 24.166216
16961  1 49.966687 14.494670 24.162781
2508   1 50.817589 16.838635 28.209755
4586   1 47.479059 14.498293 28.211018
8744   1 49.152288 15.665918 26.187687
14981  1 48.340116 16.838635 28.209755
17060  1 49.956532 14.498293 28.211018
8843   1 49.154210 15.670036 30.232788
2607   1 50.831056 16.843684 32.252078
4685   1 47.496743 14.502224 32.256922
8942   1 49.183782 15.676339 34.274958
15080  1 48.353583 16.843684 32.252078
17159  1 49.974216 14.502224 32.256921
2706   1 50.872137 16.852863 36.291415
4784   1 47.544960 14.511842 36.298459
9041   1 49.243651 15.690570 38.313599
15179  1 48.394664 16.852863 36.291416
17258  1 50.022432 14.511842 36.298459
2805   1 50.941656 16.869610 40.328635
4883   1 47.625456 14.533671 40.336996
9140   1 49.330292 15.713057 42.351742
15278  1 48.464184 16.869610 40.328636
17357  1 50.102928 14.533671 40.336996
4982   1 47.725146 14.559036 44.376990
9239   1 49.426322 15.730575 46.392221
15377  1 48.552911 16.887706 44.367010
17456  1 50.202618 14.559036 44.376990
5081   1 47.823445 14.573204 48.418435
9338   1 49.522677 15.741661 50.433582
15476  1 48.647572 16.899208 48.407598
17555  1 50.300917 14.573204 48.418435
3102   1 48.747982 16.912686 52.448926
5181   1 50.396417 14.584166 52.458576
17654  1 47.918944 14.584166 52.458576
9437   1 47.144173 15.757910 54.473521
3201   1 48.852745 16.935978 56.488246
5280   1 50.488746 14.600470 56.496140
17753  1 48.011273 14.600470 56.496140
21912  1 49.621646 15.757909 54.473521
3300   1 48.941266 16.954145 60.525806
5379   1 50.564405 14.614125 60.532647
9536   1 47.236568 15.777733 58.510805
17852  1 48.086932 14.614125 60.532647
22011  1 49.714041 15.777733 58.510805
3399   1 49.000667 16.958587 64.566668
5478   1 50.614177 14.619159 64.572181
9635   1 47.304954 15.787848 62.548813
17951  1 48.136704 14.619160 64.572181
22110  1 49.782427 15.787848 62.548813
3498   1 49.033048 16.956839 68.613143
5577   1 50.639216 14.619950 68.616692
9734   1 47.346058 15.789134 66.591477
18050  1 48.161744 14.619950 68.616692
22209  1 49.823531 15.789134 66.591477
3597   1 49.041178 16.956585 72.664351
5676   1 50.642034 14.621981 72.665365
9833   1 47.362830 15.788821 70.639318
18149  1 48.164562 14.621981 72.665366
22308  1 49.840303 15.788821 70.639318
9932   1 47.356954 15.791821 74.690814
22407  1 49.834427 15.791821 74.690814
3696   1 49.025711 16.961141 76.718583
5775   1 50.623503 14.627727 76.716199
10031  1 47.328594 15.798791 78.743994
18248  1 48.146031 14.627727 76.716199
22506  1 49.806066 15.798791 78.743994
3795   1 48.986292 16.968868 80.774102
5874   1 50.583228 14.635374 80.767192
10130  1 47.276917 15.805281 82.796960
18347  1 48.105756 14.635375 80.767192
22605  1 49.754390 15.805280 82.796960
3894   1 48.921402 16.972370 84.828691
5973   1 50.519257 14.637814 84.816994
10229  1 47.198968 15.801048 86.847995
18446  1 48.041784 14.637814 84.816994
22704  1 49.676440 15.801047 86.847995
3993   1 48.826766 16.958377 88.879837
6072   1 50.427066 14.622831 88.865120
10328  1 47.089962 15.772678 90.896155
18545  1 47.949594 14.622832 88.865120
22803  1 49.567434 15.772677 90.896155
4092   1 48.699814 16.915460 92.926987
6171   1 50.304954 14.580913 92.911870
18644  1 47.827482 14.580914 92.911870
6269   1 47.824570 18.054057 10.019662
18743  1 50.302042 18.054056 10.019662
4201   1 47.793203 21.530049 12.060199
10427  1 49.423625 19.196662 12.049121
12517  1 48.686637 20.386936 10.033192
16675  1 50.270676 21.530048 12.060199
6368   1 47.698044 18.013933 14.064785
18842  1 50.175517 18.013933 14.064785
143    1 51.024187 20.350129 14.075417
4300   1 47.673972 21.515729 16.095972
10526  1 49.313134 19.174521 16.090590
12616  1 48.546715 20.350129 14.075417
16774  1 50.151444 21.515729 16.095971
6467   1 47.610412 18.001597 18.106331
18941  1 50.087884 18.001596 18.106331
242    1 50.932768 20.343777 18.111694
4399   1 47.602815 21.518447 20.128944
10625  1 49.242382 19.172860 20.128457
12715  1 48.455295 20.343777 18.111694
16873  1 50.080288 21.518447 20.128944
6566   1 47.556611 18.002982 22.146540
19040  1 50.034084 18.002982 22.146540
341    1 50.878742 20.347629 22.147616
4498   1 47.565205 21.523690 24.165612
10724  1 49.203009 19.177406 24.167221
12814  1 48.401270 20.347629 22.147616
16972  1 50.042678 21.523690 24.165612
6665   1 47.530814 18.007761 26.187904
19139  1 50.008287 18.007761 26.187904
440    1 50.853179 20.352782 26.186552
4597   1 47.552165 21.528348 28.205698
10823  1 49.189516 19.182392 28.207915
12913  1 48.375707 20.352782 26.186552
17071  1 50.029637 21.528348 28.205698
6764   1 47.530120 18.012598 30.229747
19238  1 50.007593 18.012598 30.229747
539    1 50.851006 20.357552 30.227232
13012  1 48.373533 20.357552 30.227232
6863   1 47.554679 18.019038 34.269904
19337  1 50.032151 18.019038 34.269904
638    1 50.871228 20.363354 34.267197
4696   1 47.559959 21.533010 32.246642
10922  1 49.199745 19.187604 32.248603
13111  1 48.393756 20.363354 34.267197
17170  1 50.037432 21.533010 32.246642
6962   1 47.606331 18.030529 38.307430
19436  1 50.083803 18.030529 38.307430
737    1 50.915346 20.372043 38.304914
4795   1 47.588953 21.539328 36.286247
11021  1 49.234676 19.195504 36.287257
13210  1 48.437874 20.372043 38.304914
17269  1 50.066425 21.539327 36.286247
7061   1 47.682573 18.046193 42.344140
19535  1 50.160045 18.046193 42.344139
836    1 50.982768 20.381867 42.340647
4894   1 47.640680 21.547329 40.323313
11120  1 49.295193 19.207474 40.323759
13309  1 48.505296 20.381867 42.340647
17368  1 50.118153 21.547329 40.323313
7160   1 47.772391 18.057990 46.382546
19634  1 50.249864 18.057990 46.382545
4993   1 47.713993 21.552714 44.357914
11219  1 49.375922 19.218750 44.360067
13408  1 48.590713 20.387509 46.376136
17467  1 50.191466 21.552713 44.357914
7259   1 47.870649 18.067799 50.423176
19733  1 50.348122 18.067799 50.423176
5092   1 47.807386 21.553838 48.392132
11318  1 49.469372 19.225739 48.398210
13507  1 48.693220 20.393573 50.414053
17566  1 50.284859 21.553838 48.392132
17665  1 47.927218 21.565085 52.430211
23892  1 49.577745 19.239528 52.439022
7359   1 50.458038 18.088679 54.464299
19832  1 47.980565 18.088679 54.464299
1133   1 48.818912 20.417749 54.454954
11516  1 47.222477 19.270318 56.479315
17764  1 48.074919 21.604009 56.470428
23991  1 49.699949 19.270318 56.479315
7458   1 50.566211 18.115772 58.502787
19931  1 48.088739 18.115772 58.502787
1232   1 48.949032 20.453168 58.494212
11615  1 47.327265 19.293017 60.518127
24090  1 49.804737 19.293017 60.518127
7557   1 50.646712 18.127189 62.542254
20030  1 48.169239 18.127189 62.542254
1331   1 49.044279 20.464507 62.536089
11714  1 47.397655 19.295588 64.561518
24189  1 49.875127 19.295588 64.561518
7656   1 50.696684 18.125959 66.587181
20129  1 48.219211 18.125959 66.587181
1430   1 49.104166 20.459445 66.584602
11813  1 47.438224 19.290353 68.610911
24288  1 49.915697 19.290353 68.610910
7755   1 50.720236 18.122672 70.637543
20228  1 48.242764 18.122672 70.637543
1529   1 49.134922 20.452740 70.637632
11912  1 47.452366 19.287307 72.664482
24387  1 49.929839 19.287306 72.664482
7854   1 50.718955 18.123635 74.691736
20327  1 48.241483 18.123635 74.691736
1628   1 49.138635 20.451484 74.693202
7953   1 50.692696 18.129996 78.748493
20426  1 48.215223 18.129996 78.748493
1727   1 49.115082 20.456985 78.751639
12011  1 47.440567 19.290351 76.721041
24486  1 49.918039 19.290351 76.721041
8052   1 50.640550 18.137592 82.806166
20525  1 48.163077 18.137592 82.806166
1826   1 49.062344 20.466166 82.813123
12110  1 47.402013 19.298369 80.780152
24585  1 49.879486 19.298369 80.780152
8151   1 50.559834 18.135774 86.861539
20624  1 48.082362 18.135774 86.861539
1925   1 48.976740 20.469112 86.873677
12209  1 47.334837 19.304539 84.839604
24684  1 49.812310 19.304538 84.839604
8250   1 50.445043 18.108679 90.911357
20723  1 47.967571 18.108680 90.911358
2024   1 48.850882 20.446118 90.926112
12308  1 47.234483 19.294338 88.894415
24783  1 49.711955 19.294337 88.894415
18655  1 47.969655 21.587714 92.955576
24882  1 49.573055 19.250909 92.941747
2123   1 51.097766 23.864911 12.066599
6280   1 47.895142 25.050131 10.052159
8359   1 49.539499 22.719024 10.044645
14596  1 48.620293 23.864911 12.066599
18754  1 50.372614 25.050130 10.052159
2222   1 50.971085 23.861352 16.093896
6379   1 47.707225 25.033012 14.077663
8458   1 49.378456 22.688919 14.081033
14695  1 48.493613 23.861353 16.093896
18853  1 50.184698 25.033012 14.077662
2321   1 50.905555 23.866970 20.124550
6478   1 47.621981 25.039207 18.104026
8557   1 49.285110 22.689762 18.111058
14794  1 48.428083 23.866971 20.124550
18952  1 50.099454 25.039207 18.104026
2420   1 50.873706 23.871673 24.162179
6577   1 47.581580 25.044021 22.140233
8656   1 49.234610 22.695100 22.144999
14893  1 48.396234 23.871673 24.162179
19051  1 50.059052 25.044021 22.140233
2519   1 50.862862 23.875398 28.203467
6676   1 47.564009 25.047612 26.181030
8755   1 49.211806 22.699755 26.184005
14992  1 48.385389 23.875398 28.203467
19150  1 50.041481 25.047612 26.181030
6775   1 47.562336 25.050461 30.224333
8854   1 49.209337 22.703807 30.225384
19249  1 50.039808 25.050461 30.224333
2618   1 50.868884 23.878997 32.246084
6874   1 47.574692 25.053727 34.268089
8953   1 49.225541 22.708506 34.266752
15091  1 48.391411 23.878997 32.246084
19348  1 50.052165 25.053727 34.268089
2717   1 50.891733 23.883635 36.288004
6973   1 47.602234 25.057850 38.310686
9052   1 49.261763 22.714747 38.306257
15190  1 48.414261 23.883635 36.288004
19447  1 50.079706 25.057849 38.310686
2816   1 50.933466 23.888732 40.327498
7072   1 47.647940 25.060595 42.350026
9151   1 49.319649 22.720178 42.342523
15289  1 48.455993 23.888732 40.327498
19546  1 50.125412 25.060595 42.350026
2915   1 50.997054 23.889994 44.362306
7171   1 47.718668 25.056879 46.382216
9250   1 49.400019 22.720135 46.375170
15388  1 48.519581 23.889994 44.362306
19645  1 50.196141 25.056879 46.382216
3014   1 51.088698 23.885049 48.392000
7270   1 47.830239 25.049164 50.408069
9349   1 49.508141 22.720035 50.408034
15487  1 48.611226 23.885049 48.392000
19744  1 50.307711 25.049164 50.408069
5192   1 50.404690 21.565085 52.430210
3113   1 48.745809 23.889977 52.424059
5291   1 50.552391 21.604009 56.470428
3212   1 48.932772 23.937588 56.462498
7370   1 50.488462 25.070598 54.440497
19843  1 48.010990 25.070598 54.440497
21923  1 49.656483 22.745146 54.446597
5390   1 50.678894 21.630602 60.510891
17863  1 48.201422 21.630602 60.510891
3311   1 49.089752 23.966095 60.505981
7469   1 50.702637 25.126837 58.480177
9547   1 47.341460 22.790262 58.486189
19942  1 48.225164 25.126837 58.480177
22022  1 49.818932 22.790262 58.486189
5489   1 50.762077 21.629328 64.558469
17962  1 48.284605 21.629328 64.558469
3410   1 49.187308 23.958456 64.560231
7568   1 50.839726 25.128267 62.534115
9646   1 47.455212 22.798882 62.532274
20041  1 48.362254 25.128267 62.534115
22121  1 49.932685 22.798882 62.532274
5588   1 50.811096 21.619998 68.611477
18061  1 48.333624 21.619998 68.611477
3509   1 49.242910 23.945591 68.616559
7667   1 50.918128 25.113145 66.593309
9745   1 47.525508 22.788760 66.585833
20140  1 48.440655 25.113145 66.593310
22220  1 50.002981 22.788760 66.585833
5687   1 50.830978 21.614347 72.666246
18160  1 48.353506 21.614347 72.666246
3608   1 49.266213 23.938654 72.670079
7766   1 50.956659 25.102801 70.647302
9844   1 47.562356 22.779147 70.640725
20239  1 48.479187 25.102801 70.647302
22319  1 50.039829 22.779147 70.640725
7865   1 50.966970 25.099310 74.697840
9943   1 47.570402 22.776193 74.695203
20338  1 48.489497 25.099311 74.697840
22418  1 50.047875 22.776193 74.695203
5786   1 50.823290 21.615757 76.722674
18259  1 48.345817 21.615758 76.722675
3707   1 49.262640 23.938671 76.723300
7964   1 50.953262 25.101593 78.750007
10042  1 47.550922 22.780292 78.752062
20437  1 48.475790 25.101594 78.750007
22517  1 50.028395 22.780292 78.752062
5885   1 50.786773 21.623595 80.782990
18358  1 48.309300 21.623595 80.782990
3806   1 49.231466 23.944926 80.780894
8063   1 50.910466 25.109345 82.808928
10141  1 47.499940 22.790113 82.814788
20536  1 48.432994 25.109345 82.808928
22616  1 49.977413 22.790112 82.814788
5984   1 50.717136 21.633242 84.847028
18457  1 48.239664 21.633242 84.847028
3905   1 49.163432 23.956488 84.846962
8162   1 50.820309 25.122783 86.879650
10240  1 47.408881 22.799350 86.881531
20635  1 48.342837 25.122784 86.879650
22715  1 49.886353 22.799349 86.881530
6083   1 50.607547 21.630173 88.907441
18556  1 48.130074 21.630173 88.907441
4004   1 49.042541 23.963826 88.916135
8261   1 50.651761 25.124152 90.949488
10339  1 47.265267 22.785029 90.939525
20734  1 48.174288 25.124152 90.949488
22814  1 49.742740 22.785028 90.939525
6182   1 50.447127 21.587713 92.955576
4103   1 48.845095 23.926583 92.967882
55     1 51.145050 27.383178 10.052468
4212   1 47.648459 28.559705 12.041230
10438  1 49.408449 26.205465 12.063358
12528  1 48.667578 27.383179 10.052468
16686  1 50.125932 28.559704 12.041230
154    1 50.956895 27.384729 14.061616
4311   1 47.600411 28.562005 16.076180
10537  1 49.292014 26.211725 16.083116
12627  1 48.479423 27.384730 14.061616
16785  1 50.077883 28.562004 16.076180
253    1 50.902914 27.389404 18.096479
4410   1 47.574812 28.567031 20.112580
10636  1 49.243716 26.216669 20.118229
12726  1 48.425441 27.389405 18.096480
16884  1 50.052285 28.567031 20.112580
352    1 50.877102 27.393502 22.135279
4509   1 47.564540 28.568985 24.155395
10735  1 49.221029 26.220342 24.158231
12825  1 48.399629 27.393503 22.135279
16983  1 50.042012 28.568985 24.155395
451    1 50.867019 27.395567 26.178662
4608   1 47.562451 28.569744 28.201151
10834  1 49.213976 26.222696 28.201757
12924  1 48.389547 27.395567 26.178662
17082  1 50.039924 28.569744 28.201151
550    1 50.866994 27.396920 30.224233
13023  1 48.389522 27.396920 30.224233
649    1 50.875649 27.398477 34.270533
4707   1 47.566371 28.570255 32.248216
10933  1 49.218759 26.224868 32.246695
13122  1 48.398176 27.398477 34.270533
17181  1 50.043843 28.570255 32.248216
748    1 50.893910 27.400497 38.316582
4806   1 47.576366 28.571037 36.295758
11032  1 49.235227 26.227691 36.291566
13221  1 48.416438 27.400497 38.316582
17280  1 50.053838 28.571037 36.295758
847    1 50.924684 27.401523 42.360794
4905   1 47.593976 28.571800 40.343072
11131  1 49.265402 26.230592 40.334944
13320  1 48.447211 27.401524 42.360794
17379  1 50.071449 28.571800 40.343072
946    1 50.976521 27.397666 46.398548
5004   1 47.623365 28.570718 44.388120
11230  1 49.314175 26.230127 44.373755
13419  1 48.499048 27.397666 46.398548
17478  1 50.100838 28.570717 44.388120
1045   1 51.079094 27.384543 50.419380
5103   1 47.679047 28.564014 48.424224
11329  1 49.396307 26.221403 48.401602
13518  1 48.601621 27.384543 50.419381
17577  1 50.156519 28.564013 48.424223
5203   1 50.299253 28.548263 52.433500
17676  1 47.821780 28.548264 52.433500
23903  1 49.545014 26.215960 52.423348
1144   1 48.825656 27.393709 54.438953
5302   1 50.679879 28.604084 56.455121
11527  1 47.320283 26.271449 56.456677
17775  1 48.202407 28.604084 56.455121
24002  1 49.797755 26.271449 56.456677
1243   1 49.135032 27.460394 58.479674
5401   1 50.953829 28.615806 60.523223
11626  1 47.523176 26.296777 60.507101
17874  1 48.476356 28.615806 60.523223
24101  1 50.000649 26.296777 60.507101
1342   1 49.297713 27.449041 62.547194
5500   1 51.057480 28.598164 64.589309
11725  1 47.633280 26.281187 64.570392
17973  1 48.580007 28.598165 64.589309
24200  1 50.110753 26.281187 64.570392
1441   1 49.372654 27.433417 66.607255
5599   1 51.098344 28.589643 68.638183
11824  1 47.688231 26.267987 68.626500
18072  1 48.620871 28.589644 68.638183
24299  1 50.165704 26.267986 68.626500
1540   1 49.404973 27.425537 70.655912
5698   1 51.114999 28.585361 72.681487
11923  1 47.710405 26.261832 72.675572
18171  1 48.637526 28.585362 72.681487
24398  1 50.187878 26.261832 72.675572
1639   1 49.415080 27.422436 74.701023
1738   1 49.408464 27.422949 78.747384
5797   1 51.118096 28.583884 76.724316
12022  1 47.710456 26.260926 76.723534
18270  1 48.640624 28.583884 76.724317
24497  1 50.187928 26.260926 76.723534
1837   1 49.381316 27.426933 82.798927
5896   1 51.108924 28.584811 80.769939
12121  1 47.688728 26.264513 80.775208
18369  1 48.631452 28.584811 80.769940
24596  1 50.166201 26.264512 80.775208
1936   1 49.313460 27.435884 86.861479
5995   1 51.080201 28.588353 84.821266
12220  1 47.633929 26.273171 84.835939
18468  1 48.602729 28.588353 84.821267
24695  1 50.111401 26.273171 84.835938
2035   1 49.130627 27.455700 90.946776
6094   1 50.998635 28.596587 88.884658
12319  1 47.510910 26.289171 88.913137
18567  1 48.521162 28.596587 88.884658
24794  1 49.988382 26.289170 88.913137
6193   1 50.648622 28.602238 92.974094
18666  1 48.171150 28.602239 92.974095
24893  1 49.725522 26.267976 92.977356
2134   1 50.844923 30.913090 12.065386
6291   1 47.556689 32.079653 10.052128
8370   1 49.170454 29.741526 10.052648
14607  1 48.367450 30.913091 12.065386
18765  1 50.034161 32.079652 10.052128
2233   1 50.852019 30.916223 16.072977
6390   1 47.504420 32.095065 14.061882
8469   1 49.238220 29.734784 14.061392
14706  1 48.374546 30.916223 16.072977
18864  1 49.981893 32.095065 14.061882
2332   1 50.857291 30.917467 20.110709
6489   1 47.534517 32.093084 18.091683
8568   1 49.220265 29.741024 18.091084
14805  1 48.379818 30.917467 20.110709
18963  1 50.011989 32.093084 18.091683
2431   1 50.861422 30.917332 24.155065
6588   1 47.550051 32.092114 22.133409
8667   1 49.214035 29.742914 22.132454
14904  1 48.383949 30.917332 24.155065
19062  1 50.027523 32.092114 22.133409
2530   1 50.864896 30.916410 28.202087
6687   1 47.558602 32.090585 26.179383
8766   1 49.212990 29.743231 26.177910
15003  1 48.387424 30.916410 28.202087
19161  1 50.036074 32.090585 26.179383
6786   1 47.563081 32.088569 30.227342
8865   1 49.215129 29.742940 30.225218
19260  1 50.040554 32.088569 30.227341
2629   1 50.868144 30.915117 32.250431
6885   1 47.564602 32.086139 34.276365
8964   1 49.220204 29.742567 34.273442
15102  1 48.390671 30.915118 32.250431
19359  1 50.042075 32.086139 34.276365
2728   1 50.871653 30.913645 36.299591
6984   1 47.563687 32.083310 38.326183
9063   1 49.228933 29.742263 38.322175
15201  1 48.394180 30.913645 36.299591
19458  1 50.041159 32.083310 38.326183
2827   1 50.876301 30.911985 40.349380
7083   1 47.561003 32.080371 42.376551
9162   1 49.243254 29.741498 42.370760
15300  1 48.398829 30.911985 40.349380
19557  1 50.038475 32.080371 42.376551
2926   1 50.884166 30.909910 44.398962
7182   1 47.557606 32.077948 46.426069
9261   1 49.268864 29.738730 46.416582
15399  1 48.406694 30.909911 44.398962
19656  1 50.035079 32.077947 46.426069
7281   1 47.554528 32.076373 50.470094
3025   1 50.901499 30.906646 48.445116
9360   1 49.329134 29.730532 50.450240
15498  1 48.424027 30.906646 48.445117
19755  1 50.032000 32.076373 50.470093
3124   1 48.483747 30.899086 52.474182
15598  1 50.961220 30.899086 52.474182
7380   1 47.552462 32.075983 54.470904
3223   1 49.183356 30.910445 56.483247
19854  1 50.029934 32.075983 54.470904
21934  1 49.573032 29.717672 54.442310
3322   1 49.497221 30.919953 60.557395
9558   1 47.635363 29.779708 58.499594
19953  1 48.788642 32.076516 58.541976
22033  1 50.112835 29.779708 58.499593
7480   1 51.266114 32.076516 58.541976
3421   1 49.542377 30.915711 64.605433
9657   1 47.792069 29.760984 62.572675
20052  1 48.787209 32.075691 62.587095
22132  1 50.269541 29.760984 62.572674
7579   1 51.264681 32.075691 62.587095
3520   1 49.558521 30.912357 68.647045
9756   1 47.839012 29.753334 66.621688
20151  1 48.788043 32.074784 66.629457
22231  1 50.316485 29.753334 66.621688
7678   1 51.265515 32.074784 66.629457
3619   1 49.566961 30.909835 72.686402
7777   1 51.268256 32.073304 70.668756
9855   1 47.858329 29.748926 70.663872
20250  1 48.790783 32.073304 70.668756
22330  1 50.335802 29.748926 70.663871
7876   1 51.273511 32.071231 74.707769
9954   1 47.866446 29.746442 74.704464
20349  1 48.796039 32.071231 74.707770
22429  1 50.343918 29.746442 74.704464
3718   1 49.572687 30.907845 76.726354
7975   1 51.282599 32.068777 78.748786
10053  1 47.867622 29.745449 78.746502
20448  1 48.805127 32.068777 78.748786
22528  1 50.345095 29.745449 78.746501
3817   1 49.577587 30.906493 80.768946
8074   1 51.298763 32.066340 82.793680
10152  1 47.861237 29.746025 82.792087
20547  1 48.821290 32.066340 82.793680
22627  1 50.338709 29.746024 82.792087
3916   1 49.582657 30.906119 84.815541
10251  1 47.838868 29.748204 86.842757
20646  1 48.854329 32.064568 86.843897
22726  1 50.316340 29.748204 86.842757
4015   1 49.587999 30.906767 88.865265
10350  1 47.759188 29.758956 90.902891
20745  1 48.943257 32.056321 90.902225
22825  1 50.236661 29.758955 90.902891
4114   1 49.594484 30.910623 92.937453
10449  1 49.087010 33.266319 12.041911
66     1 50.536675 34.439273 10.054682
12539  1 48.059203 34.439273 10.054683
16697  1 49.803763 35.621143 12.065507
10548  1 49.148864 33.270484 16.077182
165    1 50.740968 34.445168 14.062853
12638  1 48.263496 34.445168 14.062853
16796  1 49.935430 35.620818 16.085094
10647  1 49.185171 33.267821 20.114091
264    1 50.807391 34.444660 18.098294
4421   1 47.517341 35.617933 20.121277
12737  1 48.329918 34.444660 18.098295
16895  1 49.994813 35.617933 20.121277
10746  1 49.203780 33.265484 24.157787
363    1 50.842717 34.441242 22.138151
4520   1 47.548570 35.613544 24.163013
12836  1 48.365245 34.441242 22.138151
16994  1 50.026042 35.613544 24.163013
10845  1 49.212846 33.262800 28.204706
462    1 50.860400 34.437771 26.183067
4619   1 47.562661 35.609034 28.208800
12935  1 48.382927 34.437771 26.183067
17093  1 50.040134 35.609034 28.208800
561    1 50.867046 34.433982 30.230534
13034  1 48.389574 34.433982 30.230534
10944  1 49.215400 33.259644 32.253185
660    1 50.864864 34.429519 34.279104
4718   1 47.564240 35.604077 32.256396
13133  1 48.387391 34.429519 34.279104
17192  1 50.041713 35.604077 32.256396
11043  1 49.212332 33.255847 36.302505
759    1 50.854088 34.424201 38.328110
4817   1 47.554322 35.598111 36.304442
13232  1 48.376615 34.424201 38.328110
17291  1 50.031795 35.598111 36.304442
11142  1 49.203796 33.251614 40.352405
858    1 50.834106 34.419102 42.376864
4916   1 47.532297 35.591505 40.352062
13331  1 48.356634 34.419102 42.376864
17390  1 50.009769 35.591505 40.352062
11241  1 49.189490 33.248175 44.402059
957    1 50.801398 34.417075 46.422780
13430  1 48.323925 34.417076 46.422781
17489  1 49.973318 35.587118 44.397281
11340  1 49.165373 33.247469 48.448238
1056   1 50.734571 34.422347 50.456323
13529  1 48.257099 34.422348 50.456323
17588  1 49.910237 35.590055 48.433397
11439  1 49.100198 33.252883 52.477012
17687  1 49.761226 35.604019 52.442470
11538  1 48.391518 33.242407 56.487542
24013  1 50.868990 33.242407 56.487542
1155   1 50.485184 34.434554 54.448391
13628  1 48.007712 34.434554 54.448392
17786  1 49.373593 35.548817 56.464680
11637  1 48.077491 33.232186 60.560555
24112  1 50.554963 33.232186 60.560555
1254   1 49.939617 34.373570 58.506326
9569   1 48.438721 36.692946 58.491422
17885  1 49.096924 35.536960 60.532297
11736  1 48.032237 33.234962 64.608339
24211  1 50.509709 33.234962 64.608339
1353   1 49.781603 34.390718 62.578604
9668   1 48.273831 36.703490 62.558464
17984  1 48.992990 35.553106 64.597785
11835  1 48.019529 33.235960 68.649869
24310  1 50.497001 33.235959 68.649868
1452   1 49.736177 34.396533 66.627331
9767   1 48.199852 36.717330 66.618131
18083  1 48.955218 35.559251 68.646455
11934  1 48.018833 33.234883 72.689317
24409  1 50.496306 33.234883 72.689317
1551   1 49.722182 34.397943 70.669497
9866   1 48.172306 36.722166 70.666746
18182  1 48.945958 35.559806 72.689963
1650   1 49.724384 34.396149 74.710526
9965   1 48.171821 36.720734 74.712395
12033  1 48.026906 33.232210 76.729740
24508  1 50.504378 33.232210 76.729740
1749   1 49.740913 34.391920 78.754060
10064  1 48.194548 36.714428 78.760580
18281  1 48.956067 35.556261 76.733863
12132  1 48.045786 33.228430 80.773716
24607  1 50.523258 33.228430 80.773716
1848   1 49.777745 34.385786 82.803616
10163  1 48.246781 36.704042 82.816461
18380  1 48.987167 35.549456 80.782521
12231  1 48.084658 33.223994 84.823935
24706  1 50.562130 33.223993 84.823935
1947   1 49.856453 34.377136 86.864761
10262  1 48.348254 36.690224 86.885310
18479  1 49.052111 35.539511 84.841128
14519  1 47.575999 34.360200 90.949407
12330  1 48.177404 33.217659 88.886185
24805  1 50.654877 33.217658 88.886185
2046   1 50.053472 34.360199 90.949406
10361  1 48.531791 36.691920 90.954086
18578  1 49.187683 35.524855 88.917254
12429  1 48.547772 33.218914 92.975182
24904  1 51.025245 33.218913 92.975182
18677  1 49.468854 35.552139 92.980484
8381   1 48.830092 36.772938 10.055409
2145   1 50.591763 37.962287 12.069916
10460  1 48.942009 40.297889 12.064575
14618  1 48.114290 37.962287 12.069916
18776  1 49.662628 39.104555 10.049161
20856  1 51.307565 36.772937 10.055409
22935  1 51.419482 40.297888 12.064575
8480   1 49.035898 36.797291 14.080148
2244   1 50.734953 37.971417 16.097111
10559  1 49.079153 40.317334 16.100304
14717  1 48.257481 37.971417 16.097111
18875  1 49.843077 39.141907 14.084651
8579   1 49.134639 36.794750 18.107086
2343   1 50.812339 37.967203 20.129164
10658  1 49.162999 40.315106 20.135188
14816  1 48.334867 37.967204 20.129164
18974  1 49.950983 39.144091 18.115468
8678   1 49.184916 36.790153 22.145041
2442   1 50.853030 37.961240 24.169358
10757  1 49.209827 40.307836 24.175239
14915  1 48.375558 37.961240 24.169358
19073  1 50.011924 39.138195 22.151779
8777   1 49.210246 36.784784 26.188332
2541   1 50.870944 37.955028 28.213880
10856  1 49.229828 40.300350 28.219361
15014  1 48.393472 37.955028 28.213880
19172  1 50.042654 39.131250 26.194177
8876   1 49.218479 36.779288 30.234615
19271  1 50.051440 39.124361 30.239359
8975   1 49.212218 36.773016 34.281735
2640   1 50.870952 37.948530 32.260069
10955  1 49.227331 40.292846 32.264321
15113  1 48.393479 37.948530 32.260069
19370  1 50.040495 39.116729 34.284595
9074   1 49.191219 36.765507 38.328314
2739   1 50.853743 37.940769 36.305841
11054  1 49.202319 40.283809 36.307562
15212  1 48.376271 37.940769 36.305841
19469  1 50.008933 39.107426 38.327927
9173   1 49.153872 36.758663 42.372785
2838   1 50.818020 37.932154 40.349636
11153  1 49.153169 40.273248 40.347431
15311  1 48.340548 37.932154 40.349636
19568  1 49.955028 39.098947 42.367466
9272   1 49.094016 36.757872 46.410632
2937   1 50.760901 37.927229 44.388585
11252  1 49.079204 40.266689 44.382156
15410  1 48.283429 37.927230 44.388585
19667  1 49.874736 39.098211 46.399586
9371   1 48.984028 36.768414 50.431315
3036   1 50.670235 37.932484 48.416347
11351  1 48.977377 40.268564 48.411462
15509  1 48.192763 37.932484 48.416347
19766  1 49.754452 39.103811 50.425072
23826  1 51.454849 40.268563 48.411462
3135   1 50.514054 37.936592 52.437786
11450  1 48.834025 40.262907 52.442750
15608  1 48.036582 37.936592 52.437786
23925  1 51.311497 40.262907 52.442750
9470   1 48.753245 36.758822 54.450900
21945  1 51.230718 36.758822 54.450899
3234   1 50.254800 37.881639 56.470713
11549  1 48.639857 40.216053 56.480332
15707  1 47.777328 37.881639 56.470713
19865  1 49.566178 39.082317 54.456874
24024  1 51.117329 40.216053 56.480332
22044  1 50.916193 36.692945 58.491422
3333   1 50.047842 37.856651 60.520842
11648  1 48.477748 40.188244 60.523398
15806  1 47.570370 37.856651 60.520842
19964  1 49.346264 39.026919 58.496017
24123  1 50.955221 40.188244 60.523398
22143  1 50.751304 36.703490 62.558464
3432   1 49.936535 37.871176 64.583758
11747  1 48.377778 40.195365 64.577499
20063  1 49.205867 39.025342 62.549691
24222  1 50.855250 40.195365 64.577499
22242  1 50.677324 36.717330 66.618131
3531   1 49.883892 37.882087 68.639659
11846  1 48.323190 40.206270 68.633749
20162  1 49.127377 39.039011 66.608664
24321  1 50.800663 40.206270 68.633749
22341  1 50.649779 36.722166 70.666746
3630   1 49.868245 37.884436 72.688858
11945  1 48.304837 40.209625 72.687118
20261  1 49.092538 39.046429 70.662579
24420  1 50.782309 40.209625 72.687118
22440  1 50.649294 36.720734 74.712395
20360  1 49.090386 39.045352 74.713232
22539  1 50.672021 36.714428 78.760580
3729   1 49.879951 37.880004 76.737606
12044  1 48.317635 40.204499 76.739878
20459  1 49.117252 39.037205 78.765838
24519  1 50.795107 40.204499 76.739878
22638  1 50.724254 36.704041 82.816461
3828   1 49.919767 37.870143 80.791320
12143  1 48.361519 40.192856 80.796045
20558  1 49.177174 39.024173 82.824849
24618  1 50.838991 40.192856 80.796045
22737  1 50.825727 36.690223 86.885310
3927   1 49.997955 37.856584 84.854551
12242  1 48.441019 40.180450 84.856586
20657  1 49.279720 39.013791 86.889062
24717  1 50.918491 40.180449 84.856586
16499  1 47.654488 37.850137 88.922117
22836  1 51.009264 36.691920 90.954086
4026   1 50.131961 37.850137 88.922117
12341  1 48.564249 40.183741 88.914783
20756  1 49.439081 39.031062 90.945552
24816  1 51.041722 40.183740 88.914783
16598  1 47.870092 37.893227 92.972505
4125   1 50.347564 37.893227 92.972505
12440  1 48.743928 40.231975 92.961405
24915  1 51.221401 40.231975 92.961405
77     1 50.515270 41.437159 10.038628
8392   1 48.899967 43.770578 10.025536
12550  1 48.037798 41.437159 10.038628
16708  1 49.790510 42.632178 12.054167
20867  1 51.377439 43.770577 10.025536
176    1 50.676749 41.481392 14.079931
8491   1 49.051187 43.818432 14.069813
12649  1 48.199276 41.481392 14.079931
16807  1 49.920763 42.658843 16.095824
20966  1 51.528660 43.818431 14.069813
275    1 50.783920 41.489858 18.117381
8590   1 49.156039 43.831533 18.113247
12748  1 48.306448 41.489858 18.117381
16906  1 50.005133 42.659724 20.136386
374    1 50.848998 41.484412 22.156474
8689   1 49.221520 43.827254 22.157720
12847  1 48.371525 41.484413 22.156474
17005  1 50.054043 42.652246 24.179473
473    1 50.882572 41.476385 26.199633
8788   1 49.255144 43.819094 26.204088
12946  1 48.405100 41.476386 26.199633
17104  1 50.074086 42.644213 28.224778
572    1 50.890468 41.468745 30.244587
8887   1 49.260400 43.811682 30.250219
13045  1 48.412995 41.468745 30.244587
671    1 50.874030 41.460436 34.288222
8986   1 49.237446 43.803613 34.293165
13144  1 48.396558 41.460436 34.288222
17203  1 50.067841 42.636555 32.269359
770    1 50.831760 41.449597 38.328541
9085   1 49.184350 43.791288 38.331551
13243  1 48.354288 41.449597 38.328541
17302  1 50.034474 42.626824 36.310622
869    1 50.763204 41.438545 42.364735
9184   1 49.102787 43.775943 42.366699
13342  1 48.285731 41.438545 42.364735
17401  1 49.972574 42.613768 40.347797
21659  1 51.580260 43.775943 42.366699
968    1 50.671060 41.434391 46.396952
9283   1 49.002688 43.766422 46.401215
13441  1 48.193588 41.434391 46.396952
17500  1 49.886003 42.603164 44.381882
21758  1 51.480161 43.766421 46.401215
1067   1 50.552583 41.433011 50.428984
9382   1 48.887884 43.759685 50.437687
13540  1 48.075110 41.433011 50.428984
17599  1 49.780279 42.599517 48.415216
21857  1 51.365356 43.759685 50.437687
17698  1 49.650176 42.588273 52.451981
1166   1 50.395604 41.408345 54.466419
9481   1 48.752169 43.736603 54.476916
13639  1 47.918132 41.408345 54.466419
17797  1 49.494119 42.550511 56.490930
21956  1 51.229642 43.736602 54.476916
1265   1 50.226391 41.364323 58.505198
9580   1 48.614147 43.702593 58.515059
13738  1 47.748919 41.364324 58.505198
17896  1 49.361381 42.524943 60.530825
22055  1 51.091620 43.702592 58.515059
1364   1 50.108167 41.356056 62.551054
9679   1 48.513257 43.691968 62.556783
17995  1 49.274445 42.526185 64.578462
22154  1 50.990729 43.691968 62.556784
1463   1 50.036349 41.365231 66.604652
9778   1 48.450245 43.696610 66.605694
18094  1 49.224665 42.534133 68.631653
22253  1 50.927717 43.696610 66.605694
1562   1 50.001480 41.372359 70.659465
9877   1 48.419158 43.701633 70.658813
18193  1 49.207356 42.536914 72.685965
22352  1 50.896631 43.701633 70.658813
1661   1 49.999196 41.371246 74.713229
9976   1 48.418002 43.699959 74.712919
22451  1 50.895475 43.699959 74.712919
1760   1 50.027764 41.362156 78.767935
10075  1 48.446438 43.690913 78.766894
18292  1 49.220801 42.531393 76.740271
22550  1 50.923911 43.690912 78.766894
1859   1 50.088481 41.349318 82.825308
10174  1 48.505107 43.679461 82.820279
18391  1 49.264846 42.519736 80.795430
22649  1 50.982580 43.679461 82.820278
14431  1 47.708147 41.344303 86.882635
1958   1 50.185619 41.344302 86.882635
10273  1 48.597240 43.678095 86.871616
18490  1 49.341282 42.510046 84.850789
22748  1 51.074712 43.678094 86.871616
14530  1 47.850942 41.369784 90.933126
2057   1 50.328415 41.369783 90.933126
10372  1 48.730588 43.706800 90.918935
18589  1 49.455902 42.519470 88.902702
22847  1 51.208061 43.706799 90.918935
18688  1 49.616246 42.568622 92.948282
2156   1 50.651910 44.966673 12.040766
10471  1 49.045629 47.301971 12.025458
14629  1 48.174437 44.966673 12.040766
18787  1 49.767719 46.104628 10.010748
22946  1 51.523102 47.301971 12.025458
2255   1 50.778852 44.997214 16.086342
10570  1 49.174279 47.333197 16.074016
14728  1 48.301379 44.997215 16.086342
18886  1 49.917061 46.154501 14.056477
23045  1 51.651751 47.333196 16.074016
2354   1 50.862470 45.000152 20.133125
10669  1 49.258321 47.335905 20.127153
14827  1 48.384997 45.000153 20.133125
18985  1 50.021428 46.169341 18.105071
2453   1 50.910927 44.993079 24.181498
10768  1 49.305326 47.329163 24.181858
14926  1 48.433454 44.993079 24.181498
19084  1 50.086351 46.165601 22.156024
2552   1 50.928792 44.985578 28.229888
10867  1 49.318983 47.323342 28.234547
15025  1 48.451319 44.985578 28.229888
19183  1 50.117978 46.158112 26.207379
19282  1 50.118584 46.152236 30.256159
2651   1 50.917245 44.978938 32.275351
10966  1 49.300245 47.319189 32.282141
15124  1 48.439773 44.978938 32.275351
19381  1 50.087767 46.145598 34.299667
2750   1 50.874783 44.969201 36.315760
11065  1 49.247456 47.310432 36.323014
15223  1 48.397311 44.969201 36.315760
19480  1 50.023204 46.131890 38.337447
2849   1 50.800306 44.952756 40.351840
11164  1 49.159038 47.289938 40.359070
15322  1 48.322834 44.952757 40.351840
19579  1 49.928168 46.110695 42.372837
23639  1 51.636511 47.289937 40.359070
2948   1 50.702461 44.936262 44.387005
11263  1 49.048141 47.266445 44.395528
15421  1 48.224989 44.936262 44.387005
19678  1 49.819999 46.095407 46.409572
23738  1 51.525614 47.266445 44.395528
3047   1 50.594068 44.927479 48.423602
11362  1 48.935462 47.254149 48.433690
15520  1 48.116595 44.927479 48.423602
19777  1 49.707244 46.085959 50.447933
23837  1 51.412934 47.254149 48.433690
3146   1 50.473723 44.914570 52.462401
11461  1 48.821328 47.242576 52.472072
15619  1 47.996251 44.914571 52.462401
23936  1 51.298800 47.242575 52.472072
3245   1 50.341922 44.885415 56.500958
11560  1 48.705949 47.221303 56.509179
15718  1 47.864449 44.885416 56.500958
19876  1 49.585877 46.066892 54.486693
24035  1 51.183421 47.221303 56.509179
3344   1 50.229839 44.863977 60.539127
11659  1 48.609410 47.204418 60.546237
15817  1 47.752367 44.863978 60.539127
19975  1 49.468798 46.041449 58.523825
24134  1 51.086882 47.204418 60.546237
3443   1 50.154383 44.861745 64.582918
11758  1 48.543870 47.200502 64.588091
20074  1 49.381658 46.030920 62.563395
24233  1 51.021343 47.200502 64.588091
3542   1 50.111024 44.866300 68.632943
11857  1 48.506654 47.202283 68.635947
20173  1 49.326967 46.032206 66.609291
24332  1 50.984126 47.202283 68.635947
3641   1 50.096454 44.867649 72.686076
11956  1 48.494829 47.202228 72.687359
20272  1 49.300471 46.034825 70.660247
24431  1 50.972301 47.202227 72.687359
20371  1 49.300647 46.032499 74.712975
3740   1 50.110158 44.862026 76.739476
12055  1 48.508161 47.196855 76.738803
20470  1 49.327963 46.024081 78.764553
24530  1 50.985633 47.196855 76.738803
3839   1 50.152631 44.851242 80.791561
12154  1 48.548264 47.187231 80.787298
20569  1 49.384032 46.013931 82.813271
24629  1 51.025736 47.187230 80.787298
16411  1 47.748290 44.843553 84.841449
3938   1 50.225763 44.843552 84.841449
12253  1 48.618669 47.180249 84.831859
20668  1 49.472977 46.013688 86.859206
24728  1 51.096142 47.180249 84.831859
16510  1 47.857873 44.855305 88.888756
4037   1 50.335345 44.855304 88.888756
12352  1 48.726390 47.190930 88.874647
20767  1 49.602662 46.042102 90.903940
24827  1 51.203862 47.190930 88.874647
16609  1 48.009592 44.903728 92.933788
4136   1 50.487065 44.903728 92.933788
12451  1 48.878152 47.237603 92.918511
24926  1 51.355625 47.237603 92.918511
16719  1 49.926046 49.638431 12.009114
187    1 50.795610 48.490168 14.041393
12660  1 48.318137 48.490169 14.041393
8502   1 49.210764 50.825144 14.026241
16818  1 50.062587 49.666662 16.060992
20977  1 51.688237 50.825143 14.026241
286    1 50.902894 48.503195 18.095141
12759  1 48.425422 48.503196 18.095141
8601   1 49.325209 50.832246 18.086426
16917  1 50.149286 49.666327 20.120887
385    1 50.967807 48.498604 22.152946
12858  1 48.490334 48.498604 22.152946
8700   1 49.390544 50.825621 22.150485
17016  1 50.194309 49.659674 24.181561
484    1 50.995977 48.492382 26.209745
12957  1 48.518504 48.492382 26.209745
8799   1 49.413560 50.821336 26.211102
17115  1 50.201769 49.656632 28.238321
583    1 50.989797 48.489475 30.261978
13056  1 48.512324 48.489475 30.261978
8898   1 49.398559 50.822601 30.266460
682    1 50.949356 48.485777 34.307337
13155  1 48.471883 48.485777 34.307337
8997   1 49.346523 50.823555 34.314974
17214  1 50.173764 49.656527 32.288892
781    1 50.871645 48.471268 38.345676
13254  1 48.394172 48.471268 38.345676
9096   1 49.252801 50.809654 38.355109
17313  1 50.108763 49.650259 36.331621
21571  1 51.730273 50.809653 38.355109
880    1 50.760071 48.442961 42.381638
13353  1 48.282598 48.442962 42.381637
9195   1 49.118639 50.773021 42.391477
17412  1 50.003125 49.625549 40.368262
21670  1 51.596111 50.773020 42.391477
979    1 50.641110 48.422490 46.419575
13452  1 48.163638 48.422490 46.419575
9294   1 48.984180 50.748705 46.429168
17511  1 49.874549 49.594324 44.405466
21769  1 51.461653 50.748705 46.429168
1078   1 50.527899 48.413097 50.457528
13551  1 48.050427 48.413098 50.457528
9393   1 48.868030 50.742137 50.464448
17610  1 49.754689 49.580824 48.443256
21868  1 51.345502 50.742136 50.464448
17709  1 49.643956 49.572856 52.479266
1177   1 50.416320 48.399320 54.494307
13650  1 47.938847 48.399320 54.494307
9492   1 48.763731 50.734164 54.498239
17808  1 49.540678 49.558638 56.514347
21967  1 51.241203 50.734164 54.498239
1276   1 50.314531 48.381126 58.530218
13749  1 47.837059 48.381127 58.530218
9591   1 48.674651 50.721807 58.533274
17907  1 49.456998 49.545929 60.550913
22066  1 51.152124 50.721806 58.533274
1375   1 50.238967 48.371801 62.568904
9690   1 48.609791 50.713916 62.572284
18006  1 49.400472 49.541376 64.592330
22165  1 51.087264 50.713916 62.572283
1474   1 50.191785 48.370911 66.613379
9789   1 48.569604 50.711740 66.616709
18105  1 49.368752 49.541226 68.639230
22264  1 51.047076 50.711740 66.616709
1573   1 50.169433 48.371592 70.662747
9888   1 48.550688 50.711162 70.665406
18204  1 49.358973 49.540229 72.689369
22363  1 51.028160 50.711162 70.665406
1672   1 50.170348 48.368919 74.713824
9987   1 48.551435 50.708568 74.715430
22462  1 51.028908 50.708567 74.715429
1771   1 50.195580 48.361548 78.762915
10086  1 48.573211 50.702644 78.763101
18303  1 49.370957 49.535512 76.739172
22561  1 51.050683 50.702643 78.763100
1870   1 50.248536 48.352429 82.807357
10185  1 48.621145 50.694830 82.804898
18402  1 49.407445 49.527351 80.784957
22660  1 51.098618 50.694829 82.804898
14442  1 47.858083 48.351063 86.847841
1969   1 50.335556 48.351063 86.847841
10284  1 48.705309 50.691196 86.840144
18501  1 49.474553 49.520315 84.824840
22759  1 51.182782 50.691196 86.840144
14541  1 47.989035 48.376055 90.889069
16521  1 47.943685 51.865279 88.853772
2068   1 50.466508 48.376055 90.889069
10383  1 48.841295 50.709371 90.875667
18600  1 49.582386 49.527024 88.862117
22858  1 51.318768 50.709371 90.875667
88     1 50.639293 48.439384  9.994952
12561  1 48.161820 48.439384  9.994952
8403   1 49.036384 50.775232  9.978856
18699  1 49.742608 49.570351 92.903225
20878  1 51.513856 50.775232  9.978856
2167   1 50.817708 51.976142 11.992870
14640  1 48.340236 51.976142 11.992870
10482  1 49.251221 54.313953 11.979262
22957  1 51.728694 54.313953 11.979262
2266   1 50.969961 51.996175 16.050511
14739  1 48.492489 51.996175 16.050511
198    1 51.071945 55.481333 14.013218
10581  1 49.427583 54.318272 16.048581
12671  1 48.594472 55.481333 14.013218
18897  1 50.123318 53.157524 14.014192
2365   1 51.060721 51.990575 20.117458
14838  1 48.583249 51.990576 20.117458
297    1 51.198641 55.470016 18.090004
10680  1 49.517159 54.308841 20.119536
12770  1 48.721168 55.470016 18.090004
18996  1 50.248068 53.154755 18.083347
2464   1 51.101939 51.984498 24.181225
14937  1 48.624466 51.984498 24.181225
396    1 51.248722 55.465004 22.151345
10779  1 49.549798 54.305076 24.180209
12869  1 48.771250 55.465004 22.151345
19095  1 50.310878 53.146904 22.150236
2563   1 51.101330 51.984985 28.239853
15036  1 48.623858 51.984985 28.239853
495    1 51.255193 55.465766 26.206122
10878  1 49.541025 54.308470 28.236937
12968  1 48.777720 55.465766 26.206122
19194  1 50.326372 53.145286 26.210335
594    1 51.224209 55.473598 30.261437
13067  1 48.746736 55.473598 30.261437
19293  1 50.301827 53.150857 30.267273
2662   1 51.062457 51.990067 32.293776
15135  1 48.584984 51.990068 32.293776
693    1 51.147888 55.486872 34.319978
10977  1 49.491980 54.318463 32.293731
13166  1 48.670416 55.486872 34.319978
19392  1 50.236813 53.157956 34.320410
2761   1 50.982878 51.988434 36.340181
15234  1 48.505405 51.988434 36.340181
792    1 51.008716 55.484146 38.371758
11076  1 49.395687 54.324108 36.346537
13265  1 48.531244 55.484146 38.371758
19491  1 50.122992 53.147350 38.364386
2860   1 50.854449 51.960076 40.378069
15333  1 48.376977 51.960076 40.378069
891    1 50.788588 55.426650 42.408259
11175  1 49.235406 54.294075 40.387252
13364  1 48.311115 55.426650 42.408259
19590  1 49.955713 53.100980 42.400883
23650  1 51.712878 54.294074 40.387252
2959   1 50.700154 51.920459 44.415050
15432  1 48.222681 51.920459 44.415050
990    1 50.599369 55.404404 46.437401
11274  1 49.041483 54.245609 44.422372
13463  1 48.121897 55.404404 46.437401
19689  1 49.798804 53.075305 46.436176
23749  1 51.518956 54.245609 44.422372
3058   1 50.569544 51.908792 48.450096
15531  1 48.092072 51.908792 48.450096
1089   1 50.476150 55.410420 50.460430
11373  1 48.896687 54.239746 48.451339
13562  1 47.998678 55.410421 50.460430
19788  1 49.678149 53.074213 50.466320
23848  1 51.374159 54.239746 48.451339
3157   1 50.460720 51.906020 52.482086
15630  1 47.983248 51.906020 52.482086
11472  1 48.791155 54.242525 52.478657
23947  1 51.268627 54.242524 52.478657
3256   1 50.368131 51.897641 56.515399
15729  1 47.890659 51.897641 56.515399
1188   1 50.390880 55.411097 54.490622
11571  1 48.710976 54.238027 56.512048
19887  1 49.581269 53.071576 54.497123
24046  1 51.188449 54.238027 56.512048
3355   1 50.296599 51.888204 60.552590
1287   1 50.329416 55.405114 58.529063
11670  1 48.652373 54.230757 60.551523
19986  1 49.504943 53.063335 58.532648
24145  1 51.129846 54.230756 60.551523
3454   1 50.248871 51.883530 64.594885
1386   1 50.286811 55.399459 62.572447
11769  1 48.613586 54.226281 64.595692
20085  1 49.450940 53.056654 62.573318
24244  1 51.091058 54.226281 64.595692
3553   1 50.222127 51.882225 68.641904
1485   1 50.260099 55.396605 66.619420
11868  1 48.591467 54.224482 68.643540
20184  1 49.417540 53.053853 66.618743
24343  1 51.068939 54.224482 68.643540
3652   1 50.213591 51.880826 72.691556
1584   1 50.246402 55.395331 70.668835
11967  1 48.583514 54.223143 72.693343
20283  1 49.401455 53.052658 70.667578
24442  1 51.060986 54.223142 72.693343
1683   1 50.244320 55.393896 74.718857
20382  1 49.401141 53.050518 74.717345
3751   1 50.223111 51.877089 76.740627
1782   1 50.254898 55.391353 78.766973
12066  1 48.589519 54.220589 76.742532
20481  1 49.417996 53.046247 78.764817
24541  1 51.066991 54.220589 76.742531
3850   1 50.253880 51.870853 80.785559
1881   1 50.282882 55.387686 82.810224
12165  1 48.612517 54.216385 80.788001
20580  1 49.457408 53.040508 82.806736
24640  1 51.089990 54.216385 80.788000
3949   1 50.314464 51.864260 84.822929
1980   1 50.339096 55.384755 86.846877
12264  1 48.660481 54.211789 84.827007
20679  1 49.533205 53.035607 86.839283
24739  1 51.137954 54.211789 84.827007
14552  1 47.989445 55.383800 90.866028
4048   1 50.421157 51.865278 88.853772
2079   1 50.466918 55.383800 90.866028
12363  1 48.756515 54.208628 88.853951
20778  1 49.673708 53.043780 90.866238
24838  1 51.233987 54.208627 88.853951
16620  1 48.121327 51.901913 92.889061
4147   1 50.598799 51.901913 92.889061
99     1 50.797051 55.452830  9.950203
12572  1 48.319578 55.452830  9.950203
18798  1 49.913779 53.112900  9.963397
12462  1 48.958304 54.232344 92.878191
24937  1 51.435777 54.232343 92.878191
2178   1 51.326393 58.946749 12.018694
14651  1 48.848921 58.946749 12.018694
16730  1 50.211704 56.644158 11.978195
2277   1 51.410673 58.940830 16.076314
8513   1 49.609978 57.787225 14.037660
14750  1 48.933201 58.940831 16.076314
16829  1 50.402080 56.629790 16.062370
4454   1 47.992482 56.624748 20.124478
2376   1 51.434546 58.941896 20.126012
8612   1 49.695154 57.783612 18.099670
14849  1 48.957073 58.941896 20.126012
16928  1 50.469954 56.624748 20.124478
4553   1 48.011153 56.624066 24.177344
2475   1 51.435787 58.943467 24.171971
8711   1 49.721027 57.783040 22.150936
14948  1 48.958315 58.943467 24.171971
17027  1 50.488625 56.624066 24.177344
4652   1 47.996945 56.628339 28.228508
2574   1 51.419532 58.947197 28.217031
8810   1 49.718230 57.785137 26.198735
15047  1 48.942060 58.947198 28.217031
17126  1 50.474417 56.628339 28.228508
8909   1 49.687952 57.791834 30.248295
2673   1 51.376793 58.955174 32.266204
9008   1 49.611818 57.806616 34.307758
15146  1 48.899321 58.955174 32.266204
17225  1 50.421923 56.639923 32.284725
2772   1 51.269252 58.972661 36.331272
9107   1 49.444740 57.817535 38.373471
15245  1 48.791779 58.972661 36.331272
17324  1 50.310425 56.654500 36.346660
2871   1 50.987302 58.960121 40.397265
9206   1 49.127617 57.749725 42.411151
15344  1 48.509829 58.960121 40.397265
17423  1 50.102287 56.627959 40.394392
21681  1 51.605089 57.749724 42.411151
2970   1 50.598451 58.903882 44.415680
9305   1 48.895228 57.739687 46.427471
15443  1 48.120979 58.903882 44.415680
17522  1 49.842055 56.571635 44.424413
21780  1 51.372700 57.739686 46.427471
3069   1 50.446271 58.918192 48.421784
9404   1 48.781677 57.750742 50.445407
17621  1 49.683553 56.575816 48.443034
21879  1 51.259150 57.750742 50.445406
3168   1 50.379023 58.921928 52.455398
17720  1 49.588802 56.581954 52.468385
3267   1 50.336957 58.919040 56.498716
9503   1 48.716918 57.751187 54.481072
17819  1 49.525639 56.578833 56.505629
21978  1 51.194391 57.751186 54.481071
3366   1 50.307123 58.914723 60.545325
9602   1 48.672575 57.746441 58.524146
17918  1 49.481122 56.573039 60.548685
22077  1 51.150047 57.746441 58.524146
3465   1 50.286366 58.911846 64.593650
9701   1 48.641682 57.741954 62.570457
18017  1 49.451389 56.569136 64.595110
22176  1 51.119155 57.741953 62.570457
3564   1 50.272753 58.910678 68.643326
9800   1 48.621519 57.739582 66.618936
18116  1 49.433633 56.567414 68.644003
22275  1 51.098991 57.739582 66.618936
3663   1 50.264759 58.910401 72.693701
9899   1 48.609902 57.738662 70.668923
18215  1 49.425798 56.566478 72.694191
22374  1 51.087375 57.738662 70.668923
9998   1 48.605599 57.738077 74.719215
22473  1 51.083072 57.738077 74.719215
3762   1 50.261695 58.910314 76.743520
10097  1 48.608925 57.737193 78.768025
18314  1 49.427494 56.565168 76.743841
22572  1 51.086397 57.737193 78.768025
3861   1 50.264066 58.910203 80.791011
10196  1 48.622630 57.735886 82.812979
18413  1 49.440818 56.563056 80.790549
22671  1 51.100102 57.735885 82.812979
3960   1 50.274353 58.910119 84.833456
10295  1 48.654473 57.733683 86.850281
18512  1 49.472220 56.560154 84.831328
22770  1 51.131945 57.733683 86.850281
4059   1 50.299486 58.908609 88.863192
10394  1 48.711443 57.737815 90.885098
18611  1 49.534661 56.559629 88.866741
22869  1 51.188915 57.737814 90.885098
8414   1 49.246765 57.784705  9.950026
4158   1 50.240766 58.923720 92.871906
18710  1 49.734001 56.564999 92.873932
20889  1 51.724237 57.784705  9.950026
10493  1 50.039200 61.243138 12.013499
6434   1 48.205747 60.096832 14.052441
110    1 51.756625 62.406606 14.027496
10592  1 49.955700 61.256099 16.070927
12583  1 49.279153 62.406606 14.027496
18908  1 50.683219 60.096832 14.052441
6533   1 48.204741 60.099820 18.100610
209    1 51.670131 62.416198 18.088433
10691  1 49.926276 61.260227 20.119875
12682  1 49.192659 62.416198 18.088434
19007  1 50.682213 60.099820 18.100610
6632   1 48.199594 60.102212 22.146526
308    1 51.634568 62.421554 22.137768
10790  1 49.909302 61.263538 24.164462
12781  1 49.157096 62.421554 22.137768
19106  1 50.677066 60.102212 22.146526
6731   1 48.188077 60.104956 26.189943
407    1 51.615505 62.425140 26.182008
10889  1 49.893517 61.266652 28.206748
12880  1 49.138032 62.425140 26.182009
19205  1 50.665549 60.104955 26.189943
6830   1 48.165035 60.109300 30.233545
506    1 51.603387 62.427709 30.224284
12979  1 49.125914 62.427709 30.224284
19304  1 50.642507 60.109300 30.233545
6929   1 48.113636 60.117026 34.282535
605    1 51.594940 62.429739 34.267717
10988  1 49.871170 61.270502 32.249620
13078  1 49.117467 62.429740 34.267717
19403  1 50.591108 60.117026 34.282535
11087  1 49.820157 61.275508 36.297405
13177  1 49.114798 62.433103 38.312194
19502  1 50.428050 60.136252 38.354095
704    1 51.592270 62.433103 38.312195
11186  1 49.495740 61.264743 40.369522
13276  1 50.339418 62.431750 42.380356
19601  1 49.876345 60.073682 42.409573
23661  1 51.973212 61.264743 40.369522
11285  1 48.786109 61.254793 44.376027
13375  1 50.331655 62.431331 46.379250
19700  1 49.625388 60.085624 46.397928
23760  1 51.263582 61.254793 44.376027
11384  1 48.716911 61.260602 48.402327
13474  1 50.324559 62.430282 50.420990
19799  1 49.554697 60.091412 50.428844
23859  1 51.194383 61.260602 48.402327
11483  1 48.688732 61.260604 52.446123
23958  1 51.166204 61.260604 52.446123
1100   1 50.316905 62.428685 54.468305
11582  1 48.669402 61.258344 56.493801
19898  1 49.517358 60.090417 54.472522
24057  1 51.146875 61.258343 56.493801
1199   1 50.308975 62.426974 58.517027
11681  1 48.654252 61.255853 60.542515
19997  1 49.491175 60.086987 58.519698
24156  1 51.131724 61.255853 60.542515
1298   1 50.301237 62.425870 62.566114
11780  1 48.642291 61.254403 64.591778
20096  1 49.471948 60.084037 62.568149
24255  1 51.119763 61.254402 64.591778
7623   1 51.949420 60.084036 62.568149
1397   1 50.293671 62.425696 66.615589
11879  1 48.632667 61.254141 68.641637
20195  1 49.458150 60.082612 66.617570
24354  1 51.110139 61.254141 68.641637
7722   1 51.935622 60.082611 66.617570
1496   1 50.285752 62.426382 70.665365
11978  1 48.624392 61.254719 72.691706
20294  1 49.448419 60.082380 70.667744
24453  1 51.101865 61.254719 72.691705
7821   1 51.925891 60.082380 70.667744
1595   1 50.276564 62.427801 74.714724
20393  1 49.441678 60.082743 74.717883
7920   1 51.919151 60.082743 74.717883
1694   1 50.264550 62.429995 78.762313
12077  1 48.616445 61.255861 76.740966
20492  1 49.437300 60.083405 78.766631
24552  1 51.093918 61.255861 76.740965
8019   1 51.914772 60.083405 78.766631
1793   1 50.246501 62.433418 82.806085
12176  1 48.607496 61.257637 80.787838
20591  1 49.435050 60.084518 82.812044
24651  1 51.084968 61.257637 80.787838
8118   1 51.912523 60.084518 82.812044
1892   1 50.214599 62.439647 86.842403
12275  1 48.594853 61.260729 84.829728
20690  1 49.434869 60.086605 86.849943
24750  1 51.072326 61.260729 84.829728
8217   1 51.912342 60.086605 86.849943
1991   1 50.161277 62.442619 90.876472
12374  1 48.571341 61.267797 88.859007
20789  1 49.436299 60.090153 90.857087
24849  1 51.048813 61.267797 88.859007
8316   1 51.913772 60.090152 90.857087
6335   1 48.204842 60.092530  9.982025
12484  1 49.636857 62.401227  9.940519
18809  1 50.682314 60.092530  9.982025
12473  1 48.633550 61.261262 92.867205
24948  1 51.111023 61.261261 92.867205
4169   1 52.197839  0.512800 11.964084
16742  1 -0.016543  0.533910 16.046872
8426   1 53.817959  1.679646 13.994301
20900  1 51.340486  1.679646 13.994301
4268   1 52.010380  0.533911 16.046872
16841  1 -0.088844  0.544030 20.106867
8525   1 53.691744  1.696568 18.068837
20999  1 51.214271  1.696569 18.068837
4367   1 51.938079  0.544030 20.106867
16940  1 54.382791  0.549657 24.156251
8624   1 53.633937  1.706144 22.127025
21098  1 51.156465  1.706144 22.127025
4466   1 51.905318  0.549657 24.156252
17039  1 54.368976  0.552645 28.201058
8723   1 53.609421  1.711046 26.176761
21197  1 51.131948  1.711046 26.176762
4565   1 51.891503  0.552645 28.201059
8822   1 53.608872  1.712095 30.223974
21296  1 51.131400  1.712095 30.223974
17138  1 54.371238  0.553349 32.245399
8921   1 53.643246  1.708712 34.275094
21395  1 51.165774  1.708712 34.275094
4664   1 51.893765  0.553349 32.245399
17237  1 -0.096089  0.552547 36.293864
9020   1 53.791922  1.693908 38.347991
21494  1 51.314449  1.693908 38.347992
4763   1 51.930834  0.552547 36.293864
9119   1 54.322794  1.755783 42.404210
21593  1 51.845321  1.755784 42.404210
4862   1 52.234154  0.563274 40.366849
21692  1 52.083620  1.743310 46.394330
4961   1 52.929314  0.574722 44.373656
21791  1 52.139616  1.735567 50.425920
5060   1 52.984429  0.567541 48.400778
17633  1 52.997808  0.564891 52.444692
9416   1 52.161458  1.733389 54.469649
17732  1 53.001376  0.563656 56.492324
9515   1 52.171644  1.733383 58.516635
17831  1 53.000761  0.563185 60.540878
9614   1 52.175326  1.734163 62.564629
17930  1 52.997488  0.563357 64.589817
9713   1 52.173997  1.735320 66.613197
18029  1 52.991815  0.564191 68.639116
9812   1 52.167966  1.737023 70.661996
18128  1 52.983299  0.565765 72.688316
9911   1 52.156549  1.739598 74.710062
10010  1 52.137521  1.743385 78.755719
18227  1 52.970656  0.568215 76.736261
10109  1 52.105697  1.748816 82.796669
18326  1 52.950984  0.571852 80.781124
10208  1 52.050329  1.755311 86.831561
18425  1 52.917660  0.577481 84.820306
10307  1 51.928325  1.762758 90.849825
22771  1 54.405798  1.762758 90.849825
18524  1 52.857736  0.583288 88.854521
8327   1 54.085548  1.700930  9.933014
20801  1 51.608076  1.700931  9.933014
18623  1 52.665636  0.585564 92.861406
2090   1 50.681414  2.844215 11.957648
14564  1 53.158887  2.844214 11.957648
10406  1 54.072151  5.183193 11.964903
22880  1 51.594679  5.183194 11.964903
121    1 50.731622  6.337765 13.994692
14663  1 52.987640  2.846072 16.024614
6347   1 52.291737  4.004508 13.988057
10505  1 53.927830  5.168705 16.020163
12595  1 53.209095  6.337765 13.994692
22979  1 51.450358  5.168706 16.020163
14762  1 52.895934  2.860013 20.092697
6446   1 52.169988  4.012032 18.054530
10604  1 53.838300  5.177533 20.084669
12694  1 53.101092  6.334047 18.052851
23078  1 51.360827  5.177533 20.084669
14861  1 52.852826  2.868235 24.149492
6545   1 52.102942  4.023519 22.118398
10703  1 53.792189  5.186408 24.146249
12793  1 53.036332  6.342415 22.115555
23177  1 51.314717  5.186408 24.146249
19118  1  0.049126  4.029433 26.175055
14960  1 52.841850  2.871125 28.200888
6644   1 52.076049  4.029434 26.175056
10802  1 53.784193  5.188755 28.204492
12892  1 53.010256  6.348007 26.176519
23276  1 51.306721  5.188755 28.204493
19217  1  0.057980  4.028546 30.230385
6743   1 52.084903  4.028547 30.230386
12991  1 53.023860  6.345741 30.237505
15059  1 52.865192  2.868092 32.253945
6842   1 52.144516  4.018475 34.293624
10901  1 53.819181  5.182371 32.265780
13090  1 53.085348  6.337111 34.300554
23375  1 51.341708  5.182371 32.265780
715    1 50.733250  6.343134 38.356205
15158  1 52.957536  2.855038 36.321384
6941   1 52.296873  4.011230 38.362220
11000  1 53.916010  5.172101 36.331445
13189  1 53.210722  6.343133 38.356205
23474  1 51.438538  5.172101 36.331445
2783   1 50.744613  2.868487 40.389556
15257  1 53.222086  2.868486 40.389556
814    1 50.938242  6.401588 42.396112
7040   1 52.597365  4.079175 42.402650
11099  1 54.108779  5.200162 40.382632
23573  1 51.631306  5.200163 40.382632
2882   1 51.118196  2.925349 44.409736
15356  1 53.595669  2.925348 44.409736
7139   1 52.815127  4.089077 46.420662
11198  1 54.353945  5.257209 44.415203
23672  1 51.876472  5.257210 44.415204
2981   1 51.255976  2.909884 48.417077
15455  1 53.733448  2.909884 48.417077
7238   1 52.913513  4.076269 50.439555
11297  1 54.497523  5.252221 48.435351
23771  1 52.020051  5.252222 48.435351
15554  1 51.307919  2.903626 52.451116
3070   1 53.785391  2.903625 52.451115
11396  1 52.098940  5.243708 52.461344
23860  1  0.072018  5.243708 52.461344
15653  1 51.333902  2.903001 56.494338
3169   1 53.811375  2.903001 56.494338
11495  1 52.145393  5.243265 56.498529
19811  1 52.962254  4.072701 54.475402
15752  1 51.347758  2.904370 60.540506
3268   1 53.825231  2.904369 60.540506
11594  1 52.173507  5.246128 60.540952
19910  1 52.990181  4.073971 58.518166
15851  1 51.353225  2.906092 64.587899
3367   1 53.830697  2.906091 64.587898
11693  1 52.187854  5.249112 64.585957
20009  1 53.005331  4.076391 62.563634
15950  1 51.351622  2.908013 68.635976
3466   1 53.829094  2.908013 68.635976
11792  1 52.190600  5.251907 68.632424
20108  1 53.010396  4.078728 66.610514
16049  1 51.343102  2.910628 72.683914
3565   1 53.820574  2.910628 72.683913
11891  1 52.182559  5.255449 72.679066
20207  1 53.006514  4.081378 70.657969
20306  1 52.993380  4.085116 74.704608
16148  1 51.326324  2.914457 76.730180
3664   1 53.803796  2.914457 76.730180
11990  1 52.162635  5.260581 76.723943
20405  1 52.968561  4.090461 78.748376
16247  1 51.297503  2.919861 80.772613
3763   1 53.774976  2.919861 80.772613
12089  1 52.126979  5.267440 80.764722
20504  1 52.926252  4.097306 82.786987
16346  1 51.248539  2.926578 84.809143
3862   1 53.726012  2.926577 84.809143
12188  1 52.066869  5.275142 84.798903
20603  1 52.852806  4.104914 86.817249
24652  1  0.039947  5.275142 84.798903
16445  1 51.156700  2.934347 88.834541
3961   1 53.634173  2.934346 88.834541
12287  1 51.966465  5.277921 88.827920
20702  1 52.720344  4.102837 90.842992
24751  1 54.443938  5.277921 88.827920
22     1 50.893159  6.380486  9.949044
16544  1 50.964258  2.918268 92.857904
6248   1 52.491834  4.041925  9.939286
4060   1 53.441731  2.918268 92.857904
12386  1 51.800734  5.249044 92.862377
24850  1 54.278206  5.249043 92.862376
2101   1 50.899205  9.859045 11.990265
4180   1 52.490317  7.521875 11.976475
14575  1 53.376678  9.859045 11.990265
4279   1 52.365588  7.498187 16.026811
8437   1 54.108889  8.673170 14.006704
14674  1 53.264640  9.830782 16.038837
20911  1 51.631417  8.673170 14.006704
4378   1 52.284521  7.499684 20.085893
8536   1 54.012341  8.661558 18.060069
14773  1 53.190874  9.826621 20.093598
21010  1 51.534869  8.661559 18.060069
4477   1 52.241131  7.506394 24.147412
8635   1 53.953390  8.665222 22.119112
14872  1 53.151176  9.830547 24.151956
21109  1 51.475917  8.665222 22.119112
4576   1 52.235086  7.508078 28.208681
8734   1 53.929549  8.669421 26.179780
14971  1 53.145031  9.832292 28.211023
21208  1 51.452076  8.669422 26.179780
8833   1 53.942371  8.667994 30.240204
21307  1 51.464899  8.667994 30.240204
4675   1 52.269969  7.502823 32.270133
8932   1 53.995395  8.664879 34.297368
15070  1 53.174247  9.830603 32.267802
21406  1 51.517923  8.664880 34.297368
4774   1 52.353156  7.501102 36.327141
9031   1 54.096883  8.678514 38.345368
15169  1 53.243094  9.835488 36.317866
21505  1 51.619410  8.678514 38.345368
2794   1 50.881773  9.865996 40.359621
13288  1 53.415714  6.401588 42.396111
4873   1 52.499569  7.533124 40.371732
9130   1 54.250347  8.726378 42.385563
15268  1 53.359246  9.865996 40.359621
21604  1 51.772875  8.726378 42.385563
913    1 51.112669  6.424109 46.427592
13387  1 53.590141  6.424109 46.427591
2893   1 51.022327  9.907050 44.400067
4972   1 52.678930  7.582650 44.410005
9229   1 54.392705  8.752824 46.423694
15367  1 53.499799  9.907050 44.400067
21703  1 51.915233  8.752824 46.423694
1012   1 51.220370  6.416677 50.451843
13486  1 53.697842  6.416677 50.451842
2992   1 51.137936  9.919069 48.437521
5071   1 52.808650  7.588234 48.440975
9328   1 54.497566  8.753000 50.455403
15466  1 53.615409  9.919069 48.437520
21802  1 52.020093  8.753001 50.455403
15565  1 51.229744  9.920022 52.470598
17644  1 52.897764  7.583297 52.469148
3081   1 53.707216  9.920021 52.470597
13585  1 51.288897  6.412901 54.482368
1101   1 53.766369  6.412901 54.482367
9427   1 52.099355  8.752556 54.486679
15664  1 51.303486  9.924471 56.504039
17743  1 52.960320  7.584105 56.502563
21891  1 54.576827  8.752556 54.486679
3180   1 53.780959  9.924470 56.504039
13684  1 51.333241  6.415317 58.520469
1200   1 53.810713  6.415316 58.520469
9526   1 52.157553  8.757036 58.521911
15763  1 51.357094  9.930926 60.540529
17842  1 53.001878  7.588443 60.541323
21990  1  0.130631  8.757035 58.521911
3279   1 53.834567  9.930926 60.540529
13783  1 51.359790  6.419065 62.562744
1299   1 53.837262  6.419065 62.562744
9625   1 52.195081  8.762019 62.561334
15862  1 51.389254  9.935438 64.580881
17941  1 53.025180  7.592333 64.583740
22089  1  0.168159  8.762019 62.561334
3378   1 53.866726  9.935437 64.580881
13882  1 51.371496  6.422240 66.607560
1398   1 53.848969  6.422240 66.607560
9724   1 52.213679  8.765580 66.604254
15961  1 51.401996  9.938610 68.624693
18040  1 53.032680  7.595598 68.628629
3477   1 53.879468  9.938610 68.624693
13981  1 51.370224  6.425573 70.653669
1497   1 53.847697  6.425572 70.653669
9823   1 52.215654  8.769122 70.649446
16060  1 51.397315  9.942809 72.670401
18139  1 53.025851  7.599741 72.674394
3576   1 53.874787  9.942809 72.670401
14080  1 51.356210  6.430291 74.699274
1596   1 53.833682  6.430291 74.699274
9922   1 52.201864  8.774412 74.694895
14179  1 51.327322  6.436943 78.742058
1695   1 53.804794  6.436943 78.742058
10021  1 52.170860  8.781923 78.738183
16159  1 51.375312  9.949442 76.715683
18238  1 53.004129  7.605876 76.718805
22485  1  0.143937  8.781923 78.738182
3675   1 53.852785  9.949442 76.715683
14278  1 51.277983  6.444824 82.779675
1794   1 53.755456  6.444824 82.779675
10120  1 52.118647  8.789660 82.777742
16258  1 51.333900  9.957571 80.758472
18337  1 52.964227  7.613764 80.759482
22584  1  0.091724  8.789660 82.777742
3774   1 53.811373  9.957571 80.758472
14377  1 51.198218  6.449951 86.812211
1893   1 53.675691  6.449951 86.812211
10219  1 52.038759  8.790792 86.815167
16357  1 51.268866  9.962262 84.798710
18436  1 52.899682  7.620463 84.795572
22683  1 54.516232  8.790792 86.815166
3873   1 53.746339  9.962262 84.798710
22782  1 54.399848  8.770549 90.855415
14476  1 51.073070  6.437353 90.846545
1992   1 53.550543  6.437353 90.846545
10318  1 51.922376  8.770549 90.855415
16456  1 51.173720  9.952410 88.839460
18535  1 52.800884  7.616360 88.830908
3972   1 53.651192  9.952410 88.839460
12496  1 53.370631  6.380486  9.949044
8338   1 54.247548  8.717064  9.961144
20812  1 51.770076  8.717065  9.961144
16555  1 51.043061  9.913641 92.883347
18634  1 52.656425  7.580894 92.871464
4071   1 53.520533  9.913641 92.883347
10417  1 54.256401 12.194791 12.005279
22891  1 51.778929 12.194792 12.005279
132    1 50.921744 13.343833 14.036436
6358   1 52.519896 11.008680 14.021154
10516  1 54.151477 12.164844 16.053041
12606  1 53.399216 13.343832 14.036436
22990  1 51.674005 12.164844 16.053041
6457   1 52.430812 10.992664 18.071710
10615  1 54.082050 12.157675 20.104097
12705  1 53.313750 13.326429 18.084651
23089  1 51.604577 12.157675 20.104097
6556   1 52.376340 10.992803 22.126495
10714  1 54.044268 12.159982 24.157658
12804  1 53.261234 13.325150 22.134779
23188  1 51.566795 12.159983 24.157658
6655   1 52.353627 10.996026 26.183244
10813  1 54.036436 12.162521 28.211564
12903  1 53.238039 13.328367 26.186023
23287  1 51.558963 12.162522 28.211564
6754   1 52.362953 10.996649 30.239011
13002  1 53.243441 13.331015 30.236086
6853   1 52.406590 10.998462 34.290030
10912  1 54.059434 12.164184 32.262577
13101  1 53.279222 13.335931 34.281972
23386  1 51.581962 12.164184 32.262577
6952   1 52.490051 11.014892 38.333634
11011  1 54.116655 12.172649 36.307659
13200  1 53.349261 13.352126 38.322663
23485  1 51.639182 12.172649 36.307659
825    1 50.972705 13.382172 42.362039
7051   1 52.611817 11.053300 42.373719
11110  1 54.211959 12.199305 40.347694
13299  1 53.450177 13.382172 42.362039
23584  1 51.734487 12.199305 40.347694
924    1 51.078413 13.404469 46.403432
7150   1 52.732259 11.078919 46.414576
11209  1 54.327878 12.232285 44.388484
13398  1 53.555886 13.404469 46.403432
23683  1 51.850406 12.232286 44.388484
1023   1 51.175438 13.414409 50.443706
7249   1 52.832409 11.085213 50.451759
11308  1 54.432979 12.246851 48.429062
13497  1 53.652910 13.414408 50.443706
23782  1 51.955507 12.246851 48.429062
11407  1 52.048525 12.253483 52.466424
23871  1 54.525997 12.253483 52.466424
11506  1 52.131260 12.263364 56.501771
13596  1 51.266804 13.425180 54.481316
19822  1 52.917988 11.090128 54.486177
23970  1 54.608733 12.263363 56.501771
1112   1 53.744277 13.425179 54.481316
11605  1 52.195807 12.272983 60.537712
13695  1 51.347033 13.438663 58.517191
19921  1 52.987536 11.098367 58.521022
24069  1  0.168885 12.272982 60.537712
1211   1 53.824505 13.438663 58.517191
11704  1 52.236691 12.277913 64.577051
13794  1 51.404883 13.446932 62.554532
20020  1 53.035392 11.104825 62.558736
24168  1  0.209769 12.277912 64.577051
1310   1 53.882356 13.446932 62.554532
11803  1 52.255237 12.280303 68.620672
13893  1 51.438013 13.449680 66.596137
20119  1 53.061104 11.108268 66.600465
24267  1  0.228315 12.280303 68.620672
1409   1 53.915485 13.449679 66.596136
11902  1 52.253760 12.283833 72.667372
13992  1 51.448915 13.451515 70.642117
20218  1 53.067101 11.111361 70.645547
24366  1  0.226837 12.283833 72.667372
1508   1 53.926387 13.451514 70.642117
14091  1 51.439283 13.455997 74.690752
20317  1 53.054777 11.116613 74.692013
1607   1 53.916755 13.455996 74.690752
12001  1 52.232936 12.290316 76.714941
14190  1 51.409178 13.463460 78.739855
20416  1 53.023572 11.124343 78.737561
24465  1  0.206014 12.290316 76.714941
1706   1 53.886651 13.463459 78.739855
12100  1 52.191771 12.298200 80.761440
14289  1 51.357236 13.469791 82.787922
20515  1 52.971070 11.131287 82.780960
24564  1  0.164848 12.298199 80.761439
1805   1 53.834709 13.469791 82.787922
24663  1 54.604945 12.301183 84.806444
12199  1 52.127473 12.301183 84.806444
14388  1 51.279908 13.465470 86.834806
20614  1 52.892742 11.128922 86.823368
1904   1 53.757381 13.465469 86.834806
24762  1 54.512388 12.287637 88.851313
12298  1 52.034915 12.287638 88.851313
14487  1 51.172258 13.437836 90.881237
20713  1 52.782503 11.103881 90.867370
2003   1 53.649730 13.437835 90.881237
24861  1 54.388993 12.247008 92.897076
33     1 51.041247 13.386789  9.989791
6259   1 52.645343 11.052350  9.974944
12507  1 53.518719 13.386788  9.989791
12397  1 51.911521 12.247008 92.897076
2112   1 51.042222 16.863291 12.035563
4191   1 52.652600 14.529434 12.020658
8349   1 54.389604 15.720650 10.004947
14586  1 53.519695 16.863291 12.035563
20823  1 51.912132 15.720651 10.004947
4290   1 52.549991 14.499947 16.067408
8448   1 54.269703 15.678769 14.051348
14685  1 53.415082 16.836295 16.080418
20922  1 51.792231 15.678769 14.051348
4389   1 52.481944 14.492463 20.114625
8547   1 54.184486 15.662659 18.096751
14784  1 53.346169 16.830851 20.123258
21021  1 51.707014 15.662659 18.096751
4488   1 52.444159 14.494669 24.162781
8646   1 54.131810 15.661998 22.141930
14883  1 53.307373 16.834065 24.166216
21120  1 51.654337 15.661998 22.141930
4587   1 52.434004 14.498292 28.211018
8745   1 54.107233 15.665917 26.187687
14982  1 53.295061 16.838634 28.209755
21219  1 51.629761 15.665918 26.187687
8844   1 54.109155 15.670036 30.232788
21318  1 51.631683 15.670036 30.232788
4686   1 52.451688 14.502224 32.256921
8943   1 54.138727 15.676338 34.274957
15081  1 53.308528 16.843684 32.252077
21417  1 51.661254 15.676339 34.274957
4785   1 52.499905 14.511842 36.298459
9042   1 54.198596 15.690569 38.313599
15180  1 53.349610 16.852862 36.291415
21516  1 51.721123 15.690569 38.313599
4884   1 52.580401 14.533671 40.336996
9141   1 54.285237 15.713057 42.351741
15279  1 53.419129 16.869610 40.328635
21615  1 51.807765 15.713057 42.351742
2904   1 51.030384 16.887706 44.367010
4983   1 52.680091 14.559035 44.376990
9240   1 54.381267 15.730574 46.392221
15378  1 53.507856 16.887705 44.367010
21714  1 51.903794 15.730574 46.392221
3003   1 51.125045 16.899208 48.407598
5082   1 52.778390 14.573204 48.418435
9339   1 54.477623 15.741661 50.433582
15477  1 53.602517 16.899208 48.407597
21813  1 52.000150 15.741661 50.433582
3092   1 53.702927 16.912686 52.448926
15576  1 51.225455 16.912686 52.448926
17655  1 52.873889 14.584166 52.458576
3191   1 53.807690 16.935977 56.488246
9438   1 52.099118 15.757909 54.473521
15675  1 51.330218 16.935977 56.488246
17754  1 52.966218 14.600470 56.496140
21902  1 54.576591 15.757909 54.473521
3290   1 53.896211 16.954145 60.525806
9537   1 52.191513 15.777733 58.510806
15774  1 51.418739 16.954145 60.525806
17853  1 53.041878 14.614125 60.532647
22001  1 54.668986 15.777732 58.510806
3389   1 53.955612 16.958587 64.566668
9636   1 52.259899 15.787847 62.548813
15873  1 51.478140 16.958587 64.566668
17952  1 53.091649 14.619159 64.572181
22100  1 54.737372 15.787847 62.548813
3488   1 53.987993 16.956838 68.613142
9735   1 52.301003 15.789134 66.591477
15972  1 51.510520 16.956839 68.613142
18051  1 53.116689 14.619949 68.616691
22199  1  0.274080 15.789133 66.591477
3587   1 53.996123 16.956584 72.664351
9834   1 52.317775 15.788820 70.639318
16071  1 51.518650 16.956584 72.664351
18150  1 53.119507 14.621981 72.665365
22298  1  0.290853 15.788820 70.639317
9933   1 52.311899 15.791820 74.690814
22397  1  0.284977 15.791820 74.690814
22496  1  0.256616 15.798790 78.743994
3686   1 53.980656 16.961141 76.718582
10032  1 52.283539 15.798790 78.743994
16170  1 51.503183 16.961141 76.718583
18249  1 53.100976 14.627726 76.716198
22595  1 54.709335 15.805280 82.796959
3785   1 53.941237 16.968868 80.774102
10131  1 52.231863 15.805280 82.796960
16269  1 51.463765 16.968868 80.774102
18348  1 53.060701 14.635374 80.767191
22694  1 54.631386 15.801047 86.847994
3884   1 53.876347 16.972370 84.828691
10230  1 52.153913 15.801047 86.847995
16368  1 51.398874 16.972370 84.828691
18447  1 52.996730 14.637813 84.816994
22793  1 54.522379 15.772676 90.896155
3983   1 53.781711 16.958376 88.879837
10329  1 52.044906 15.772677 90.896155
16467  1 51.304238 16.958376 88.879837
18546  1 52.904539 14.622831 88.865120
4082   1 53.654759 16.915459 92.926987
16566  1 51.177286 16.915459 92.926987
18645  1 52.782426 14.580913 92.911870
44     1 51.164110 20.386936 10.033192
6270   1 52.779514 18.054056 10.019662
10428  1 54.378570 19.196661 12.049121
12518  1 53.641582 20.386935 10.033192
22902  1 51.901097 19.196662 12.049121
6369   1 52.652989 18.013932 14.064785
10527  1 54.268079 19.174520 16.090590
12617  1 53.501660 20.350128 14.075417
23001  1 51.790607 19.174520 16.090590
6468   1 52.565356 18.001596 18.106331
10626  1 54.197327 19.172860 20.128457
12716  1 53.410240 20.343776 18.111694
23100  1 51.719854 19.172860 20.128457
6567   1 52.511556 18.002981 22.146540
10725  1 54.157954 19.177405 24.167221
12815  1 53.356215 20.347628 22.147616
23199  1 51.680482 19.177405 24.167221
6666   1 52.485759 18.007761 26.187903
10824  1 54.144460 19.182392 28.207915
12914  1 53.330651 20.352782 26.186552
23298  1 51.666988 19.182392 28.207915
6765   1 52.485065 18.012598 30.229747
13013  1 53.328479 20.357552 30.227232
6864   1 52.509624 18.019038 34.269903
10923  1 54.154690 19.187603 32.248602
13112  1 53.348701 20.363354 34.267197
23397  1 51.677218 19.187604 32.248603
6963   1 52.561276 18.030529 38.307430
11022  1 54.189621 19.195504 36.287256
13211  1 53.392819 20.372042 38.304913
23496  1 51.712149 19.195504 36.287257
7062   1 52.637518 18.046193 42.344139
11121  1 54.250138 19.207474 40.323758
13310  1 53.460241 20.381866 42.340647
23595  1 51.772666 19.207474 40.323758
935    1 51.068186 20.387508 46.376136
7161   1 52.727336 18.057990 46.382545
11220  1 54.330867 19.218749 44.360066
13409  1 53.545658 20.387508 46.376136
23694  1 51.853394 19.218749 44.360067
7260   1 52.825595 18.067799 50.423176
1034   1 51.170693 20.393573 50.414053
11319  1 54.424317 19.225738 48.398210
13508  1 53.648165 20.393572 50.414053
23793  1 51.946845 19.225739 48.398210
11418  1 52.055217 19.239528 52.439022
23882  1 54.532690 19.239527 52.439022
19833  1 52.935511 18.088679 54.464299
1123   1 53.773857 20.417748 54.454954
11517  1 52.177422 19.270317 56.479315
13607  1 51.296384 20.417749 54.454954
23981  1 54.654894 19.270317 56.479315
19932  1 53.043684 18.115771 58.502787
1222   1 53.903977 20.453167 58.494212
11616  1 52.282210 19.293016 60.518127
13706  1 51.426505 20.453168 58.494212
24080  1 54.759682 19.293016 60.518127
20031  1 53.124184 18.127189 62.542254
1321   1 53.999224 20.464506 62.536089
11715  1 52.352600 19.295588 64.561518
13805  1 51.521752 20.464507 62.536089
24179  1  0.325677 19.295587 64.561518
20130  1 53.174156 18.125958 66.587181
1420   1 54.059111 20.459444 66.584602
11814  1 52.393169 19.290352 68.610910
13904  1 51.581638 20.459445 66.584602
24278  1  0.366246 19.290352 68.610910
24377  1  0.380389 19.287306 72.664482
20229  1 53.197708 18.122671 70.637543
1519   1 54.089867 20.452739 70.637632
11913  1 52.407311 19.287306 72.664482
14003  1 51.612395 20.452740 70.637632
20328  1 53.196428 18.123635 74.691736
1618   1 54.093580 20.451483 74.693201
14102  1 51.616107 20.451484 74.693201
24476  1  0.368589 19.290351 76.721041
20427  1 53.170168 18.129996 78.748492
1717   1 54.070027 20.456985 78.751639
12012  1 52.395512 19.290351 76.721041
14201  1 51.592555 20.456985 78.751639
24575  1  0.330036 19.298368 80.780151
20526  1 53.118022 18.137592 82.806166
1816   1 54.017289 20.466166 82.813122
12111  1 52.356958 19.298369 80.780151
14300  1 51.539817 20.466166 82.813123
24674  1 54.767255 19.304538 84.839604
20625  1 53.037307 18.135774 86.861539
1915   1 53.931685 20.469111 86.873677
12210  1 52.289782 19.304538 84.839604
14399  1 51.454212 20.469111 86.873677
24773  1 54.666900 19.294336 88.894415
20724  1 52.922515 18.108679 90.911357
2014   1 53.805827 20.446117 90.926112
12309  1 52.189428 19.294337 88.894415
14498  1 51.328354 20.446117 90.926112
24872  1 54.528000 19.250908 92.941747
12408  1 52.050527 19.250909 92.941747
4202   1 52.748148 21.530047 12.060199
6281   1 52.850087 25.050130 10.052158
8360   1 54.494444 22.719022 10.044645
14597  1 53.575238 23.864910 12.066599
20834  1 52.016972 22.719023 10.044645
4301   1 52.628917 21.515728 16.095971
6380   1 52.662170 25.033011 14.077662
8459   1 54.333401 22.688918 14.081033
14696  1 53.448558 23.861352 16.093895
20933  1 51.855929 22.688918 14.081033
4400   1 52.557760 21.518447 20.128944
6479   1 52.576926 25.039207 18.104026
8558   1 54.240056 22.689761 18.111058
14795  1 53.383028 23.866970 20.124550
21032  1 51.762583 22.689762 18.111058
4499   1 52.520150 21.523690 24.165612
6578   1 52.536525 25.044021 22.140233
8657   1 54.189555 22.695100 22.144998
14894  1 53.351179 23.871673 24.162179
19052  1  0.509602 25.044020 22.140233
21131  1 51.712083 22.695100 22.144999
4598   1 52.507110 21.528348 28.205698
6677   1 52.518954 25.047612 26.181030
8756   1 54.166751 22.699755 26.184005
14993  1 53.340334 23.875398 28.203467
19151  1  0.492031 25.047611 26.181030
21230  1 51.689279 22.699755 26.184005
6776   1 52.517281 25.050461 30.224332
8855   1 54.164282 22.703807 30.225383
19250  1  0.490358 25.050461 30.224332
21329  1 51.686809 22.703807 30.225384
4697   1 52.514904 21.533010 32.246641
6875   1 52.529637 25.053727 34.268089
8954   1 54.180486 22.708505 34.266752
15092  1 53.346356 23.878997 32.246084
19349  1  0.502714 25.053727 34.268089
21428  1 51.703013 22.708506 34.266752
4796   1 52.543898 21.539327 36.286246
6974   1 52.557179 25.057849 38.310686
9053   1 54.216708 22.714747 38.306256
15191  1 53.369206 23.883635 36.288004
19448  1  0.530256 25.057849 38.310685
21527  1 51.739236 22.714747 38.306257
4895   1 52.595625 21.547329 40.323312
7073   1 52.602885 25.060594 42.350026
9152   1 54.274594 22.720177 42.342522
15290  1 53.410939 23.888731 40.327498
21626  1 51.797122 22.720177 42.342523
4994   1 52.668939 21.552713 44.357913
7172   1 52.673613 25.056879 46.382216
9251   1 54.354965 22.720134 46.375170
15389  1 53.474526 23.889993 44.362306
21725  1 51.877492 22.720135 46.375170
5093   1 52.762331 21.553837 48.392132
7271   1 52.785184 25.049164 50.408069
9350   1 54.463086 22.720034 50.408034
15488  1 53.566171 23.885048 48.391999
21824  1 51.985613 22.720034 50.408034
17666  1 52.882163 21.565085 52.430210
3103   1 53.700754 23.889977 52.424058
15587  1 51.223282 23.889977 52.424059
17765  1 53.029864 21.604008 56.470428
3202   1 53.887718 23.937588 56.462497
9449   1 52.133956 22.745146 54.446596
15686  1 51.410245 23.937588 56.462498
19844  1 52.965935 25.070598 54.440497
21913  1 54.611428 22.745145 54.446596
17864  1 53.156367 21.630602 60.510891
3301   1 54.044697 23.966094 60.505980
9548   1 52.296405 22.790261 58.486189
15785  1 51.567224 23.966095 60.505980
19943  1 53.180109 25.126837 58.480176
22012  1 54.773877 22.790261 58.486189
17963  1 53.239550 21.629327 64.558469
3400   1 54.142252 23.958455 64.560231
9647   1 52.410157 22.798882 62.532274
15884  1 51.664780 23.958455 64.560231
20042  1 53.317199 25.128267 62.534115
22111  1 54.887630 22.798882 62.532274
22210  1  0.453530 22.788759 66.585833
18062  1 53.288568 21.619998 68.611477
3499   1 54.197855 23.945590 68.616558
9746   1 52.480453 22.788760 66.585833
15983  1 51.720382 23.945590 68.616559
20141  1 53.395600 25.113145 66.593309
22309  1  0.490379 22.779146 70.640725
18161  1 53.308451 21.614347 72.666246
3598   1 54.221158 23.938653 72.670078
9845   1 52.517301 22.779147 70.640725
16082  1 51.743685 23.938654 72.670079
20240  1 53.434132 25.102801 70.647302
9944   1 52.525347 22.776193 74.695203
20339  1 53.444442 25.099310 74.697840
22507  1  0.478945 22.780291 78.752061
18260  1 53.300762 21.615757 76.722674
3697   1 54.217585 23.938670 76.723299
10043  1 52.505867 22.780292 78.752062
16181  1 51.740112 23.938670 76.723299
20438  1 53.430735 25.101593 78.750006
22606  1  0.427963 22.790111 82.814788
18359  1 53.264245 21.623595 80.782990
3796   1 54.186411 23.944925 80.780893
10142  1 52.454885 22.790112 82.814788
16280  1 51.708939 23.944925 80.780893
20537  1 53.387939 25.109345 82.808928
22705  1 54.841298 22.799348 86.881530
18458  1 53.194609 21.633241 84.847028
3895   1 54.118377 23.956487 84.846962
10241  1 52.363826 22.799349 86.881530
16379  1 51.640904 23.956488 84.846962
20636  1 53.297782 25.122783 86.879650
22804  1 54.697685 22.785027 90.939525
18557  1 53.085019 21.630172 88.907441
3994   1 53.997486 23.963825 88.916135
10340  1 52.220212 22.785028 90.939525
16478  1 51.520014 23.963825 88.916135
20735  1 53.129233 25.124151 90.949488
18656  1 52.924600 21.587712 92.955576
4093   1 53.800040 23.926581 92.967881
16577  1 51.322567 23.926582 92.967882
4213   1 52.603404 28.559704 12.041230
10439  1 54.363394 26.205464 12.063357
12529  1 53.622522 27.383178 10.052467
16687  1  0.576482 28.559703 12.041229
22913  1 51.885922 26.205465 12.063358
4312   1 52.555356 28.562004 16.076179
10538  1 54.246959 26.211724 16.083116
12628  1 53.434368 27.384729 14.061616
16786  1  0.528433 28.562003 16.076179
23012  1 51.769487 26.211725 16.083116
4411   1 52.529757 28.567030 20.112579
10637  1 54.198661 26.216668 20.118229
12727  1 53.380387 27.389404 18.096479
16885  1 55.007230 28.567030 20.112579
23111  1 51.721188 26.216668 20.118229
4510   1 52.519485 28.568985 24.155395
10736  1 54.175974 26.220342 24.158230
12826  1 53.354574 27.393502 22.135279
16984  1 54.996957 28.568984 24.155394
23210  1 51.698501 26.220342 24.158231
4609   1 52.517396 28.569744 28.201150
10835  1 54.168921 26.222696 28.201757
12925  1 53.344492 27.395567 26.178662
17083  1 54.994868 28.569744 28.201150
23309  1 51.691449 26.222696 28.201757
13024  1 53.344466 27.396919 30.224232
4708   1 52.521316 28.570255 32.248215
10934  1 54.173704 26.224868 32.246694
13123  1 53.353121 27.398477 34.270533
17182  1 54.998788 28.570254 32.248215
23408  1 51.696232 26.224868 32.246695
4807   1 52.531311 28.571037 36.295757
11033  1 54.190172 26.227691 36.291566
13222  1 53.371383 27.400497 38.316582
17281  1 55.008783 28.571037 36.295757
23507  1 51.712700 26.227691 36.291566
4906   1 52.548921 28.571800 40.343072
11132  1 54.220347 26.230592 40.334944
13321  1 53.402156 27.401523 42.360793
17380  1 55.026394 28.571800 40.343072
23606  1 51.742875 26.230592 40.334944
5005   1 52.578310 28.570717 44.388120
11231  1 54.269120 26.230126 44.373754
13420  1 53.453993 27.397665 46.398547
17479  1  0.551388 28.570716 44.388120
23705  1 51.791647 26.230126 44.373755
17578  1  0.607069 28.564013 48.424223
5104   1 52.633992 28.564013 48.424223
11330  1 54.351252 26.221403 48.401602
13519  1 53.556566 27.384542 50.419380
23804  1 51.873780 26.221403 48.401602
11429  1 52.022487 26.215960 52.423348
17677  1 52.776725 28.548263 52.433500
23893  1 54.499959 26.215960 52.423348
1134   1 53.780601 27.393708 54.438953
11528  1 52.275228 26.271449 56.456677
13618  1 51.303129 27.393709 54.438953
17776  1 53.157352 28.604084 56.455121
23992  1 54.752700 26.271449 56.456677
24091  1 54.955594 26.296776 60.507100
1233   1 54.089977 27.460394 58.479673
11627  1 52.478121 26.296776 60.507100
13717  1 51.612504 27.460394 58.479673
17875  1 53.431301 28.615806 60.523223
24190  1  0.561303 26.281186 64.570391
1332   1 54.252659 27.449040 62.547194
11726  1 52.588225 26.281187 64.570392
13816  1 51.775186 27.449040 62.547194
17974  1 53.534953 28.598164 64.589309
1431   1 54.327599 27.433417 66.607255
11825  1 52.643176 26.267986 68.626500
13915  1 51.850126 27.433417 66.607255
18073  1 53.575816 28.589643 68.638182
1530   1 54.359918 27.425536 70.655911
11924  1 52.665350 26.261831 72.675572
14014  1 51.882445 27.425536 70.655911
18172  1 53.592471 28.585361 72.681487
1629   1 54.370025 27.422436 74.701022
14113  1 51.892553 27.422436 74.701022
1728   1 54.363408 27.422948 78.747383
12023  1 52.665401 26.260925 76.723534
14212  1 51.885936 27.422948 78.747383
18271  1 53.595568 28.583884 76.724316
1827   1 54.336261 27.426932 82.798927
12122  1 52.643673 26.264512 80.775207
14311  1 51.858789 27.426932 82.798927
18370  1 53.586396 28.584811 80.769939
24685  1  0.561951 26.273170 84.835937
1926   1 54.268405 27.435883 86.861479
12221  1 52.588874 26.273170 84.835938
14410  1 51.790933 27.435883 86.861479
18469  1 53.557674 28.588352 84.821266
24784  1 54.943327 26.289169 88.913137
2025   1 54.085572 27.455699 90.946775
12320  1 52.465855 26.289169 88.913137
14509  1 51.608099 27.455699 90.946776
18568  1 53.476107 28.596586 88.884657
24883  1 54.680467 26.267975 92.977356
12419  1 52.202994 26.267975 92.977356
18667  1 53.126095 28.602238 92.974094
6292   1 52.511634 32.079652 10.052128
8371   1 54.125398 29.741525 10.052648
14608  1 53.322395 30.913090 12.065386
18766  1 54.989106 32.079651 10.052128
20845  1 51.647926 29.741525 10.052648
6391   1 52.459365 32.095064 14.061882
8470   1 54.193166 29.734783 14.061391
14707  1 53.329491 30.916222 16.072977
18865  1 54.936838 32.095063 14.061882
20944  1 51.715693 29.734784 14.061392
6490   1 52.489462 32.093083 18.091683
8569   1 54.175211 29.741023 18.091084
14806  1 53.334763 30.917466 20.110709
18964  1 54.966934 32.093083 18.091683
21043  1 51.697738 29.741024 18.091084
6589   1 52.504996 32.092114 22.133409
8668   1 54.168980 29.742914 22.132454
14905  1 53.338894 30.917332 24.155065
19063  1 54.982468 32.092113 22.133409
21142  1 51.691508 29.742914 22.132454
6688   1 52.513547 32.090585 26.179383
8767   1 54.167935 29.743231 26.177909
15004  1 53.342369 30.916410 28.202087
19162  1 54.991019 32.090584 26.179383
21241  1 51.690462 29.743231 26.177910
6787   1 52.518026 32.088569 30.227341
8866   1 54.170074 29.742940 30.225218
19261  1 54.995499 32.088568 30.227341
21340  1 51.692602 29.742940 30.225218
6886   1 52.519547 32.086139 34.276365
8965   1 54.175149 29.742567 34.273442
15103  1 53.345616 30.915117 32.250431
19360  1 54.997020 32.086139 34.276365
21439  1 51.697676 29.742567 34.273442
6985   1 52.518632 32.083310 38.326183
9064   1 54.183878 29.742262 38.322175
15202  1 53.349125 30.913644 36.299591
19459  1 54.996104 32.083309 38.326183
21538  1 51.706405 29.742262 38.322175
7084   1 52.515948 32.080371 42.376550
9163   1 54.198199 29.741497 42.370760
15301  1 53.353774 30.911985 40.349380
19558  1 54.993420 32.080370 42.376550
21637  1 51.720726 29.741498 42.370760
7183   1 52.512551 32.077947 46.426068
9262   1 54.223809 29.738729 46.416582
15400  1 53.361639 30.909910 44.398962
19657  1 54.990024 32.077947 46.426068
21736  1 51.746336 29.738729 46.416582
7282   1 52.509472 32.076372 50.470093
9361   1 54.284079 29.730532 50.450239
15499  1 53.378971 30.906645 48.445116
19756  1 54.986945 32.076372 50.470093
21835  1 51.806607 29.730532 50.450239
3114   1 53.438692 30.899086 52.474181
21924  1 54.527977 29.717672 54.442310
3213   1 54.138300 30.910445 56.483246
7381   1 52.507407 32.075983 54.470903
9460   1 52.050504 29.717672 54.442310
15697  1 51.660828 30.910445 56.483246
19855  1 54.984879 32.075982 54.470903
22023  1  0.563385 29.779708 58.499593
3312   1 54.452166 30.919953 60.557394
9559   1 52.590308 29.779708 58.499593
15796  1 51.974694 30.919953 60.557395
19954  1 53.743586 32.076516 58.541976
3411   1 54.497322 30.915711 64.605432
9658   1 52.747014 29.760983 62.572674
15895  1 52.019849 30.915711 64.605432
20053  1 53.742154 32.075691 62.587095
3510   1 54.513466 30.912356 68.647045
9757   1 52.793957 29.753334 66.621688
15994  1 52.035994 30.912357 68.647045
20152  1 53.742988 32.074784 66.629457
3609   1 54.521906 30.909835 72.686402
9856   1 52.813274 29.748925 70.663871
16093  1 52.044434 30.909835 72.686402
20251  1 53.745728 32.073303 70.668756
9955   1 52.821391 29.746442 74.704464
20350  1 53.750984 32.071231 74.707769
3708   1 54.527632 30.907845 76.726353
10054  1 52.822567 29.745448 78.746501
16192  1 52.050160 30.907845 76.726354
20449  1 53.760072 32.068777 78.748785
3807   1 54.532531 30.906492 80.768945
10153  1 52.816182 29.746024 82.792086
16291  1 52.055059 30.906492 80.768946
20548  1 53.776235 32.066339 82.793679
8173   1 51.331801 32.064567 86.843897
3906   1 54.537602 30.906118 84.815541
10252  1 52.793813 29.748203 86.842757
16390  1 52.060129 30.906118 84.815541
20647  1 53.809274 32.064567 86.843896
8272   1 51.420729 32.056320 90.902225
4005   1 54.542944 30.906765 88.865265
10351  1 52.714133 29.758955 90.902891
16489  1 52.065471 30.906766 88.865265
20746  1 53.898202 32.056320 90.902225
4104   1 54.549429 30.910622 92.937452
16588  1 52.071956 30.910622 92.937452
10450  1 54.041955 33.266317 12.041911
22924  1 51.564482 33.266318 12.041911
4224   1 52.281235 35.621143 12.065507
12540  1 53.014147 34.439272 10.054682
16698  1 54.758708 35.621142 12.065507
10549  1 54.103809 33.270483 16.077182
23023  1 51.626337 33.270484 16.077182
4323   1 52.412903 35.620817 16.085094
12639  1 53.218440 34.445167 14.062853
16797  1 54.890375 35.620817 16.085094
10648  1 54.140115 33.267820 20.114091
23122  1 51.662643 33.267820 20.114091
4422   1 52.472286 35.617932 20.121277
12738  1 53.284863 34.444659 18.098294
16896  1 54.949758 35.617932 20.121277
10747  1 54.158725 33.265484 24.157787
23221  1 51.681252 33.265484 24.157787
4521   1 52.503515 35.613544 24.163013
12837  1 53.320190 34.441242 22.138151
16995  1 54.980987 35.613543 24.163013
10846  1 54.167791 33.262799 28.204706
23320  1 51.690318 33.262799 28.204706
4620   1 52.517606 35.609034 28.208800
12936  1 53.337872 34.437770 26.183067
17094  1 54.995079 35.609033 28.208800
13035  1 53.344519 34.433981 30.230534
10945  1 54.170345 33.259644 32.253185
23419  1 51.692872 33.259644 32.253185
4719   1 52.519186 35.604077 32.256396
13134  1 53.342337 34.429519 34.279104
17193  1 54.996658 35.604076 32.256396
11044  1 54.167277 33.255846 36.302505
23518  1 51.689804 33.255846 36.302505
4818   1 52.509267 35.598110 36.304441
13233  1 53.331560 34.424201 38.328110
17292  1 54.986740 35.598110 36.304441
11143  1 54.158741 33.251613 40.352405
23617  1 51.681269 33.251613 40.352405
4917   1 52.487241 35.591504 40.352061
13332  1 53.311579 34.419101 42.376863
17391  1 54.964714 35.591504 40.352061
11242  1 54.144435 33.248174 44.402059
23716  1 51.666963 33.248175 44.402059
5016   1 52.450790 35.587118 44.397281
13431  1 53.278870 34.417075 46.422780
17490  1 54.928263 35.587118 44.397281
11341  1 54.120317 33.247468 48.448238
23815  1 51.642845 33.247469 48.448238
5115   1 52.387710 35.590055 48.433397
13530  1 53.212044 34.422347 50.456323
17589  1 54.865182 35.590054 48.433397
23914  1 51.577670 33.252882 52.477012
11440  1 54.055142 33.252882 52.477012
5214   1 52.238699 35.604019 52.442469
17688  1 54.716171 35.604018 52.442469
11539  1 53.346462 33.242407 56.487542
5313   1 51.851065 35.548816 56.464680
13629  1 52.962657 34.434554 54.448391
17787  1 54.328538 35.548816 56.464680
11638  1 53.032436 33.232186 60.560555
1244   1 54.894561 34.373570 58.506326
5412   1 51.574396 35.536960 60.532297
13728  1 52.417089 34.373570 58.506326
17886  1 54.051868 35.536960 60.532297
11737  1 52.987182 33.234962 64.608339
1343   1 54.736548 34.390717 62.578604
5511   1 51.470462 35.553106 64.597785
13827  1 52.259076 34.390717 62.578604
17985  1 53.947935 35.553106 64.597785
11836  1 52.974474 33.235959 68.649868
1442   1 54.691122 34.396533 66.627331
5610   1 51.432691 35.559251 68.646455
13926  1 52.213649 34.396533 66.627331
18084  1 53.910163 35.559251 68.646455
11935  1 52.973778 33.234883 72.689317
1541   1 54.677127 34.397942 70.669496
5709   1 51.423431 35.559806 72.689963
14025  1 52.199654 34.397943 70.669496
18183  1 53.900903 35.559806 72.689963
1640   1 54.679329 34.396148 74.710526
14124  1 52.201857 34.396148 74.710526
12034  1 52.981851 33.232209 76.729740
1739   1 54.695859 34.391919 78.754060
5808   1 51.433540 35.556261 76.733862
14223  1 52.218386 34.391919 78.754060
18282  1 53.911012 35.556261 76.733862
12133  1 53.000731 33.228430 80.773716
1838   1 54.732690 34.385785 82.803616
5907   1 51.464640 35.549456 80.782520
14322  1 52.255218 34.385785 82.803616
18381  1 53.942112 35.549455 80.782520
12232  1 53.039602 33.223993 84.823934
1937   1 54.811398 34.377135 86.864761
6006   1 51.529583 35.539511 84.841128
14421  1 52.333925 34.377136 86.864761
18480  1 54.007056 35.539510 84.841128
12331  1 53.132349 33.217658 88.886185
2036   1 55.008417 34.360198 90.949406
6105   1 51.665156 35.524855 88.917254
14520  1 52.530944 34.360198 90.949406
18579  1 54.142628 35.524854 88.917254
12430  1 53.502717 33.218912 92.975182
6204   1 51.946326 35.552139 92.980484
18678  1 54.423799 35.552138 92.980484
8382   1 53.785037 36.772937 10.055409
6303   1 52.140100 39.104555 10.049161
10461  1 53.896954 40.297888 12.064575
14619  1 53.069235 37.962286 12.069916
18777  1 54.617573 39.104554 10.049161
8481   1 53.990843 36.797290 14.080148
20955  1 51.513370 36.797291 14.080148
6402   1 52.320550 39.141906 14.084651
10560  1 54.034098 40.317333 16.100304
14718  1 53.212426 37.971416 16.097111
18876  1 54.798022 39.141905 14.084651
23034  1 51.556626 40.317334 16.100304
8580   1 54.089584 36.794750 18.107086
21054  1 51.612111 36.794750 18.107086
6501   1 52.428455 39.144091 18.115468
10659  1 54.117944 40.315105 20.135188
14817  1 53.289812 37.967203 20.129164
18975  1 54.905927 39.144090 18.115468
23133  1 51.640471 40.315106 20.135188
8679   1 54.139861 36.790153 22.145041
21153  1 51.662388 36.790153 22.145041
6600   1 52.489397 39.138195 22.151779
10758  1 54.164772 40.307836 24.175239
14916  1 53.330503 37.961240 24.169358
19074  1 54.966869 39.138194 22.151779
23232  1 51.687299 40.307836 24.175239
8778   1 54.165191 36.784784 26.188332
21252  1 51.687718 36.784784 26.188332
6699   1 52.520127 39.131250 26.194177
10857  1 54.184773 40.300350 28.219361
15015  1 53.348417 37.955028 28.213880
19173  1 54.997599 39.131250 26.194177
23331  1 51.707301 40.300350 28.219361
8877   1 54.173425 36.779288 30.234615
21351  1 51.695952 36.779288 30.234615
6798   1 52.528912 39.124361 30.239359
19272  1 55.006385 39.124360 30.239359
8976   1 54.167164 36.773015 34.281734
21450  1 51.689691 36.773016 34.281735
6897   1 52.517967 39.116729 34.284595
10956  1 54.182276 40.292846 32.264321
15114  1 53.348424 37.948529 32.260069
19371  1 54.995440 39.116729 34.284595
23430  1 51.704804 40.292846 32.264321
9075   1 54.146164 36.765507 38.328314
21549  1 51.668691 36.765507 38.328314
6996   1 52.486406 39.107425 38.327927
11055  1 54.157264 40.283809 36.307562
15213  1 53.331216 37.940769 36.305841
19470  1 54.963878 39.107425 38.327927
23529  1 51.679791 40.283809 36.307562
9174   1 54.108817 36.758662 42.372785
21648  1 51.631344 36.758663 42.372785
7095   1 52.432501 39.098946 42.367466
11154  1 54.108114 40.273248 40.347430
15312  1 53.295493 37.932154 40.349636
19569  1 54.909973 39.098946 42.367466
23628  1 51.630642 40.273248 40.347431
9273   1 54.048961 36.757872 46.410631
21747  1 51.571489 36.757872 46.410631
7194   1 52.352208 39.098211 46.399586
11253  1 54.034149 40.266688 44.382156
15411  1 53.238374 37.927229 44.388585
19668  1 54.829681 39.098211 46.399586
23727  1 51.556677 40.266689 44.382156
21846  1 51.461500 36.768413 50.431315
9372   1 53.938973 36.768413 50.431315
7293   1 52.231925 39.103811 50.425072
11352  1 53.932322 40.268563 48.411462
15510  1 53.147708 37.932484 48.416347
19767  1 54.709397 39.103811 50.425071
11451  1 53.788970 40.262906 52.442750
15609  1 52.991527 37.936592 52.437786
9471   1 53.708190 36.758821 54.450899
3224   1 55.209745 37.881638 56.470713
7392   1 52.043650 39.082316 54.456874
11550  1 53.594802 40.216052 56.480332
15708  1 52.732273 37.881638 56.470713
19866  1 54.521123 39.082316 54.456874
9570   1 53.393666 36.692945 58.491422
3323   1 55.002787 37.856650 60.520842
7491   1 51.823736 39.026918 58.496017
11649  1 53.432693 40.188244 60.523398
15807  1 52.525314 37.856650 60.520842
19965  1 54.301209 39.026918 58.496017
9669   1 53.228776 36.703490 62.558464
3422   1 54.891480 37.871175 64.583759
7590   1 51.683339 39.025341 62.549691
11748  1 53.332723 40.195365 64.577499
15906  1 52.414008 37.871176 64.583758
20064  1 54.160812 39.025341 62.549692
9768   1 53.154796 36.717330 66.618131
3521   1 54.838836 37.882086 68.639659
7689   1 51.604849 39.039011 66.608664
11847  1 53.278135 40.206270 68.633749
16005  1 52.361364 37.882087 68.639659
20163  1 54.082322 39.039011 66.608664
9867   1 53.127251 36.722165 70.666746
3620   1 54.823190 37.884436 72.688858
7788   1 51.570010 39.046429 70.662579
11946  1 53.259782 40.209625 72.687118
16104  1 52.345718 37.884436 72.688858
20262  1 54.047483 39.046428 70.662579
9966   1 53.126766 36.720734 74.712394
7887   1 51.567858 39.045352 74.713232
20361  1 54.045331 39.045351 74.713232
10065  1 53.149493 36.714428 78.760580
3719   1 54.834896 37.880004 76.737605
7986   1 51.594724 39.037205 78.765838
12045  1 53.272580 40.204499 76.739878
16203  1 52.357424 37.880004 76.737605
20460  1 54.072197 39.037205 78.765837
10164  1 53.201726 36.704041 82.816461
3818   1 54.874713 37.870142 80.791319
8085   1 51.654646 39.024172 82.824849
12144  1 53.316464 40.192855 80.796045
16302  1 52.397240 37.870143 80.791319
20559  1 54.132119 39.024172 82.824849
10263  1 53.303199 36.690223 86.885310
3917   1 54.952900 37.856583 84.854550
8184   1 51.757193 39.013790 86.889062
12243  1 53.395964 40.180449 84.856586
16401  1 52.475427 37.856583 84.854550
20658  1 54.234665 39.013790 86.889062
10362  1 53.486736 36.691919 90.954086
4016   1 55.086906 37.850136 88.922117
8283   1 51.916554 39.031061 90.945552
12342  1 53.519194 40.183739 88.914783
16500  1 52.609433 37.850136 88.922117
20757  1 54.394026 39.031061 90.945552
4115   1  0.798114 37.893226 92.972505
12441  1 53.698873 40.231974 92.961405
16599  1 52.825037 37.893226 92.972505
4235   1 52.267982 42.632177 12.054167
8393   1 53.854912 43.770577 10.025535
12551  1 52.992743 41.437158 10.038628
16709  1 54.745455 42.632177 12.054167
4334   1 52.398236 42.658842 16.095824
8492   1 54.006132 43.818431 14.069813
12650  1 53.154221 41.481391 14.079931
16808  1 54.875708 42.658842 16.095824
4433   1 52.482605 42.659724 20.136386
8591   1 54.110984 43.831531 18.113247
12749  1 53.261393 41.489857 18.117381
16907  1 54.960078 42.659723 20.136386
21065  1 51.633511 43.831532 18.113247
4532   1 52.531516 42.652246 24.179473
8690   1 54.176465 43.827253 22.157720
12848  1 53.326470 41.484412 22.156474
17006  1 55.008988 42.652246 24.179473
21164  1 51.698993 43.827254 22.157720
4631   1 52.551559 42.644213 28.224778
8789   1 54.210090 43.819093 26.204088
12947  1 53.360045 41.476385 26.199633
17105  1 55.029031 42.644212 28.224778
21263  1 51.732617 43.819094 26.204088
8888   1 54.215345 43.811682 30.250219
13046  1 53.367940 41.468745 30.244587
21362  1 51.737872 43.811682 30.250219
4730   1 52.545313 42.636555 32.269359
8987   1 54.192391 43.803612 34.293165
13145  1 53.351503 41.460436 34.288222
17204  1 55.022786 42.636555 32.269359
21461  1 51.714918 43.803613 34.293165
4829   1 52.511947 42.626824 36.310622
9086   1 54.139295 43.791287 38.331551
13244  1 53.309233 41.449596 38.328541
17303  1 54.989420 42.626824 36.310622
21560  1 51.661822 43.791287 38.331551
4928   1 52.450047 42.613768 40.347797
9185   1 54.057732 43.775943 42.366699
13343  1 53.240676 41.438545 42.364735
17402  1 54.927519 42.613768 40.347797
5027   1 52.363475 42.603164 44.381882
9284   1 53.957633 43.766421 46.401215
13442  1 53.148533 41.434391 46.396952
17501  1 54.840948 42.603164 44.381882
5126   1 52.257752 42.599517 48.415216
9383   1 53.842829 43.759684 50.437687
13541  1 53.030055 41.433011 50.428983
17600  1 54.735224 42.599517 48.415216
5225   1 52.127649 42.588272 52.451981
17699  1 54.605121 42.588272 52.451981
1156   1  0.846154 41.408344 54.466419
5324   1 51.971592 42.550510 56.490930
9482   1 53.707114 43.736602 54.476916
13640  1 52.873077 41.408344 54.466419
17798  1 54.449064 42.550510 56.490930
1255   1 55.181336 41.364323 58.505198
5423   1 51.838853 42.524943 60.530825
9581   1 53.569092 43.702592 58.515059
13739  1 52.703863 41.364323 58.505198
17897  1 54.316326 42.524943 60.530825
1354   1 55.063112 41.356056 62.551054
5522   1 51.751917 42.526185 64.578462
9680   1 53.468202 43.691967 62.556784
13838  1 52.585640 41.356056 62.551054
17996  1 54.229390 42.526185 64.578462
1453   1 54.991294 41.365230 66.604652
5621   1 51.702138 42.534133 68.631653
9779   1 53.405190 43.696610 66.605694
13937  1 52.513821 41.365231 66.604652
18095  1 54.179610 42.534133 68.631653
1552   1 54.956425 41.372359 70.659465
5720   1 51.684829 42.536914 72.685965
9878   1 53.374103 43.701633 70.658813
14036  1 52.478953 41.372359 70.659465
18194  1 54.162301 42.536914 72.685965
1651   1 54.954141 41.371246 74.713229
9977   1 53.372947 43.699959 74.712919
14135  1 52.476668 41.371246 74.713229
1750   1 54.982709 41.362156 78.767934
5819   1 51.698274 42.531393 76.740271
10076  1 53.401383 43.690912 78.766894
14234  1 52.505237 41.362156 78.767935
18293  1 54.175746 42.531393 76.740271
1849   1 55.043426 41.349317 82.825307
5918   1 51.742318 42.519735 80.795430
10175  1 53.460052 43.679460 82.820278
14333  1 52.565953 41.349317 82.825307
18392  1 54.219791 42.519735 80.795430
1948   1 55.140565 41.344301 86.882635
6017   1 51.818755 42.510046 84.850789
10274  1 53.552185 43.678094 86.871616
14432  1 52.663092 41.344302 86.882635
18491  1 54.296228 42.510045 84.850789
2047   1 55.283360 41.369783 90.933126
6116   1 51.933374 42.519470 88.902702
10373  1 53.685534 43.706799 90.918935
14531  1 52.805887 41.369783 90.933126
18590  1 54.410847 42.519469 88.902702
6215   1 52.093718 42.568622 92.948282
18689  1 54.571191 42.568621 92.948282
6314   1 52.245191 46.104628 10.010748
10472  1 54.000574 47.301970 12.025458
14630  1 53.129383 44.966672 12.040766
18788  1 54.722664 46.104628 10.010748
6413   1 52.394534 46.154501 14.056477
10571  1 54.129224 47.333196 16.074016
14729  1 53.256324 44.997213 16.086342
18887  1 54.872006 46.154500 14.056477
6512   1 52.498901 46.169341 18.105071
10670  1 54.213266 47.335904 20.127153
14828  1 53.339942 45.000152 20.133125
18986  1 54.976373 46.169340 18.105071
23144  1 51.735793 47.335904 20.127153
6611   1 52.563823 46.165600 22.156024
10769  1 54.260271 47.329163 24.181858
14927  1 53.388400 44.993079 24.181498
19085  1 55.041296 46.165600 22.156024
23243  1 51.782798 47.329163 24.181858
6710   1 52.595451 46.158112 26.207379
10868  1 54.273928 47.323342 28.234547
15026  1 53.406264 44.985578 28.229888
19184  1 55.072924 46.158111 26.207379
23342  1 51.796455 47.323342 28.234547
6809   1 52.596057 46.152236 30.256159
19283  1 55.073529 46.152235 30.256159
6908   1 52.565239 46.145597 34.299667
10967  1 54.255190 47.319189 32.282141
15125  1 53.394718 44.978938 32.275351
19382  1 55.042712 46.145597 34.299667
23441  1 51.777717 47.319189 32.282141
7007   1 52.500677 46.131890 38.337448
11066  1 54.202401 47.310432 36.323014
15224  1 53.352256 44.969201 36.315760
19481  1 54.978149 46.131890 38.337448
23540  1 51.724928 47.310432 36.323014
7106   1 52.405641 46.110695 42.372838
11165  1 54.113983 47.289937 40.359070
15323  1 53.277779 44.952756 40.351840
19580  1 54.883114 46.110695 42.372837
7205   1 52.297472 46.095407 46.409572
11264  1 54.003086 47.266445 44.395528
15422  1 53.179934 44.936262 44.387005
19679  1 54.774944 46.095406 46.409572
7304   1 52.184717 46.085959 50.447933
11363  1 53.890407 47.254148 48.433690
15521  1 53.071540 44.927478 48.423602
19778  1 54.662189 46.085958 50.447933
3136   1  0.924273 44.914569 52.462401
11462  1 53.776273 47.242575 52.472072
15620  1 52.951196 44.914570 52.462401
3235   1 55.296867 44.885414 56.500958
7403   1 52.063350 46.066891 54.486693
11561  1 53.660894 47.221303 56.509179
15719  1 52.819394 44.885415 56.500958
19877  1 54.540822 46.066891 54.486693
3334   1 55.184784 44.863976 60.539127
7502   1 51.946271 46.041449 58.523825
11660  1 53.564355 47.204418 60.546237
15818  1 52.707311 44.863977 60.539127
19976  1 54.423743 46.041448 58.523825
3433   1 55.109328 44.861744 64.582918
7601   1 51.859130 46.030919 62.563395
11759  1 53.498815 47.200502 64.588091
15917  1 52.631855 44.861744 64.582918
20075  1 54.336603 46.030919 62.563395
3532   1 55.065969 44.866300 68.632943
7700   1 51.804440 46.032206 66.609291
11858  1 53.461599 47.202283 68.635947
16016  1 52.588497 44.866300 68.632943
20174  1 54.281913 46.032206 66.609291
3631   1 55.051399 44.867648 72.686075
7799   1 51.777943 46.034825 70.660246
11957  1 53.449774 47.202227 72.687359
16115  1 52.573927 44.867648 72.686076
20273  1 54.255415 46.034824 70.660246
7898   1 51.778120 46.032499 74.712975
20372  1 54.255592 46.032499 74.712975
3730   1 55.065103 44.862026 76.739476
7997   1 51.805435 46.024081 78.764553
12056  1 53.463106 47.196855 76.738803
16214  1 52.587631 44.862026 76.739476
20471  1 54.282908 46.024081 78.764552
3829   1 55.107576 44.851241 80.791560
8096   1 51.861505 46.013931 82.813271
12155  1 53.503209 47.187230 80.787298
16313  1 52.630104 44.851241 80.791561
20570  1 54.338977 46.013931 82.813271
3928   1 55.180708 44.843552 84.841449
8195   1 51.950450 46.013688 86.859206
12254  1 53.573614 47.180248 84.831859
16412  1 52.703236 44.843552 84.841449
20669  1 54.427922 46.013687 86.859206
4027   1 55.290290 44.855304 88.888755
8294   1 52.080134 46.042102 90.903940
12353  1 53.681335 47.190929 88.874647
16511  1 52.812818 44.855304 88.888755
20768  1 54.557607 46.042102 90.903940
4126   1  0.937615 44.903727 92.933788
12452  1 53.833097 47.237603 92.918511
16610  1 52.964537 44.903727 92.933788
4246   1 52.403519 49.638431 12.009114
16720  1 54.880991 49.638430 12.009113
12661  1 53.273082 48.490168 14.041393
4345   1 52.540059 49.666661 16.060992
8503   1 54.165709 50.825143 14.026241
16819  1 55.017532 49.666661 16.060992
12760  1 53.380367 48.503195 18.095141
4444   1 52.626759 49.666327 20.120887
8602   1 54.280154 50.832246 18.086426
16918  1 55.104231 49.666326 20.120886
21076  1 51.802682 50.832246 18.086426
12859  1 53.445279 48.498604 22.152946
4543   1 52.671782 49.659673 24.181561
8701   1 54.345489 50.825620 22.150485
17017  1 55.149254 49.659673 24.181561
21175  1 51.868016 50.825620 22.150485
12958  1 53.473449 48.492382 26.209745
4642   1 52.679242 49.656631 28.238321
8800   1 54.368505 50.821336 26.211102
17116  1 55.156715 49.656631 28.238321
21274  1 51.891033 50.821336 26.211102
13057  1 53.467269 48.489475 30.261978
8899   1 54.353504 50.822601 30.266460
21373  1 51.876031 50.822601 30.266460
13156  1 53.426828 48.485777 34.307337
4741   1 52.651237 49.656527 32.288892
8998   1 54.301468 50.823554 34.314973
17215  1 55.128709 49.656527 32.288892
21472  1 51.823995 50.823555 34.314974
13255  1 53.349117 48.471267 38.345676
4840   1 52.586236 49.650258 36.331621
9097   1 54.207746 50.809653 38.355109
17314  1 55.063709 49.650258 36.331621
13354  1 53.237543 48.442961 42.381638
4939   1 52.480597 49.625549 40.368262
9196   1 54.073584 50.773020 42.391477
17413  1 54.958070 49.625549 40.368262
13453  1 53.118583 48.422490 46.419575
5038   1 52.352022 49.594324 44.405466
9295   1 53.939125 50.748704 46.429168
17512  1 54.829494 49.594323 44.405466
1068   1  0.978449 48.413096 50.457528
13552  1 53.005372 48.413097 50.457528
5137   1 52.232162 49.580823 48.443256
9394   1 53.822975 50.742136 50.464448
17611  1 54.709634 49.580823 48.443255
5236   1 52.121428 49.572855 52.479266
17710  1 54.598900 49.572855 52.479265
13651  1 52.893792 48.399320 54.494307
1167   1 55.371264 48.399319 54.494307
5335   1 52.018150 49.558638 56.514347
9493   1 53.718675 50.734163 54.498239
17809  1 54.495623 49.558638 56.514347
13750  1 52.792004 48.381126 58.530218
1266   1 55.269476 48.381126 58.530217
5434   1 51.934470 49.545928 60.550913
9592   1 53.629596 50.721806 58.533273
17908  1 54.411943 49.545928 60.550913
13849  1 52.716439 48.371801 62.568904
1365   1 55.193912 48.371801 62.568903
5533   1 51.877945 49.541376 64.592330
9691   1 53.564736 50.713915 62.572283
18007  1 54.355418 49.541376 64.592330
13948  1 52.669258 48.370911 66.613379
1464   1 55.146731 48.370911 66.613378
5632   1 51.846225 49.541226 68.639230
9790   1 53.524549 50.711739 66.616709
18106  1 54.323697 49.541226 68.639230
14047  1 52.646906 48.371592 70.662747
1563   1 55.124378 48.371592 70.662747
5731   1 51.836445 49.540229 72.689369
9889   1 53.505633 50.711162 70.665406
18205  1 54.313918 49.540229 72.689369
14146  1 52.647820 48.368919 74.713824
1662   1 55.125293 48.368919 74.713824
9988   1 53.506380 50.708567 74.715429
14245  1 52.673052 48.361548 78.762915
1761   1 55.150525 48.361548 78.762915
5830   1 51.848429 49.535511 76.739171
10087  1 53.528156 50.702643 78.763100
18304  1 54.325902 49.535511 76.739171
14344  1 52.726008 48.352428 82.807357
1860   1 55.203481 48.352428 82.807357
5929   1 51.884917 49.527350 80.784957
10186  1 53.576090 50.694829 82.804898
18403  1 54.362389 49.527350 80.784957
14443  1 52.813028 48.351063 86.847841
1959   1 55.290500 48.351062 86.847841
6028   1 51.952025 49.520314 84.824840
10285  1 53.660254 50.691195 86.840144
18502  1 54.429497 49.520314 84.824840
14542  1 52.943980 48.376055 90.889069
2058   1 55.421453 48.376054 90.889069
6127   1 52.059859 49.527024 88.862117
10384  1 53.796240 50.709371 90.875666
18601  1 54.537331 49.527023 88.862117
12562  1 53.116765 48.439383  9.994952
8404   1 53.991329 50.775232  9.978856
6226   1 52.220081 49.570350 92.903225
18700  1 54.697553 49.570350 92.903225
14641  1 53.295181 51.976142 11.992870
10483  1 54.206166 54.313952 11.979262
14740  1 53.447434 51.996175 16.050511
6424   1 52.600790 53.157524 14.014192
10582  1 54.382528 54.318271 16.048581
12672  1 53.549417 55.481332 14.013218
18898  1 55.078262 53.157524 14.014191
23056  1 51.905055 54.318272 16.048581
14839  1 53.538193 51.990575 20.117458
6523   1 52.725540 53.154755 18.083347
10681  1 54.472104 54.308841 20.119536
12771  1 53.676113 55.470015 18.090004
18997  1 55.203013 53.154755 18.083347
23155  1 51.994632 54.308841 20.119536
14938  1 53.579411 51.984498 24.181225
6622   1 52.788351 53.146903 22.150236
10780  1 54.504743 54.305075 24.180209
12870  1 53.726195 55.465003 22.151345
19096  1 55.265823 53.146903 22.150235
23254  1 52.027270 54.305076 24.180209
15037  1 53.578803 51.984985 28.239853
6721   1 52.803845 53.145286 26.210335
10879  1 54.495970 54.308469 28.236937
12969  1 53.732665 55.465766 26.206121
19195  1 55.281317 53.145286 26.210334
23353  1 52.018498 54.308470 28.236937
6820   1 52.779299 53.150857 30.267273
13068  1 53.701681 55.473598 30.261437
19294  1 55.256772 53.150857 30.267273
15136  1 53.539930 51.990067 32.293776
6919   1 52.714286 53.157956 34.320410
10978  1 54.446925 54.318463 32.293731
13167  1 53.625361 55.486871 34.319978
19393  1 55.191758 53.157956 34.320409
23452  1 51.969452 54.318463 32.293731
15235  1 53.460350 51.988434 36.340181
7018   1 52.600465 53.147349 38.364386
11077  1 54.350633 54.324108 36.346537
13266  1 53.486189 55.484145 38.371758
19492  1 55.077938 53.147349 38.364386
23551  1 51.873160 54.324108 36.346537
15334  1 53.331922 51.960076 40.378069
7117   1 52.433186 53.100980 42.400883
11176  1 54.190351 54.294074 40.387252
13365  1 53.266061 55.426649 42.408259
19591  1 54.910658 53.100980 42.400883
2949   1  1.150704 51.920458 44.415050
980    1 55.554314 55.404403 46.437401
15433  1 53.177626 51.920458 44.415050
7216   1 52.276277 53.075304 46.436176
11275  1 53.996428 54.245609 44.422372
13464  1 53.076841 55.404403 46.437401
19690  1 54.753749 53.075304 46.436176
3048   1 55.524489 51.908791 48.450096
1079   1 55.431095 55.410420 50.460430
15532  1 53.047016 51.908791 48.450096
7315   1 52.155621 53.074212 50.466320
11374  1 53.851631 54.239745 48.451339
13563  1 52.953623 55.410420 50.460430
19789  1 54.633094 53.074212 50.466320
3147   1 55.415665 51.906019 52.482086
15631  1 52.938192 51.906019 52.482086
11473  1 53.746099 54.242524 52.478657
15730  1 52.845604 51.897640 56.515399
3246   1 55.323076 51.897640 56.515398
7414   1 52.058741 53.071576 54.497123
11572  1 53.665921 54.238026 56.512048
13662  1 52.868353 55.411097 54.490622
19888  1 54.536214 53.071575 54.497123
1178   1 55.345825 55.411097 54.490622
15829  1 52.774071 51.888204 60.552589
3345   1 55.251544 51.888203 60.552589
7513   1 51.982415 53.063334 58.532648
11671  1 53.607318 54.230756 60.551523
13761  1 52.806889 55.405114 58.529063
19987  1 54.459887 53.063334 58.532648
1277   1 55.284361 55.405113 58.529062
15928  1 52.726344 51.883530 64.594884
3444   1 55.203816 51.883530 64.594884
7612   1 51.928412 53.056654 62.573318
11770  1 53.568531 54.226281 64.595692
13860  1 52.764283 55.399459 62.572447
20086  1 54.405885 53.056653 62.573318
1376   1 55.241755 55.399459 62.572446
16027  1 52.699599 51.882224 68.641904
3543   1 55.177072 51.882224 68.641904
7711   1 51.895012 53.053853 66.618742
11869  1 53.546412 54.224482 68.643540
13959  1 52.737572 55.396604 66.619420
20185  1 54.372485 53.053853 66.618742
1475   1 55.215044 55.396604 66.619419
16126  1 52.691064 51.880826 72.691556
3642   1 55.168536 51.880826 72.691556
7810   1 51.878927 53.052658 70.667578
11968  1 53.538459 54.223142 72.693343
14058  1 52.723875 55.395330 70.668835
20284  1 54.356400 53.052658 70.667578
1574   1 55.201347 55.395330 70.668835
7909   1 51.878613 53.050518 74.717345
14157  1 52.721793 55.393896 74.718857
20383  1 54.356086 53.050518 74.717345
1673   1 55.199266 55.393896 74.718857
16225  1 52.700583 51.877089 76.740627
3741   1 55.178056 51.877089 76.740627
8008   1 51.895468 53.046247 78.764817
12067  1 53.544464 54.220589 76.742531
14256  1 52.732371 55.391353 78.766973
20482  1 54.372941 53.046247 78.764817
1772   1 55.209843 55.391353 78.766973
16324  1 52.731353 51.870853 80.785559
3840   1 55.208825 51.870853 80.785559
8107   1 51.934880 53.040508 82.806735
12166  1 53.567462 54.216385 80.788000
14355  1 52.760354 55.387686 82.810224
20581  1 54.412353 53.040507 82.806735
1871   1 55.237827 55.387686 82.810224
16423  1 52.791936 51.864260 84.822929
3939   1 55.269409 51.864260 84.822929
8206   1 52.010677 53.035606 86.839283
12265  1 53.615426 54.211789 84.827007
14454  1 52.816569 55.384755 86.846877
20680  1 54.488150 53.035606 86.839283
1970   1 55.294041 55.384754 86.846877
16522  1 52.898629 51.865278 88.853772
4038   1 55.376102 51.865278 88.853772
8305   1 52.151180 53.043780 90.866238
12364  1 53.711459 54.208627 88.853951
14553  1 52.944390 55.383800 90.866028
20779  1 54.628653 53.043780 90.866238
2069   1 55.421863 55.383800 90.866028
16621  1 53.076272 51.901913 92.889061
6325   1 52.391252 53.112900  9.963397
12573  1 53.274523 55.452830  9.950203
18799  1 54.868724 53.112900  9.963397
4137   1 55.553744 51.901913 92.889061
12463  1 53.913249 54.232343 92.878191
4257   1 52.689176 56.644158 11.978195
14652  1 53.803866 58.946748 12.018694
16731  1 55.166649 56.644158 11.978195
4356   1 52.879552 56.629790 16.062370
8514   1 54.564923 57.787225 14.037659
14751  1 53.888146 58.940830 16.076314
16830  1 55.357025 56.629789 16.062369
20988  1 52.087451 57.787225 14.037660
4455   1 52.947427 56.624748 20.124478
8613   1 54.650099 57.783611 18.099669
14850  1 53.912019 58.941895 20.126011
16929  1 55.424899 56.624747 20.124478
21087  1 52.172627 57.783611 18.099670
4554   1 52.966098 56.624066 24.177344
8712   1 54.675973 57.783039 22.150936
14949  1 53.913260 58.943467 24.171971
17028  1 55.443571 56.624066 24.177344
21186  1 52.198500 57.783040 22.150936
4653   1 52.951890 56.628338 28.228508
8811   1 54.673175 57.785136 26.198735
15048  1 53.897005 58.947197 28.217031
17127  1 55.429362 56.628338 28.228508
21285  1 52.195703 57.785137 26.198735
8910   1 54.642897 57.791834 30.248295
21384  1 52.165424 57.791834 30.248295
21483  1 52.089290 57.806616 34.307758
4752   1 52.899396 56.639923 32.284725
9009   1 54.566763 57.806616 34.307758
15147  1 53.854266 58.955174 32.266204
17226  1 55.376868 56.639922 32.284725
21582  1 51.922213 57.817535 38.373471
4851   1 52.787897 56.654499 36.346660
9108   1 54.399686 57.817535 38.373471
15246  1 53.746725 58.972661 36.331272
17325  1 55.265370 56.654499 36.346660
4950   1 52.579759 56.627958 40.394392
9207   1 54.082562 57.749724 42.411151
15345  1 53.464775 58.960120 40.397265
17424  1 55.057232 56.627958 40.394392
2960   1 55.553396 58.903881 44.415680
5049   1 52.319527 56.571635 44.424413
9306   1 53.850173 57.739686 46.427471
15444  1 53.075924 58.903882 44.415680
17523  1 54.797000 56.571635 44.424413
3059   1 55.401216 58.918191 48.421784
5148   1 52.161025 56.575815 48.443034
9405   1 53.736622 57.750741 50.445406
15543  1 52.923743 58.918192 48.421784
17622  1 54.638498 56.575815 48.443034
3158   1 55.333968 58.921928 52.455398
5247   1 52.066274 56.581953 52.468385
15642  1 52.856496 58.921928 52.455398
17721  1 54.543747 56.581953 52.468385
5346   1 52.003112 56.578833 56.505629
9504   1 53.671863 57.751186 54.481071
15741  1 52.814429 58.919040 56.498715
17820  1 54.480584 56.578832 56.505628
3257   1 55.291902 58.919039 56.498715
5445   1 51.958595 56.573038 60.548685
9603   1 53.627520 57.746441 58.524146
15840  1 52.784595 58.914723 60.545325
17919  1 54.436067 56.573038 60.548684
3356   1 55.262068 58.914722 60.545325
5544   1 51.928862 56.569136 64.595110
9702   1 53.596627 57.741953 62.570456
15939  1 52.763838 58.911846 64.593650
18018  1 54.406334 56.569135 64.595110
3455   1 55.241311 58.911846 64.593649
5643   1 51.911105 56.567413 68.644003
9801   1 53.576464 57.739582 66.618936
16038  1 52.750225 58.910678 68.643326
18117  1 54.388578 56.567413 68.644003
3554   1 55.227698 58.910678 68.643326
5742   1 51.903271 56.566478 72.694191
9900   1 53.564847 57.738662 70.668922
16137  1 52.742231 58.910401 72.693701
18216  1 54.380744 56.566478 72.694191
3653   1 55.219704 58.910401 72.693701
9999   1 53.560544 57.738077 74.719215
5841   1 51.904967 56.565168 76.743841
10098  1 53.563870 57.737192 78.768025
16236  1 52.739168 58.910314 76.743520
18315  1 54.382439 56.565168 76.743841
3752   1 55.216640 58.910314 76.743520
5940   1 51.918290 56.563056 80.790549
10197  1 53.577575 57.735885 82.812979
16335  1 52.741538 58.910203 80.791011
18414  1 54.395763 56.563056 80.790548
3851   1 55.219011 58.910203 80.791011
6039   1 51.949692 56.560154 84.831328
10296  1 53.609418 57.733683 86.850281
16434  1 52.751826 58.910119 84.833455
18513  1 54.427165 56.560154 84.831328
3950   1 55.229298 58.910119 84.833455
6138   1 52.012134 56.559629 88.866740
10395  1 53.666388 57.737814 90.885098
16533  1 52.776959 58.908609 88.863192
18612  1 54.489606 56.559628 88.866740
4049   1 55.254431 58.908608 88.863192
8415   1 54.201710 57.784705  9.950026
6237   1 52.211473 56.564999 92.873932
16632  1 52.718238 58.923719 92.871906
18711  1 54.688946 56.564999 92.873931
4148   1 55.195711 58.923719 92.871906
10494  1 54.994145 61.243137 12.013499
22968  1 52.516673 61.243138 12.013499
6435   1 53.160692 60.096831 14.052441
10593  1 54.910645 61.256098 16.070927
12584  1 54.234098 62.406606 14.027496
18909  1 55.638164 60.096831 14.052441
23067  1 52.433173 61.256099 16.070927
6534   1 53.159686 60.099820 18.100610
10692  1 54.881221 61.260226 20.119875
12683  1 54.147604 62.416197 18.088433
19008  1 55.637158 60.099819 18.100610
23166  1 52.403748 61.260227 20.119875
6633   1 53.154539 60.102211 22.146526
10791  1 54.864247 61.263537 24.164461
12782  1 54.112041 62.421553 22.137767
19107  1 55.632011 60.102211 22.146526
23265  1 52.386775 61.263538 24.164462
6732   1 53.143022 60.104955 26.189942
10890  1 54.848462 61.266651 28.206748
12881  1 54.092977 62.425140 26.182008
19206  1 55.620494 60.104955 26.189942
23364  1 52.370990 61.266652 28.206748
6831   1 53.119980 60.109300 30.233545
12980  1 54.080859 62.427708 30.224283
19305  1 55.597452 60.109299 30.233544
23463  1 52.348643 61.270501 32.249620
6930   1 53.068581 60.117025 34.282535
10989  1 54.826115 61.270501 32.249620
13079  1 54.072412 62.429739 34.267717
19404  1 55.546053 60.117025 34.282535
23562  1 52.297629 61.275508 36.297406
7029   1 52.905522 60.136252 38.354096
11088  1 54.775102 61.275508 36.297405
13178  1 54.069743 62.433103 38.312195
19503  1 55.382995 60.136252 38.354095
803    1 52.816890 62.431750 42.380356
7128   1 52.353818 60.073682 42.409573
11187  1 54.450685 61.264742 40.369522
13277  1 55.294363 62.431750 42.380355
19602  1 54.831290 60.073682 42.409573
902    1 52.809127 62.431331 46.379250
7227   1 52.102860 60.085623 46.397928
11286  1 53.741054 61.254792 44.376026
13376  1 55.286600 62.431330 46.379249
19701  1 54.580333 60.085623 46.397927
1001   1 52.802032 62.430281 50.420990
7326   1 52.032170 60.091412 50.428844
11385  1 53.671856 61.260601 48.402327
13475  1 55.279505 62.430281 50.420990
19800  1 54.509642 60.091411 50.428844
11484  1 53.643677 61.260604 52.446123
1090   1 55.271850 62.428684 54.468304
7425   1 51.994830 60.090417 54.472522
11583  1 53.624347 61.258343 56.493801
13574  1 52.794377 62.428685 54.468305
19899  1 54.472303 60.090416 54.472522
1189   1 55.263921 62.426973 58.517026
7524   1 51.968647 60.086987 58.519698
11682  1 53.609197 61.255852 60.542515
13673  1 52.786448 62.426973 58.517026
19998  1 54.446120 60.086987 58.519698
1288   1 55.256182 62.425870 62.566113
11781  1 53.597236 61.254402 64.591778
13772  1 52.778709 62.425870 62.566114
20097  1 54.426893 60.084036 62.568149
1387   1 55.248616 62.425695 66.615588
11880  1 53.587612 61.254141 68.641637
13871  1 52.771144 62.425695 66.615589
20196  1 54.413095 60.082611 66.617570
1486   1 55.240696 62.426381 70.665364
11979  1 53.579338 61.254719 72.691705
13970  1 52.763224 62.426382 70.665364
20295  1 54.403364 60.082380 70.667744
1585   1 55.231509 62.427801 74.714724
14069  1 52.754036 62.427801 74.714724
20394  1 54.396623 60.082743 74.717883
1684   1 55.219496 62.429994 78.762313
12078  1 53.571390 61.255861 76.740965
14168  1 52.742023 62.429995 78.762313
20493  1 54.392245 60.083405 78.766631
1783   1 55.201447 62.433418 82.806085
12177  1 53.562441 61.257637 80.787838
14267  1 52.723974 62.433418 82.806085
20592  1 54.389995 60.084518 82.812044
1882   1 55.169544 62.439646 86.842403
12276  1 53.549798 61.260728 84.829728
14366  1 52.692071 62.439646 86.842403
20691  1 54.389814 60.086605 86.849943
1981   1 55.116221 62.442619 90.876472
12375  1 53.526286 61.267797 88.859006
14465  1 52.638749 62.442619 90.876472
20790  1 54.391244 60.090152 90.857087
11     1 52.114329 62.401227  9.940519
6336   1 53.159787 60.092529  9.982024
12485  1 54.591802 62.401226  9.940519
18810  1 55.637259 60.092529  9.982024
12474  1 53.588495 61.261261 92.867205

