Generated by pymatgen.io.lammps.data.LammpsData

2772  atoms

   1  atom types

0.000000 43.995589  xlo xhi
0.000000 48.492550  ylo yhi
0.000000 14.695454  zlo zhi
0.000000 0.000000 0.000000  xy xz yz

Masses

1  55.845

Atoms

1     1  0.000000  0.000000  0.000000
2     1  0.000000  0.000000  2.449242
3     1  0.000000  0.000000  4.898485
4     1  0.000000  0.000000  7.347727
5     1  0.000000  0.000000  9.796969
6     1  0.000000  0.000000 12.246211
7     1  0.000000  6.927507  0.000000
8     1  0.000000  6.927507  2.449242
9     1  0.000000  6.927507  4.898485
10    1  0.000000  6.927507  7.347727
11    1  0.000000  6.927507  9.796969
12    1  0.000000  6.927507 12.246211
13    1  0.000000 13.855014  0.000000
14    1  0.000000 13.855014  2.449242
15    1  0.000000 13.855014  4.898485
16    1  0.000000 13.855014  7.347727
17    1  0.000000 13.855014  9.796969
18    1  0.000000 13.855014 12.246211
19    1  0.000000 20.782522  0.000000
20    1  0.000000 20.782522  2.449242
21    1  0.000000 20.782522  4.898485
22    1  0.000000 20.782522  7.347727
23    1  0.000000 20.782522  9.796969
24    1  0.000000 20.782522 12.246211
25    1  0.000000 27.710029  0.000000
26    1  0.000000 27.710029  2.449242
27    1  0.000000 27.710029  4.898485
28    1  0.000000 27.710029  7.347727
29    1  0.000000 27.710029  9.796969
30    1  0.000000 27.710029 12.246211
31    1  0.000000 34.637536  0.000000
32    1  0.000000 34.637536  2.449242
33    1  0.000000 34.637536  4.898485
34    1  0.000000 34.637536  7.347727
35    1  0.000000 34.637536  9.796969
36    1  0.000000 34.637536 12.246211
37    1  0.000000 41.565043  0.000000
38    1  0.000000 41.565043  2.449242
39    1  0.000000 41.565043  4.898485
40    1  0.000000 41.565043  7.347727
41    1  0.000000 41.565043  9.796969
42    1  0.000000 41.565043 12.246211
43    1  3.999599  0.000000  0.000000
44    1  3.999599  0.000000  2.449242
45    1  3.999599  0.000000  4.898485
46    1  3.999599  0.000000  7.347727
47    1  3.999599  0.000000  9.796969
48    1  3.999599  0.000000 12.246211
49    1  3.999599  6.927507  0.000000
50    1  3.999599  6.927507  2.449242
51    1  3.999599  6.927507  4.898485
52    1  3.999599  6.927507  7.347727
53    1  3.999599  6.927507  9.796969
54    1  3.999599  6.927507 12.246211
55    1  3.999599 13.855014  0.000000
56    1  3.999599 13.855014  2.449242
57    1  3.999599 13.855014  4.898485
58    1  3.999599 13.855014  7.347727
59    1  3.999599 13.855014  9.796969
60    1  3.999599 13.855014 12.246211
61    1  3.999599 20.782522  0.000000
62    1  3.999599 20.782522  2.449242
63    1  3.999599 20.782522  4.898485
64    1  3.999599 20.782522  7.347727
65    1  3.999599 20.782522  9.796969
66    1  3.999599 20.782522 12.246211
67    1  3.999599 27.710029  0.000000
68    1  3.999599 27.710029  2.449242
69    1  3.999599 27.710029  4.898485
70    1  3.999599 27.710029  7.347727
71    1  3.999599 27.710029  9.796969
72    1  3.999599 27.710029 12.246211
73    1  3.999599 34.637536  0.000000
74    1  3.999599 34.637536  2.449242
75    1  3.999599 34.637536  4.898485
76    1  3.999599 34.637536  7.347727
77    1  3.999599 34.637536  9.796969
78    1  3.999599 34.637536 12.246211
79    1  3.999599 41.565043  0.000000
80    1  3.999599 41.565043  2.449242
81    1  3.999599 41.565043  4.898485
82    1  3.999599 41.565043  7.347727
83    1  3.999599 41.565043  9.796969
84    1  3.999599 41.565043 12.246211
85    1  7.999198  0.000000  0.000000
86    1  7.999198  0.000000  2.449242
87    1  7.999198  0.000000  4.898485
88    1  7.999198  0.000000  7.347727
89    1  7.999198  0.000000  9.796969
90    1  7.999198  0.000000 12.246211
91    1  7.999198  6.927507  0.000000
92    1  7.999198  6.927507  2.449242
93    1  7.999198  6.927507  4.898485
94    1  7.999198  6.927507  7.347727
95    1  7.999198  6.927507  9.796969
96    1  7.999198  6.927507 12.246211
97    1  7.999198 13.855014  0.000000
98    1  7.999198 13.855014  2.449242
99    1  7.999198 13.855014  4.898485
100   1  7.999198 13.855014  7.347727
101   1  7.999198 13.855014  9.796969
102   1  7.999198 13.855014 12.246211
103   1  7.999198 20.782522  0.000000
104   1  7.999198 20.782522  2.449242
105   1  7.999198 20.782522  4.898485
106   1  7.999198 20.782522  7.347727
107   1  7.999198 20.782522  9.796969
108   1  7.999198 20.782522 12.246211
109   1  7.999198 27.710029  0.000000
110   1  7.999198 27.710029  2.449242
111   1  7.999198 27.710029  4.898485
112   1  7.999198 27.710029  7.347727
113   1  7.999198 27.710029  9.796969
114   1  7.999198 27.710029 12.246211
115   1  7.999198 34.637536  0.000000
116   1  7.999198 34.637536  2.449242
117   1  7.999198 34.637536  4.898485
118   1  7.999198 34.637536  7.347727
119   1  7.999198 34.637536  9.796969
120   1  7.999198 34.637536 12.246211
121   1  7.999198 41.565043  0.000000
122   1  7.999198 41.565043  2.449242
123   1  7.999198 41.565043  4.898485
124   1  7.999198 41.565043  7.347727
125   1  7.999198 41.565043  9.796969
126   1  7.999198 41.565043 12.246211
127   1 11.998797  0.000000  0.000000
128   1 11.998797  0.000000  2.449242
129   1 11.998797  0.000000  4.898485
130   1 11.998797  0.000000  7.347727
131   1 11.998797  0.000000  9.796969
132   1 11.998797  0.000000 12.246211
133   1 11.998797  6.927507  0.000000
134   1 11.998797  6.927507  2.449242
135   1 11.998797  6.927507  4.898485
136   1 11.998797  6.927507  7.347727
137   1 11.998797  6.927507  9.796969
138   1 11.998797  6.927507 12.246211
139   1 11.998797 13.855014  0.000000
140   1 11.998797 13.855014  2.449242
141   1 11.998797 13.855014  4.898485
142   1 11.998797 13.855014  7.347727
143   1 11.998797 13.855014  9.796969
144   1 11.998797 13.855014 12.246211
145   1 11.998797 20.782522  0.000000
146   1 11.998797 20.782522  2.449242
147   1 11.998797 20.782522  4.898485
148   1 11.998797 20.782522  7.347727
149   1 11.998797 20.782522  9.796969
150   1 11.998797 20.782522 12.246211
151   1 11.998797 27.710029  0.000000
152   1 11.998797 27.710029  2.449242
153   1 11.998797 27.710029  4.898485
154   1 11.998797 27.710029  7.347727
155   1 11.998797 27.710029  9.796969
156   1 11.998797 27.710029 12.246211
157   1 11.998797 34.637536  0.000000
158   1 11.998797 34.637536  2.449242
159   1 11.998797 34.637536  4.898485
160   1 11.998797 34.637536  7.347727
161   1 11.998797 34.637536  9.796969
162   1 11.998797 34.637536 12.246211
163   1 11.998797 41.565043  0.000000
164   1 11.998797 41.565043  2.449242
165   1 11.998797 41.565043  4.898485
166   1 11.998797 41.565043  7.347727
167   1 11.998797 41.565043  9.796969
168   1 11.998797 41.565043 12.246211
169   1 15.998396  0.000000  0.000000
170   1 15.998396  0.000000  2.449242
171   1 15.998396  0.000000  4.898485
172   1 15.998396  0.000000  7.347727
173   1 15.998396  0.000000  9.796969
174   1 15.998396  0.000000 12.246211
175   1 15.998396  6.927507  0.000000
176   1 15.998396  6.927507  2.449242
177   1 15.998396  6.927507  4.898485
178   1 15.998396  6.927507  7.347727
179   1 15.998396  6.927507  9.796969
180   1 15.998396  6.927507 12.246211
181   1 15.998396 13.855014  0.000000
182   1 15.998396 13.855014  2.449242
183   1 15.998396 13.855014  4.898485
184   1 15.998396 13.855014  7.347727
185   1 15.998396 13.855014  9.796969
186   1 15.998396 13.855014 12.246211
187   1 15.998396 20.782522  0.000000
188   1 15.998396 20.782522  2.449242
189   1 15.998396 20.782522  4.898485
190   1 15.998396 20.782522  7.347727
191   1 15.998396 20.782522  9.796969
192   1 15.998396 20.782522 12.246211
193   1 15.998396 27.710029  0.000000
194   1 15.998396 27.710029  2.449242
195   1 15.998396 27.710029  4.898485
196   1 15.998396 27.710029  7.347727
197   1 15.998396 27.710029  9.796969
198   1 15.998396 27.710029 12.246211
199   1 15.998396 34.637536  0.000000
200   1 15.998396 34.637536  2.449242
201   1 15.998396 34.637536  4.898485
202   1 15.998396 34.637536  7.347727
203   1 15.998396 34.637536  9.796969
204   1 15.998396 34.637536 12.246211
205   1 15.998396 41.565043  0.000000
206   1 15.998396 41.565043  2.449242
207   1 15.998396 41.565043  4.898485
208   1 15.998396 41.565043  7.347727
209   1 15.998396 41.565043  9.796969
210   1 15.998396 41.565043 12.246211
211   1 19.997995  0.000000  0.000000
212   1 19.997995  0.000000  2.449242
213   1 19.997995  0.000000  4.898485
214   1 19.997995  0.000000  7.347727
215   1 19.997995  0.000000  9.796969
216   1 19.997995  0.000000 12.246211
217   1 19.997995  6.927507  0.000000
218   1 19.997995  6.927507  2.449242
219   1 19.997995  6.927507  4.898485
220   1 19.997995  6.927507  7.347727
221   1 19.997995  6.927507  9.796969
222   1 19.997995  6.927507 12.246211
223   1 19.997995 13.855014  0.000000
224   1 19.997995 13.855014  2.449242
225   1 19.997995 13.855014  4.898485
226   1 19.997995 13.855014  7.347727
227   1 19.997995 13.855014  9.796969
228   1 19.997995 13.855014 12.246211
229   1 19.997995 20.782522  0.000000
230   1 19.997995 20.782522  2.449242
231   1 19.997995 20.782522  4.898485
232   1 19.997995 20.782522  7.347727
233   1 19.997995 20.782522  9.796969
234   1 19.997995 20.782522 12.246211
235   1 19.997995 27.710029  0.000000
236   1 19.997995 27.710029  2.449242
237   1 19.997995 27.710029  4.898485
238   1 19.997995 27.710029  7.347727
239   1 19.997995 27.710029  9.796969
240   1 19.997995 27.710029 12.246211
241   1 19.997995 34.637536  0.000000
242   1 19.997995 34.637536  2.449242
243   1 19.997995 34.637536  4.898485
244   1 19.997995 34.637536  7.347727
245   1 19.997995 34.637536  9.796969
246   1 19.997995 34.637536 12.246211
247   1 19.997995 41.565043  0.000000
248   1 19.997995 41.565043  2.449242
249   1 19.997995 41.565043  4.898485
250   1 19.997995 41.565043  7.347727
251   1 19.997995 41.565043  9.796969
252   1 19.997995 41.565043 12.246211
253   1 23.997594  0.000000  0.000000
254   1 23.997594  0.000000  2.449242
255   1 23.997594  0.000000  4.898485
256   1 23.997594  0.000000  7.347727
257   1 23.997594  0.000000  9.796969
258   1 23.997594  0.000000 12.246211
259   1 23.997594  6.927507  0.000000
260   1 23.997594  6.927507  2.449242
261   1 23.997594  6.927507  4.898485
262   1 23.997594  6.927507  7.347727
263   1 23.997594  6.927507  9.796969
264   1 23.997594  6.927507 12.246211
265   1 23.997594 13.855014  0.000000
266   1 23.997594 13.855014  2.449242
267   1 23.997594 13.855014  4.898485
268   1 23.997594 13.855014  7.347727
269   1 23.997594 13.855014  9.796969
270   1 23.997594 13.855014 12.246211
271   1 23.997594 20.782522  0.000000
272   1 23.997594 20.782522  2.449242
273   1 23.997594 20.782522  4.898485
274   1 23.997594 20.782522  7.347727
275   1 23.997594 20.782522  9.796969
276   1 23.997594 20.782522 12.246211
277   1 23.997594 27.710029  0.000000
278   1 23.997594 27.710029  2.449242
279   1 23.997594 27.710029  4.898485
280   1 23.997594 27.710029  7.347727
281   1 23.997594 27.710029  9.796969
282   1 23.997594 27.710029 12.246211
283   1 23.997594 34.637536  0.000000
284   1 23.997594 34.637536  2.449242
285   1 23.997594 34.637536  4.898485
286   1 23.997594 34.637536  7.347727
287   1 23.997594 34.637536  9.796969
288   1 23.997594 34.637536 12.246211
289   1 23.997594 41.565043  0.000000
290   1 23.997594 41.565043  2.449242
291   1 23.997594 41.565043  4.898485
292   1 23.997594 41.565043  7.347727
293   1 23.997594 41.565043  9.796969
294   1 23.997594 41.565043 12.246211
295   1 27.997193  0.000000  0.000000
296   1 27.997193  0.000000  2.449242
297   1 27.997193  0.000000  4.898485
298   1 27.997193  0.000000  7.347727
299   1 27.997193  0.000000  9.796969
300   1 27.997193  0.000000 12.246211
301   1 27.997193  6.927507  0.000000
302   1 27.997193  6.927507  2.449242
303   1 27.997193  6.927507  4.898485
304   1 27.997193  6.927507  7.347727
305   1 27.997193  6.927507  9.796969
306   1 27.997193  6.927507 12.246211
307   1 27.997193 13.855014  0.000000
308   1 27.997193 13.855014  2.449242
309   1 27.997193 13.855014  4.898485
310   1 27.997193 13.855014  7.347727
311   1 27.997193 13.855014  9.796969
312   1 27.997193 13.855014 12.246211
313   1 27.997193 20.782522  0.000000
314   1 27.997193 20.782522  2.449242
315   1 27.997193 20.782522  4.898485
316   1 27.997193 20.782522  7.347727
317   1 27.997193 20.782522  9.796969
318   1 27.997193 20.782522 12.246211
319   1 27.997193 27.710029  0.000000
320   1 27.997193 27.710029  2.449242
321   1 27.997193 27.710029  4.898485
322   1 27.997193 27.710029  7.347727
323   1 27.997193 27.710029  9.796969
324   1 27.997193 27.710029 12.246211
325   1 27.997193 34.637536  0.000000
326   1 27.997193 34.637536  2.449242
327   1 27.997193 34.637536  4.898485
328   1 27.997193 34.637536  7.347727
329   1 27.997193 34.637536  9.796969
330   1 27.997193 34.637536 12.246211
331   1 27.997193 41.565043  0.000000
332   1 27.997193 41.565043  2.449242
333   1 27.997193 41.565043  4.898485
334   1 27.997193 41.565043  7.347727
335   1 27.997193 41.565043  9.796969
336   1 27.997193 41.565043 12.246211
337   1 31.996792  0.000000  0.000000
338   1 31.996792  0.000000  2.449242
339   1 31.996792  0.000000  4.898485
340   1 31.996792  0.000000  7.347727
341   1 31.996792  0.000000  9.796969
342   1 31.996792  0.000000 12.246211
343   1 31.996792  6.927507  0.000000
344   1 31.996792  6.927507  2.449242
345   1 31.996792  6.927507  4.898485
346   1 31.996792  6.927507  7.347727
347   1 31.996792  6.927507  9.796969
348   1 31.996792  6.927507 12.246211
349   1 31.996792 13.855014  0.000000
350   1 31.996792 13.855014  2.449242
351   1 31.996792 13.855014  4.898485
352   1 31.996792 13.855014  7.347727
353   1 31.996792 13.855014  9.796969
354   1 31.996792 13.855014 12.246211
355   1 31.996792 20.782522  0.000000
356   1 31.996792 20.782522  2.449242
357   1 31.996792 20.782522  4.898485
358   1 31.996792 20.782522  7.347727
359   1 31.996792 20.782522  9.796969
360   1 31.996792 20.782522 12.246211
361   1 31.996792 27.710029  0.000000
362   1 31.996792 27.710029  2.449242
363   1 31.996792 27.710029  4.898485
364   1 31.996792 27.710029  7.347727
365   1 31.996792 27.710029  9.796969
366   1 31.996792 27.710029 12.246211
367   1 31.996792 34.637536  0.000000
368   1 31.996792 34.637536  2.449242
369   1 31.996792 34.637536  4.898485
370   1 31.996792 34.637536  7.347727
371   1 31.996792 34.637536  9.796969
372   1 31.996792 34.637536 12.246211
373   1 31.996792 41.565043  0.000000
374   1 31.996792 41.565043  2.449242
375   1 31.996792 41.565043  4.898485
376   1 31.996792 41.565043  7.347727
377   1 31.996792 41.565043  9.796969
378   1 31.996792 41.565043 12.246211
379   1 35.996391  0.000000  0.000000
380   1 35.996391  0.000000  2.449242
381   1 35.996391  0.000000  4.898485
382   1 35.996391  0.000000  7.347727
383   1 35.996391  0.000000  9.796969
384   1 35.996391  0.000000 12.246211
385   1 35.996391  6.927507  0.000000
386   1 35.996391  6.927507  2.449242
387   1 35.996391  6.927507  4.898485
388   1 35.996391  6.927507  7.347727
389   1 35.996391  6.927507  9.796969
390   1 35.996391  6.927507 12.246211
391   1 35.996391 13.855014  0.000000
392   1 35.996391 13.855014  2.449242
393   1 35.996391 13.855014  4.898485
394   1 35.996391 13.855014  7.347727
395   1 35.996391 13.855014  9.796969
396   1 35.996391 13.855014 12.246211
397   1 35.996391 20.782522  0.000000
398   1 35.996391 20.782522  2.449242
399   1 35.996391 20.782522  4.898485
400   1 35.996391 20.782522  7.347727
401   1 35.996391 20.782522  9.796969
402   1 35.996391 20.782522 12.246211
403   1 35.996391 27.710029  0.000000
404   1 35.996391 27.710029  2.449242
405   1 35.996391 27.710029  4.898485
406   1 35.996391 27.710029  7.347727
407   1 35.996391 27.710029  9.796969
408   1 35.996391 27.710029 12.246211
409   1 35.996391 34.637536  0.000000
410   1 35.996391 34.637536  2.449242
411   1 35.996391 34.637536  4.898485
412   1 35.996391 34.637536  7.347727
413   1 35.996391 34.637536  9.796969
414   1 35.996391 34.637536 12.246211
415   1 35.996391 41.565043  0.000000
416   1 35.996391 41.565043  2.449242
417   1 35.996391 41.565043  4.898485
418   1 35.996391 41.565043  7.347727
419   1 35.996391 41.565043  9.796969
420   1 35.996391 41.565043 12.246211
421   1 39.995990  0.000000  0.000000
422   1 39.995990  0.000000  2.449242
423   1 39.995990  0.000000  4.898485
424   1 39.995990  0.000000  7.347727
425   1 39.995990  0.000000  9.796969
426   1 39.995990  0.000000 12.246211
427   1 39.995990  6.927507  0.000000
428   1 39.995990  6.927507  2.449242
429   1 39.995990  6.927507  4.898485
430   1 39.995990  6.927507  7.347727
431   1 39.995990  6.927507  9.796969
432   1 39.995990  6.927507 12.246211
433   1 39.995990 13.855014  0.000000
434   1 39.995990 13.855014  2.449242
435   1 39.995990 13.855014  4.898485
436   1 39.995990 13.855014  7.347727
437   1 39.995990 13.855014  9.796969
438   1 39.995990 13.855014 12.246211
439   1 39.995990 20.782522  0.000000
440   1 39.995990 20.782522  2.449242
441   1 39.995990 20.782522  4.898485
442   1 39.995990 20.782522  7.347727
443   1 39.995990 20.782522  9.796969
444   1 39.995990 20.782522 12.246211
445   1 39.995990 27.710029  0.000000
446   1 39.995990 27.710029  2.449242
447   1 39.995990 27.710029  4.898485
448   1 39.995990 27.710029  7.347727
449   1 39.995990 27.710029  9.796969
450   1 39.995990 27.710029 12.246211
451   1 39.995990 34.637536  0.000000
452   1 39.995990 34.637536  2.449242
453   1 39.995990 34.637536  4.898485
454   1 39.995990 34.637536  7.347727
455   1 39.995990 34.637536  9.796969
456   1 39.995990 34.637536 12.246211
457   1 39.995990 41.565043  0.000000
458   1 39.995990 41.565043  2.449242
459   1 39.995990 41.565043  4.898485
460   1 39.995990 41.565043  7.347727
461   1 39.995990 41.565043  9.796969
462   1 39.995990 41.565043 12.246211
463   1  1.999799  3.463754  0.000000
464   1  1.999799  3.463754  2.449242
465   1  1.999799  3.463754  4.898485
466   1  1.999799  3.463754  7.347727
467   1  1.999799  3.463754  9.796969
468   1  1.999799  3.463754 12.246211
469   1  1.999799 10.391261  0.000000
470   1  1.999799 10.391261  2.449242
471   1  1.999799 10.391261  4.898485
472   1  1.999799 10.391261  7.347727
473   1  1.999799 10.391261  9.796969
474   1  1.999799 10.391261 12.246211
475   1  1.999799 17.318768  0.000000
476   1  1.999799 17.318768  2.449242
477   1  1.999799 17.318768  4.898485
478   1  1.999799 17.318768  7.347727
479   1  1.999799 17.318768  9.796969
480   1  1.999799 17.318768 12.246211
481   1  1.999799 24.246275  0.000000
482   1  1.999799 24.246275  2.449242
483   1  1.999799 24.246275  4.898485
484   1  1.999799 24.246275  7.347727
485   1  1.999799 24.246275  9.796969
486   1  1.999799 24.246275 12.246211
487   1  1.999799 31.173782  0.000000
488   1  1.999799 31.173782  2.449242
489   1  1.999799 31.173782  4.898485
490   1  1.999799 31.173782  7.347727
491   1  1.999799 31.173782  9.796969
492   1  1.999799 31.173782 12.246211
493   1  1.999799 38.101290  0.000000
494   1  1.999799 38.101290  2.449242
495   1  1.999799 38.101290  4.898485
496   1  1.999799 38.101290  7.347727
497   1  1.999799 38.101290  9.796969
498   1  1.999799 38.101290 12.246211
499   1  1.999799 45.028797  0.000000
500   1  1.999799 45.028797  2.449242
501   1  1.999799 45.028797  4.898485
502   1  1.999799 45.028797  7.347727
503   1  1.999799 45.028797  9.796969
504   1  1.999799 45.028797 12.246211
505   1  5.999398  3.463754  0.000000
506   1  5.999398  3.463754  2.449242
507   1  5.999398  3.463754  4.898485
508   1  5.999398  3.463754  7.347727
509   1  5.999398  3.463754  9.796969
510   1  5.999398  3.463754 12.246211
511   1  5.999398 10.391261  0.000000
512   1  5.999398 10.391261  2.449242
513   1  5.999398 10.391261  4.898485
514   1  5.999398 10.391261  7.347727
515   1  5.999398 10.391261  9.796969
516   1  5.999398 10.391261 12.246211
517   1  5.999398 17.318768  0.000000
518   1  5.999398 17.318768  2.449242
519   1  5.999398 17.318768  4.898485
520   1  5.999398 17.318768  7.347727
521   1  5.999398 17.318768  9.796969
522   1  5.999398 17.318768 12.246211
523   1  5.999398 24.246275  0.000000
524   1  5.999398 24.246275  2.449242
525   1  5.999398 24.246275  4.898485
526   1  5.999398 24.246275  7.347727
527   1  5.999398 24.246275  9.796969
528   1  5.999398 24.246275 12.246211
529   1  5.999398 31.173782  0.000000
530   1  5.999398 31.173782  2.449242
531   1  5.999398 31.173782  4.898485
532   1  5.999398 31.173782  7.347727
533   1  5.999398 31.173782  9.796969
534   1  5.999398 31.173782 12.246211
535   1  5.999398 38.101290  0.000000
536   1  5.999398 38.101290  2.449242
537   1  5.999398 38.101290  4.898485
538   1  5.999398 38.101290  7.347727
539   1  5.999398 38.101290  9.796969
540   1  5.999398 38.101290 12.246211
541   1  5.999398 45.028797  0.000000
542   1  5.999398 45.028797  2.449242
543   1  5.999398 45.028797  4.898485
544   1  5.999398 45.028797  7.347727
545   1  5.999398 45.028797  9.796969
546   1  5.999398 45.028797 12.246211
547   1  9.998997  3.463754  0.000000
548   1  9.998997  3.463754  2.449242
549   1  9.998997  3.463754  4.898485
550   1  9.998997  3.463754  7.347727
551   1  9.998997  3.463754  9.796969
552   1  9.998997  3.463754 12.246211
553   1  9.998997 10.391261  0.000000
554   1  9.998997 10.391261  2.449242
555   1  9.998997 10.391261  4.898485
556   1  9.998997 10.391261  7.347727
557   1  9.998997 10.391261  9.796969
558   1  9.998997 10.391261 12.246211
559   1  9.998997 17.318768  0.000000
560   1  9.998997 17.318768  2.449242
561   1  9.998997 17.318768  4.898485
562   1  9.998997 17.318768  7.347727
563   1  9.998997 17.318768  9.796969
564   1  9.998997 17.318768 12.246211
565   1  9.998997 24.246275  0.000000
566   1  9.998997 24.246275  2.449242
567   1  9.998997 24.246275  4.898485
568   1  9.998997 24.246275  7.347727
569   1  9.998997 24.246275  9.796969
570   1  9.998997 24.246275 12.246211
571   1  9.998997 31.173782  0.000000
572   1  9.998997 31.173782  2.449242
573   1  9.998997 31.173782  4.898485
574   1  9.998997 31.173782  7.347727
575   1  9.998997 31.173782  9.796969
576   1  9.998997 31.173782 12.246211
577   1  9.998997 38.101290  0.000000
578   1  9.998997 38.101290  2.449242
579   1  9.998997 38.101290  4.898485
580   1  9.998997 38.101290  7.347727
581   1  9.998997 38.101290  9.796969
582   1  9.998997 38.101290 12.246211
583   1  9.998997 45.028797  0.000000
584   1  9.998997 45.028797  2.449242
585   1  9.998997 45.028797  4.898485
586   1  9.998997 45.028797  7.347727
587   1  9.998997 45.028797  9.796969
588   1  9.998997 45.028797 12.246211
589   1 13.998596  3.463754  0.000000
590   1 13.998596  3.463754  2.449242
591   1 13.998596  3.463754  4.898485
592   1 13.998596  3.463754  7.347727
593   1 13.998596  3.463754  9.796969
594   1 13.998596  3.463754 12.246211
595   1 13.998596 10.391261  0.000000
596   1 13.998596 10.391261  2.449242
597   1 13.998596 10.391261  4.898485
598   1 13.998596 10.391261  7.347727
599   1 13.998596 10.391261  9.796969
600   1 13.998596 10.391261 12.246211
601   1 13.998596 17.318768  0.000000
602   1 13.998596 17.318768  2.449242
603   1 13.998596 17.318768  4.898485
604   1 13.998596 17.318768  7.347727
605   1 13.998596 17.318768  9.796969
606   1 13.998596 17.318768 12.246211
607   1 13.998596 24.246275  0.000000
608   1 13.998596 24.246275  2.449242
609   1 13.998596 24.246275  4.898485
610   1 13.998596 24.246275  7.347727
611   1 13.998596 24.246275  9.796969
612   1 13.998596 24.246275 12.246211
613   1 13.998596 31.173782  0.000000
614   1 13.998596 31.173782  2.449242
615   1 13.998596 31.173782  4.898485
616   1 13.998596 31.173782  7.347727
617   1 13.998596 31.173782  9.796969
618   1 13.998596 31.173782 12.246211
619   1 13.998596 38.101290  0.000000
620   1 13.998596 38.101290  2.449242
621   1 13.998596 38.101290  4.898485
622   1 13.998596 38.101290  7.347727
623   1 13.998596 38.101290  9.796969
624   1 13.998596 38.101290 12.246211
625   1 13.998596 45.028797  0.000000
626   1 13.998596 45.028797  2.449242
627   1 13.998596 45.028797  4.898485
628   1 13.998596 45.028797  7.347727
629   1 13.998596 45.028797  9.796969
630   1 13.998596 45.028797 12.246211
631   1 17.998195  3.463754  0.000000
632   1 17.998195  3.463754  2.449242
633   1 17.998195  3.463754  4.898485
634   1 17.998195  3.463754  7.347727
635   1 17.998195  3.463754  9.796969
636   1 17.998195  3.463754 12.246211
637   1 17.998195 10.391261  0.000000
638   1 17.998195 10.391261  2.449242
639   1 17.998195 10.391261  4.898485
640   1 17.998195 10.391261  7.347727
641   1 17.998195 10.391261  9.796969
642   1 17.998195 10.391261 12.246211
643   1 17.998195 17.318768  0.000000
644   1 17.998195 17.318768  2.449242
645   1 17.998195 17.318768  4.898485
646   1 17.998195 17.318768  7.347727
647   1 17.998195 17.318768  9.796969
648   1 17.998195 17.318768 12.246211
649   1 17.998195 24.246275  0.000000
650   1 17.998195 24.246275  2.449242
651   1 17.998195 24.246275  4.898485
652   1 17.998195 24.246275  7.347727
653   1 17.998195 24.246275  9.796969
654   1 17.998195 24.246275 12.246211
655   1 17.998195 31.173782  0.000000
656   1 17.998195 31.173782  2.449242
657   1 17.998195 31.173782  4.898485
658   1 17.998195 31.173782  7.347727
659   1 17.998195 31.173782  9.796969
660   1 17.998195 31.173782 12.246211
661   1 17.998195 38.101290  0.000000
662   1 17.998195 38.101290  2.449242
663   1 17.998195 38.101290  4.898485
664   1 17.998195 38.101290  7.347727
665   1 17.998195 38.101290  9.796969
666   1 17.998195 38.101290 12.246211
667   1 17.998195 45.028797  0.000000
668   1 17.998195 45.028797  2.449242
669   1 17.998195 45.028797  4.898485
670   1 17.998195 45.028797  7.347727
671   1 17.998195 45.028797  9.796969
672   1 17.998195 45.028797 12.246211
673   1 21.997794  3.463754  0.000000
674   1 21.997794  3.463754  2.449242
675   1 21.997794  3.463754  4.898485
676   1 21.997794  3.463754  7.347727
677   1 21.997794  3.463754  9.796969
678   1 21.997794  3.463754 12.246211
679   1 21.997794 10.391261  0.000000
680   1 21.997794 10.391261  2.449242
681   1 21.997794 10.391261  4.898485
682   1 21.997794 10.391261  7.347727
683   1 21.997794 10.391261  9.796969
684   1 21.997794 10.391261 12.246211
685   1 21.997794 17.318768  0.000000
686   1 21.997794 17.318768  2.449242
687   1 21.997794 17.318768  4.898485
688   1 21.997794 17.318768  7.347727
689   1 21.997794 17.318768  9.796969
690   1 21.997794 17.318768 12.246211
691   1 21.997794 24.246275  0.000000
692   1 21.997794 24.246275  2.449242
693   1 21.997794 24.246275  4.898485
694   1 21.997794 24.246275  7.347727
695   1 21.997794 24.246275  9.796969
696   1 21.997794 24.246275 12.246211
697   1 21.997794 31.173782  0.000000
698   1 21.997794 31.173782  2.449242
699   1 21.997794 31.173782  4.898485
700   1 21.997794 31.173782  7.347727
701   1 21.997794 31.173782  9.796969
702   1 21.997794 31.173782 12.246211
703   1 21.997794 38.101290  0.000000
704   1 21.997794 38.101290  2.449242
705   1 21.997794 38.101290  4.898485
706   1 21.997794 38.101290  7.347727
707   1 21.997794 38.101290  9.796969
708   1 21.997794 38.101290 12.246211
709   1 21.997794 45.028797  0.000000
710   1 21.997794 45.028797  2.449242
711   1 21.997794 45.028797  4.898485
712   1 21.997794 45.028797  7.347727
713   1 21.997794 45.028797  9.796969
714   1 21.997794 45.028797 12.246211
715   1 25.997393  3.463754  0.000000
716   1 25.997393  3.463754  2.449242
717   1 25.997393  3.463754  4.898485
718   1 25.997393  3.463754  7.347727
719   1 25.997393  3.463754  9.796969
720   1 25.997393  3.463754 12.246211
721   1 25.997393 10.391261  0.000000
722   1 25.997393 10.391261  2.449242
723   1 25.997393 10.391261  4.898485
724   1 25.997393 10.391261  7.347727
725   1 25.997393 10.391261  9.796969
726   1 25.997393 10.391261 12.246211
727   1 25.997393 17.318768  0.000000
728   1 25.997393 17.318768  2.449242
729   1 25.997393 17.318768  4.898485
730   1 25.997393 17.318768  7.347727
731   1 25.997393 17.318768  9.796969
732   1 25.997393 17.318768 12.246211
733   1 25.997393 24.246275  0.000000
734   1 25.997393 24.246275  2.449242
735   1 25.997393 24.246275  4.898485
736   1 25.997393 24.246275  7.347727
737   1 25.997393 24.246275  9.796969
738   1 25.997393 24.246275 12.246211
739   1 25.997393 31.173782  0.000000
740   1 25.997393 31.173782  2.449242
741   1 25.997393 31.173782  4.898485
742   1 25.997393 31.173782  7.347727
743   1 25.997393 31.173782  9.796969
744   1 25.997393 31.173782 12.246211
745   1 25.997393 38.101290  0.000000
746   1 25.997393 38.101290  2.449242
747   1 25.997393 38.101290  4.898485
748   1 25.997393 38.101290  7.347727
749   1 25.997393 38.101290  9.796969
750   1 25.997393 38.101290 12.246211
751   1 25.997393 45.028797  0.000000
752   1 25.997393 45.028797  2.449242
753   1 25.997393 45.028797  4.898485
754   1 25.997393 45.028797  7.347727
755   1 25.997393 45.028797  9.796969
756   1 25.997393 45.028797 12.246211
757   1 29.996992  3.463754  0.000000
758   1 29.996992  3.463754  2.449242
759   1 29.996992  3.463754  4.898485
760   1 29.996992  3.463754  7.347727
761   1 29.996992  3.463754  9.796969
762   1 29.996992  3.463754 12.246211
763   1 29.996992 10.391261  0.000000
764   1 29.996992 10.391261  2.449242
765   1 29.996992 10.391261  4.898485
766   1 29.996992 10.391261  7.347727
767   1 29.996992 10.391261  9.796969
768   1 29.996992 10.391261 12.246211
769   1 29.996992 17.318768  0.000000
770   1 29.996992 17.318768  2.449242
771   1 29.996992 17.318768  4.898485
772   1 29.996992 17.318768  7.347727
773   1 29.996992 17.318768  9.796969
774   1 29.996992 17.318768 12.246211
775   1 29.996992 24.246275  0.000000
776   1 29.996992 24.246275  2.449242
777   1 29.996992 24.246275  4.898485
778   1 29.996992 24.246275  7.347727
779   1 29.996992 24.246275  9.796969
780   1 29.996992 24.246275 12.246211
781   1 29.996992 31.173782  0.000000
782   1 29.996992 31.173782  2.449242
783   1 29.996992 31.173782  4.898485
784   1 29.996992 31.173782  7.347727
785   1 29.996992 31.173782  9.796969
786   1 29.996992 31.173782 12.246211
787   1 29.996992 38.101290  0.000000
788   1 29.996992 38.101290  2.449242
789   1 29.996992 38.101290  4.898485
790   1 29.996992 38.101290  7.347727
791   1 29.996992 38.101290  9.796969
792   1 29.996992 38.101290 12.246211
793   1 29.996992 45.028797  0.000000
794   1 29.996992 45.028797  2.449242
795   1 29.996992 45.028797  4.898485
796   1 29.996992 45.028797  7.347727
797   1 29.996992 45.028797  9.796969
798   1 29.996992 45.028797 12.246211
799   1 33.996591  3.463754  0.000000
800   1 33.996591  3.463754  2.449242
801   1 33.996591  3.463754  4.898485
802   1 33.996591  3.463754  7.347727
803   1 33.996591  3.463754  9.796969
804   1 33.996591  3.463754 12.246211
805   1 33.996591 10.391261  0.000000
806   1 33.996591 10.391261  2.449242
807   1 33.996591 10.391261  4.898485
808   1 33.996591 10.391261  7.347727
809   1 33.996591 10.391261  9.796969
810   1 33.996591 10.391261 12.246211
811   1 33.996591 17.318768  0.000000
812   1 33.996591 17.318768  2.449242
813   1 33.996591 17.318768  4.898485
814   1 33.996591 17.318768  7.347727
815   1 33.996591 17.318768  9.796969
816   1 33.996591 17.318768 12.246211
817   1 33.996591 24.246275  0.000000
818   1 33.996591 24.246275  2.449242
819   1 33.996591 24.246275  4.898485
820   1 33.996591 24.246275  7.347727
821   1 33.996591 24.246275  9.796969
822   1 33.996591 24.246275 12.246211
823   1 33.996591 31.173782  0.000000
824   1 33.996591 31.173782  2.449242
825   1 33.996591 31.173782  4.898485
826   1 33.996591 31.173782  7.347727
827   1 33.996591 31.173782  9.796969
828   1 33.996591 31.173782 12.246211
829   1 33.996591 38.101290  0.000000
830   1 33.996591 38.101290  2.449242
831   1 33.996591 38.101290  4.898485
832   1 33.996591 38.101290  7.347727
833   1 33.996591 38.101290  9.796969
834   1 33.996591 38.101290 12.246211
835   1 33.996591 45.028797  0.000000
836   1 33.996591 45.028797  2.449242
837   1 33.996591 45.028797  4.898485
838   1 33.996591 45.028797  7.347727
839   1 33.996591 45.028797  9.796969
840   1 33.996591 45.028797 12.246211
841   1 37.996190  3.463754  0.000000
842   1 37.996190  3.463754  2.449242
843   1 37.996190  3.463754  4.898485
844   1 37.996190  3.463754  7.347727
845   1 37.996190  3.463754  9.796969
846   1 37.996190  3.463754 12.246211
847   1 37.996190 10.391261  0.000000
848   1 37.996190 10.391261  2.449242
849   1 37.996190 10.391261  4.898485
850   1 37.996190 10.391261  7.347727
851   1 37.996190 10.391261  9.796969
852   1 37.996190 10.391261 12.246211
853   1 37.996190 17.318768  0.000000
854   1 37.996190 17.318768  2.449242
855   1 37.996190 17.318768  4.898485
856   1 37.996190 17.318768  7.347727
857   1 37.996190 17.318768  9.796969
858   1 37.996190 17.318768 12.246211
859   1 37.996190 24.246275  0.000000
860   1 37.996190 24.246275  2.449242
861   1 37.996190 24.246275  4.898485
862   1 37.996190 24.246275  7.347727
863   1 37.996190 24.246275  9.796969
864   1 37.996190 24.246275 12.246211
865   1 37.996190 31.173782  0.000000
866   1 37.996190 31.173782  2.449242
867   1 37.996190 31.173782  4.898485
868   1 37.996190 31.173782  7.347727
869   1 37.996190 31.173782  9.796969
870   1 37.996190 31.173782 12.246211
871   1 37.996190 38.101290  0.000000
872   1 37.996190 38.101290  2.449242
873   1 37.996190 38.101290  4.898485
874   1 37.996190 38.101290  7.347727
875   1 37.996190 38.101290  9.796969
876   1 37.996190 38.101290 12.246211
877   1 37.996190 45.028797  0.000000
878   1 37.996190 45.028797  2.449242
879   1 37.996190 45.028797  4.898485
880   1 37.996190 45.028797  7.347727
881   1 37.996190 45.028797  9.796969
882   1 37.996190 45.028797 12.246211
883   1 41.995789  3.463754  0.000000
884   1 41.995789  3.463754  2.449242
885   1 41.995789  3.463754  4.898485
886   1 41.995789  3.463754  7.347727
887   1 41.995789  3.463754  9.796969
888   1 41.995789  3.463754 12.246211
889   1 41.995789 10.391261  0.000000
890   1 41.995789 10.391261  2.449242
891   1 41.995789 10.391261  4.898485
892   1 41.995789 10.391261  7.347727
893   1 41.995789 10.391261  9.796969
894   1 41.995789 10.391261 12.246211
895   1 41.995789 17.318768  0.000000
896   1 41.995789 17.318768  2.449242
897   1 41.995789 17.318768  4.898485
898   1 41.995789 17.318768  7.347727
899   1 41.995789 17.318768  9.796969
900   1 41.995789 17.318768 12.246211
901   1 41.995789 24.246275  0.000000
902   1 41.995789 24.246275  2.449242
903   1 41.995789 24.246275  4.898485
904   1 41.995789 24.246275  7.347727
905   1 41.995789 24.246275  9.796969
906   1 41.995789 24.246275 12.246211
907   1 41.995789 31.173782  0.000000
908   1 41.995789 31.173782  2.449242
909   1 41.995789 31.173782  4.898485
910   1 41.995789 31.173782  7.347727
911   1 41.995789 31.173782  9.796969
912   1 41.995789 31.173782 12.246211
913   1 41.995789 38.101290  0.000000
914   1 41.995789 38.101290  2.449242
915   1 41.995789 38.101290  4.898485
916   1 41.995789 38.101290  7.347727
917   1 41.995789 38.101290  9.796969
918   1 41.995789 38.101290 12.246211
919   1 41.995789 45.028797  0.000000
920   1 41.995789 45.028797  2.449242
921   1 41.995789 45.028797  4.898485
922   1 41.995789 45.028797  7.347727
923   1 41.995789 45.028797  9.796969
924   1 41.995789 45.028797 12.246211
925   1  1.999799  1.154584  1.632828
926   1  1.999799  1.154584  4.082070
927   1  1.999799  1.154584  6.531313
928   1  1.999799  1.154584  8.980555
929   1  1.999799  1.154584 11.429797
930   1  1.999799  1.154584 13.879039
931   1  1.999799  8.082091  1.632828
932   1  1.999799  8.082091  4.082070
933   1  1.999799  8.082091  6.531313
934   1  1.999799  8.082091  8.980555
935   1  1.999799  8.082091 11.429797
936   1  1.999799  8.082091 13.879039
937   1  1.999799 15.009598  1.632828
938   1  1.999799 15.009598  4.082070
939   1  1.999799 15.009598  6.531313
940   1  1.999799 15.009598  8.980555
941   1  1.999799 15.009598 11.429797
942   1  1.999799 15.009598 13.879039
943   1  1.999799 21.937105  1.632828
944   1  1.999799 21.937105  4.082070
945   1  1.999799 21.937105  6.531313
946   1  1.999799 21.937105  8.980555
947   1  1.999799 21.937105 11.429797
948   1  1.999799 21.937105 13.879039
949   1  1.999799 28.864612  1.632828
950   1  1.999799 28.864612  4.082070
951   1  1.999799 28.864612  6.531313
952   1  1.999799 28.864612  8.980555
953   1  1.999799 28.864612 11.429797
954   1  1.999799 28.864612 13.879039
955   1  1.999799 35.792120  1.632828
956   1  1.999799 35.792120  4.082070
957   1  1.999799 35.792120  6.531313
958   1  1.999799 35.792120  8.980555
959   1  1.999799 35.792120 11.429797
960   1  1.999799 35.792120 13.879039
961   1  1.999799 42.719627  1.632828
962   1  1.999799 42.719627  4.082070
963   1  1.999799 42.719627  6.531313
964   1  1.999799 42.719627  8.980555
965   1  1.999799 42.719627 11.429797
966   1  1.999799 42.719627 13.879039
967   1  5.999398  1.154584  1.632828
968   1  5.999398  1.154584  4.082070
969   1  5.999398  1.154584  6.531313
970   1  5.999398  1.154584  8.980555
971   1  5.999398  1.154584 11.429797
972   1  5.999398  1.154584 13.879039
973   1  5.999398  8.082091  1.632828
974   1  5.999398  8.082091  4.082070
975   1  5.999398  8.082091  6.531313
976   1  5.999398  8.082091  8.980555
977   1  5.999398  8.082091 11.429797
978   1  5.999398  8.082091 13.879039
979   1  5.999398 15.009598  1.632828
980   1  5.999398 15.009598  4.082070
981   1  5.999398 15.009598  6.531313
982   1  5.999398 15.009598  8.980555
983   1  5.999398 15.009598 11.429797
984   1  5.999398 15.009598 13.879039
985   1  5.999398 21.937105  1.632828
986   1  5.999398 21.937105  4.082070
987   1  5.999398 21.937105  6.531313
988   1  5.999398 21.937105  8.980555
989   1  5.999398 21.937105 11.429797
990   1  5.999398 21.937105 13.879039
991   1  5.999398 28.864612  1.632828
992   1  5.999398 28.864612  4.082070
993   1  5.999398 28.864612  6.531313
994   1  5.999398 28.864612  8.980555
995   1  5.999398 28.864612 11.429797
996   1  5.999398 28.864612 13.879039
997   1  5.999398 35.792120  1.632828
998   1  5.999398 35.792120  4.082070
999   1  5.999398 35.792120  6.531313
1000  1  5.999398 35.792120  8.980555
1001  1  5.999398 35.792120 11.429797
1002  1  5.999398 35.792120 13.879039
1003  1  5.999398 42.719627  1.632828
1004  1  5.999398 42.719627  4.082070
1005  1  5.999398 42.719627  6.531313
1006  1  5.999398 42.719627  8.980555
1007  1  5.999398 42.719627 11.429797
1008  1  5.999398 42.719627 13.879039
1009  1  9.998997  1.154584  1.632828
1010  1  9.998997  1.154584  4.082070
1011  1  9.998997  1.154584  6.531313
1012  1  9.998997  1.154584  8.980555
1013  1  9.998997  1.154584 11.429797
1014  1  9.998997  1.154584 13.879039
1015  1  9.998997  8.082091  1.632828
1016  1  9.998997  8.082091  4.082070
1017  1  9.998997  8.082091  6.531313
1018  1  9.998997  8.082091  8.980555
1019  1  9.998997  8.082091 11.429797
1020  1  9.998997  8.082091 13.879039
1021  1  9.998997 15.009598  1.632828
1022  1  9.998997 15.009598  4.082070
1023  1  9.998997 15.009598  6.531313
1024  1  9.998997 15.009598  8.980555
1025  1  9.998997 15.009598 11.429797
1026  1  9.998997 15.009598 13.879039
1027  1  9.998997 21.937105  1.632828
1028  1  9.998997 21.937105  4.082070
1029  1  9.998997 21.937105  6.531313
1030  1  9.998997 21.937105  8.980555
1031  1  9.998997 21.937105 11.429797
1032  1  9.998997 21.937105 13.879039
1033  1  9.998997 28.864612  1.632828
1034  1  9.998997 28.864612  4.082070
1035  1  9.998997 28.864612  6.531313
1036  1  9.998997 28.864612  8.980555
1037  1  9.998997 28.864612 11.429797
1038  1  9.998997 28.864612 13.879039
1039  1  9.998997 35.792120  1.632828
1040  1  9.998997 35.792120  4.082070
1041  1  9.998997 35.792120  6.531313
1042  1  9.998997 35.792120  8.980555
1043  1  9.998997 35.792120 11.429797
1044  1  9.998997 35.792120 13.879039
1045  1  9.998997 42.719627  1.632828
1046  1  9.998997 42.719627  4.082070
1047  1  9.998997 42.719627  6.531313
1048  1  9.998997 42.719627  8.980555
1049  1  9.998997 42.719627 11.429797
1050  1  9.998997 42.719627 13.879039
1051  1 13.998596  1.154584  1.632828
1052  1 13.998596  1.154584  4.082070
1053  1 13.998596  1.154584  6.531313
1054  1 13.998596  1.154584  8.980555
1055  1 13.998596  1.154584 11.429797
1056  1 13.998596  1.154584 13.879039
1057  1 13.998596  8.082091  1.632828
1058  1 13.998596  8.082091  4.082070
1059  1 13.998596  8.082091  6.531313
1060  1 13.998596  8.082091  8.980555
1061  1 13.998596  8.082091 11.429797
1062  1 13.998596  8.082091 13.879039
1063  1 13.998596 15.009598  1.632828
1064  1 13.998596 15.009598  4.082070
1065  1 13.998596 15.009598  6.531313
1066  1 13.998596 15.009598  8.980555
1067  1 13.998596 15.009598 11.429797
1068  1 13.998596 15.009598 13.879039
1069  1 13.998596 21.937105  1.632828
1070  1 13.998596 21.937105  4.082070
1071  1 13.998596 21.937105  6.531313
1072  1 13.998596 21.937105  8.980555
1073  1 13.998596 21.937105 11.429797
1074  1 13.998596 21.937105 13.879039
1075  1 13.998596 28.864612  1.632828
1076  1 13.998596 28.864612  4.082070
1077  1 13.998596 28.864612  6.531313
1078  1 13.998596 28.864612  8.980555
1079  1 13.998596 28.864612 11.429797
1080  1 13.998596 28.864612 13.879039
1081  1 13.998596 35.792120  1.632828
1082  1 13.998596 35.792120  4.082070
1083  1 13.998596 35.792120  6.531313
1084  1 13.998596 35.792120  8.980555
1085  1 13.998596 35.792120 11.429797
1086  1 13.998596 35.792120 13.879039
1087  1 13.998596 42.719627  1.632828
1088  1 13.998596 42.719627  4.082070
1089  1 13.998596 42.719627  6.531313
1090  1 13.998596 42.719627  8.980555
1091  1 13.998596 42.719627 11.429797
1092  1 13.998596 42.719627 13.879039
1093  1 17.998195  1.154584  1.632828
1094  1 17.998195  1.154584  4.082070
1095  1 17.998195  1.154584  6.531313
1096  1 17.998195  1.154584  8.980555
1097  1 17.998195  1.154584 11.429797
1098  1 17.998195  1.154584 13.879039
1099  1 17.998195  8.082091  1.632828
1100  1 17.998195  8.082091  4.082070
1101  1 17.998195  8.082091  6.531313
1102  1 17.998195  8.082091  8.980555
1103  1 17.998195  8.082091 11.429797
1104  1 17.998195  8.082091 13.879039
1105  1 17.998195 15.009598  1.632828
1106  1 17.998195 15.009598  4.082070
1107  1 17.998195 15.009598  6.531313
1108  1 17.998195 15.009598  8.980555
1109  1 17.998195 15.009598 11.429797
1110  1 17.998195 15.009598 13.879039
1111  1 17.998195 21.937105  1.632828
1112  1 17.998195 21.937105  4.082070
1113  1 17.998195 21.937105  6.531313
1114  1 17.998195 21.937105  8.980555
1115  1 17.998195 21.937105 11.429797
1116  1 17.998195 21.937105 13.879039
1117  1 17.998195 28.864612  1.632828
1118  1 17.998195 28.864612  4.082070
1119  1 17.998195 28.864612  6.531313
1120  1 17.998195 28.864612  8.980555
1121  1 17.998195 28.864612 11.429797
1122  1 17.998195 28.864612 13.879039
1123  1 17.998195 35.792120  1.632828
1124  1 17.998195 35.792120  4.082070
1125  1 17.998195 35.792120  6.531313
1126  1 17.998195 35.792120  8.980555
1127  1 17.998195 35.792120 11.429797
1128  1 17.998195 35.792120 13.879039
1129  1 17.998195 42.719627  1.632828
1130  1 17.998195 42.719627  4.082070
1131  1 17.998195 42.719627  6.531313
1132  1 17.998195 42.719627  8.980555
1133  1 17.998195 42.719627 11.429797
1134  1 17.998195 42.719627 13.879039
1135  1 21.997794  1.154584  1.632828
1136  1 21.997794  1.154584  4.082070
1137  1 21.997794  1.154584  6.531313
1138  1 21.997794  1.154584  8.980555
1139  1 21.997794  1.154584 11.429797
1140  1 21.997794  1.154584 13.879039
1141  1 21.997794  8.082091  1.632828
1142  1 21.997794  8.082091  4.082070
1143  1 21.997794  8.082091  6.531313
1144  1 21.997794  8.082091  8.980555
1145  1 21.997794  8.082091 11.429797
1146  1 21.997794  8.082091 13.879039
1147  1 21.997794 15.009598  1.632828
1148  1 21.997794 15.009598  4.082070
1149  1 21.997794 15.009598  6.531313
1150  1 21.997794 15.009598  8.980555
1151  1 21.997794 15.009598 11.429797
1152  1 21.997794 15.009598 13.879039
1153  1 21.997794 21.937105  1.632828
1154  1 21.997794 21.937105  4.082070
1155  1 21.997794 21.937105  6.531313
1156  1 21.997794 21.937105  8.980555
1157  1 21.997794 21.937105 11.429797
1158  1 21.997794 21.937105 13.879039
1159  1 21.997794 28.864612  1.632828
1160  1 21.997794 28.864612  4.082070
1161  1 21.997794 28.864612  6.531313
1162  1 21.997794 28.864612  8.980555
1163  1 21.997794 28.864612 11.429797
1164  1 21.997794 28.864612 13.879039
1165  1 21.997794 35.792120  1.632828
1166  1 21.997794 35.792120  4.082070
1167  1 21.997794 35.792120  6.531313
1168  1 21.997794 35.792120  8.980555
1169  1 21.997794 35.792120 11.429797
1170  1 21.997794 35.792120 13.879039
1171  1 21.997794 42.719627  1.632828
1172  1 21.997794 42.719627  4.082070
1173  1 21.997794 42.719627  6.531313
1174  1 21.997794 42.719627  8.980555
1175  1 21.997794 42.719627 11.429797
1176  1 21.997794 42.719627 13.879039
1177  1 25.997393  1.154584  1.632828
1178  1 25.997393  1.154584  4.082070
1179  1 25.997393  1.154584  6.531313
1180  1 25.997393  1.154584  8.980555
1181  1 25.997393  1.154584 11.429797
1182  1 25.997393  1.154584 13.879039
1183  1 25.997393  8.082091  1.632828
1184  1 25.997393  8.082091  4.082070
1185  1 25.997393  8.082091  6.531313
1186  1 25.997393  8.082091  8.980555
1187  1 25.997393  8.082091 11.429797
1188  1 25.997393  8.082091 13.879039
1189  1 25.997393 15.009598  1.632828
1190  1 25.997393 15.009598  4.082070
1191  1 25.997393 15.009598  6.531313
1192  1 25.997393 15.009598  8.980555
1193  1 25.997393 15.009598 11.429797
1194  1 25.997393 15.009598 13.879039
1195  1 25.997393 21.937105  1.632828
1196  1 25.997393 21.937105  4.082070
1197  1 25.997393 21.937105  6.531313
1198  1 25.997393 21.937105  8.980555
1199  1 25.997393 21.937105 11.429797
1200  1 25.997393 21.937105 13.879039
1201  1 25.997393 28.864612  1.632828
1202  1 25.997393 28.864612  4.082070
1203  1 25.997393 28.864612  6.531313
1204  1 25.997393 28.864612  8.980555
1205  1 25.997393 28.864612 11.429797
1206  1 25.997393 28.864612 13.879039
1207  1 25.997393 35.792120  1.632828
1208  1 25.997393 35.792120  4.082070
1209  1 25.997393 35.792120  6.531313
1210  1 25.997393 35.792120  8.980555
1211  1 25.997393 35.792120 11.429797
1212  1 25.997393 35.792120 13.879039
1213  1 25.997393 42.719627  1.632828
1214  1 25.997393 42.719627  4.082070
1215  1 25.997393 42.719627  6.531313
1216  1 25.997393 42.719627  8.980555
1217  1 25.997393 42.719627 11.429797
1218  1 25.997393 42.719627 13.879039
1219  1 29.996992  1.154584  1.632828
1220  1 29.996992  1.154584  4.082070
1221  1 29.996992  1.154584  6.531313
1222  1 29.996992  1.154584  8.980555
1223  1 29.996992  1.154584 11.429797
1224  1 29.996992  1.154584 13.879039
1225  1 29.996992  8.082091  1.632828
1226  1 29.996992  8.082091  4.082070
1227  1 29.996992  8.082091  6.531313
1228  1 29.996992  8.082091  8.980555
1229  1 29.996992  8.082091 11.429797
1230  1 29.996992  8.082091 13.879039
1231  1 29.996992 15.009598  1.632828
1232  1 29.996992 15.009598  4.082070
1233  1 29.996992 15.009598  6.531313
1234  1 29.996992 15.009598  8.980555
1235  1 29.996992 15.009598 11.429797
1236  1 29.996992 15.009598 13.879039
1237  1 29.996992 21.937105  1.632828
1238  1 29.996992 21.937105  4.082070
1239  1 29.996992 21.937105  6.531313
1240  1 29.996992 21.937105  8.980555
1241  1 29.996992 21.937105 11.429797
1242  1 29.996992 21.937105 13.879039
1243  1 29.996992 28.864612  1.632828
1244  1 29.996992 28.864612  4.082070
1245  1 29.996992 28.864612  6.531313
1246  1 29.996992 28.864612  8.980555
1247  1 29.996992 28.864612 11.429797
1248  1 29.996992 28.864612 13.879039
1249  1 29.996992 35.792120  1.632828
1250  1 29.996992 35.792120  4.082070
1251  1 29.996992 35.792120  6.531313
1252  1 29.996992 35.792120  8.980555
1253  1 29.996992 35.792120 11.429797
1254  1 29.996992 35.792120 13.879039
1255  1 29.996992 42.719627  1.632828
1256  1 29.996992 42.719627  4.082070
1257  1 29.996992 42.719627  6.531313
1258  1 29.996992 42.719627  8.980555
1259  1 29.996992 42.719627 11.429797
1260  1 29.996992 42.719627 13.879039
1261  1 33.996591  1.154584  1.632828
1262  1 33.996591  1.154584  4.082070
1263  1 33.996591  1.154584  6.531313
1264  1 33.996591  1.154584  8.980555
1265  1 33.996591  1.154584 11.429797
1266  1 33.996591  1.154584 13.879039
1267  1 33.996591  8.082091  1.632828
1268  1 33.996591  8.082091  4.082070
1269  1 33.996591  8.082091  6.531313
1270  1 33.996591  8.082091  8.980555
1271  1 33.996591  8.082091 11.429797
1272  1 33.996591  8.082091 13.879039
1273  1 33.996591 15.009598  1.632828
1274  1 33.996591 15.009598  4.082070
1275  1 33.996591 15.009598  6.531313
1276  1 33.996591 15.009598  8.980555
1277  1 33.996591 15.009598 11.429797
1278  1 33.996591 15.009598 13.879039
1279  1 33.996591 21.937105  1.632828
1280  1 33.996591 21.937105  4.082070
1281  1 33.996591 21.937105  6.531313
1282  1 33.996591 21.937105  8.980555
1283  1 33.996591 21.937105 11.429797
1284  1 33.996591 21.937105 13.879039
1285  1 33.996591 28.864612  1.632828
1286  1 33.996591 28.864612  4.082070
1287  1 33.996591 28.864612  6.531313
1288  1 33.996591 28.864612  8.980555
1289  1 33.996591 28.864612 11.429797
1290  1 33.996591 28.864612 13.879039
1291  1 33.996591 35.792120  1.632828
1292  1 33.996591 35.792120  4.082070
1293  1 33.996591 35.792120  6.531313
1294  1 33.996591 35.792120  8.980555
1295  1 33.996591 35.792120 11.429797
1296  1 33.996591 35.792120 13.879039
1297  1 33.996591 42.719627  1.632828
1298  1 33.996591 42.719627  4.082070
1299  1 33.996591 42.719627  6.531313
1300  1 33.996591 42.719627  8.980555
1301  1 33.996591 42.719627 11.429797
1302  1 33.996591 42.719627 13.879039
1303  1 37.996190  1.154584  1.632828
1304  1 37.996190  1.154584  4.082070
1305  1 37.996190  1.154584  6.531313
1306  1 37.996190  1.154584  8.980555
1307  1 37.996190  1.154584 11.429797
1308  1 37.996190  1.154584 13.879039
1309  1 37.996190  8.082091  1.632828
1310  1 37.996190  8.082091  4.082070
1311  1 37.996190  8.082091  6.531313
1312  1 37.996190  8.082091  8.980555
1313  1 37.996190  8.082091 11.429797
1314  1 37.996190  8.082091 13.879039
1315  1 37.996190 15.009598  1.632828
1316  1 37.996190 15.009598  4.082070
1317  1 37.996190 15.009598  6.531313
1318  1 37.996190 15.009598  8.980555
1319  1 37.996190 15.009598 11.429797
1320  1 37.996190 15.009598 13.879039
1321  1 37.996190 21.937105  1.632828
1322  1 37.996190 21.937105  4.082070
1323  1 37.996190 21.937105  6.531313
1324  1 37.996190 21.937105  8.980555
1325  1 37.996190 21.937105 11.429797
1326  1 37.996190 21.937105 13.879039
1327  1 37.996190 28.864612  1.632828
1328  1 37.996190 28.864612  4.082070
1329  1 37.996190 28.864612  6.531313
1330  1 37.996190 28.864612  8.980555
1331  1 37.996190 28.864612 11.429797
1332  1 37.996190 28.864612 13.879039
1333  1 37.996190 35.792120  1.632828
1334  1 37.996190 35.792120  4.082070
1335  1 37.996190 35.792120  6.531313
1336  1 37.996190 35.792120  8.980555
1337  1 37.996190 35.792120 11.429797
1338  1 37.996190 35.792120 13.879039
1339  1 37.996190 42.719627  1.632828
1340  1 37.996190 42.719627  4.082070
1341  1 37.996190 42.719627  6.531313
1342  1 37.996190 42.719627  8.980555
1343  1 37.996190 42.719627 11.429797
1344  1 37.996190 42.719627 13.879039
1345  1 41.995789  1.154584  1.632828
1346  1 41.995789  1.154584  4.082070
1347  1 41.995789  1.154584  6.531313
1348  1 41.995789  1.154584  8.980555
1349  1 41.995789  1.154584 11.429797
1350  1 41.995789  1.154584 13.879039
1351  1 41.995789  8.082091  1.632828
1352  1 41.995789  8.082091  4.082070
1353  1 41.995789  8.082091  6.531313
1354  1 41.995789  8.082091  8.980555
1355  1 41.995789  8.082091 11.429797
1356  1 41.995789  8.082091 13.879039
1357  1 41.995789 15.009598  1.632828
1358  1 41.995789 15.009598  4.082070
1359  1 41.995789 15.009598  6.531313
1360  1 41.995789 15.009598  8.980555
1361  1 41.995789 15.009598 11.429797
1362  1 41.995789 15.009598 13.879039
1363  1 41.995789 21.937105  1.632828
1364  1 41.995789 21.937105  4.082070
1365  1 41.995789 21.937105  6.531313
1366  1 41.995789 21.937105  8.980555
1367  1 41.995789 21.937105 11.429797
1368  1 41.995789 21.937105 13.879039
1369  1 41.995789 28.864612  1.632828
1370  1 41.995789 28.864612  4.082070
1371  1 41.995789 28.864612  6.531313
1372  1 41.995789 28.864612  8.980555
1373  1 41.995789 28.864612 11.429797
1374  1 41.995789 28.864612 13.879039
1375  1 41.995789 35.792120  1.632828
1376  1 41.995789 35.792120  4.082070
1377  1 41.995789 35.792120  6.531313
1378  1 41.995789 35.792120  8.980555
1379  1 41.995789 35.792120 11.429797
1380  1 41.995789 35.792120 13.879039
1381  1 41.995789 42.719627  1.632828
1382  1 41.995789 42.719627  4.082070
1383  1 41.995789 42.719627  6.531313
1384  1 41.995789 42.719627  8.980555
1385  1 41.995789 42.719627 11.429797
1386  1 41.995789 42.719627 13.879039
1387  1  0.000000  4.618337  1.632828
1388  1  0.000000  4.618337  4.082070
1389  1  0.000000  4.618337  6.531313
1390  1  0.000000  4.618337  8.980555
1391  1  0.000000  4.618337 11.429797
1392  1  0.000000  4.618337 13.879039
1393  1  0.000000 11.545844  1.632828
1394  1  0.000000 11.545844  4.082070
1395  1  0.000000 11.545844  6.531313
1396  1  0.000000 11.545844  8.980555
1397  1  0.000000 11.545844 11.429797
1398  1  0.000000 11.545844 13.879039
1399  1  0.000000 18.473352  1.632828
1400  1  0.000000 18.473352  4.082070
1401  1  0.000000 18.473352  6.531313
1402  1  0.000000 18.473352  8.980555
1403  1  0.000000 18.473352 11.429797
1404  1  0.000000 18.473352 13.879039
1405  1  0.000000 25.400859  1.632828
1406  1  0.000000 25.400859  4.082070
1407  1  0.000000 25.400859  6.531313
1408  1  0.000000 25.400859  8.980555
1409  1  0.000000 25.400859 11.429797
1410  1  0.000000 25.400859 13.879039
1411  1  0.000000 32.328366  1.632828
1412  1  0.000000 32.328366  4.082070
1413  1  0.000000 32.328366  6.531313
1414  1  0.000000 32.328366  8.980555
1415  1  0.000000 32.328366 11.429797
1416  1  0.000000 32.328366 13.879039
1417  1  0.000000 39.255873  1.632828
1418  1  0.000000 39.255873  4.082070
1419  1  0.000000 39.255873  6.531313
1420  1  0.000000 39.255873  8.980555
1421  1  0.000000 39.255873 11.429797
1422  1  0.000000 39.255873 13.879039
1423  1  0.000000 46.183380  1.632828
1424  1  0.000000 46.183380  4.082070
1425  1  0.000000 46.183380  6.531313
1426  1  0.000000 46.183380  8.980555
1427  1  0.000000 46.183380 11.429797
1428  1  0.000000 46.183380 13.879039
1429  1  3.999599  4.618337  1.632828
1430  1  3.999599  4.618337  4.082070
1431  1  3.999599  4.618337  6.531313
1432  1  3.999599  4.618337  8.980555
1433  1  3.999599  4.618337 11.429797
1434  1  3.999599  4.618337 13.879039
1435  1  3.999599 11.545844  1.632828
1436  1  3.999599 11.545844  4.082070
1437  1  3.999599 11.545844  6.531313
1438  1  3.999599 11.545844  8.980555
1439  1  3.999599 11.545844 11.429797
1440  1  3.999599 11.545844 13.879039
1441  1  3.999599 18.473352  1.632828
1442  1  3.999599 18.473352  4.082070
1443  1  3.999599 18.473352  6.531313
1444  1  3.999599 18.473352  8.980555
1445  1  3.999599 18.473352 11.429797
1446  1  3.999599 18.473352 13.879039
1447  1  3.999599 25.400859  1.632828
1448  1  3.999599 25.400859  4.082070
1449  1  3.999599 25.400859  6.531313
1450  1  3.999599 25.400859  8.980555
1451  1  3.999599 25.400859 11.429797
1452  1  3.999599 25.400859 13.879039
1453  1  3.999599 32.328366  1.632828
1454  1  3.999599 32.328366  4.082070
1455  1  3.999599 32.328366  6.531313
1456  1  3.999599 32.328366  8.980555
1457  1  3.999599 32.328366 11.429797
1458  1  3.999599 32.328366 13.879039
1459  1  3.999599 39.255873  1.632828
1460  1  3.999599 39.255873  4.082070
1461  1  3.999599 39.255873  6.531313
1462  1  3.999599 39.255873  8.980555
1463  1  3.999599 39.255873 11.429797
1464  1  3.999599 39.255873 13.879039
1465  1  3.999599 46.183380  1.632828
1466  1  3.999599 46.183380  4.082070
1467  1  3.999599 46.183380  6.531313
1468  1  3.999599 46.183380  8.980555
1469  1  3.999599 46.183380 11.429797
1470  1  3.999599 46.183380 13.879039
1471  1  7.999198  4.618337  1.632828
1472  1  7.999198  4.618337  4.082070
1473  1  7.999198  4.618337  6.531313
1474  1  7.999198  4.618337  8.980555
1475  1  7.999198  4.618337 11.429797
1476  1  7.999198  4.618337 13.879039
1477  1  7.999198 11.545844  1.632828
1478  1  7.999198 11.545844  4.082070
1479  1  7.999198 11.545844  6.531313
1480  1  7.999198 11.545844  8.980555
1481  1  7.999198 11.545844 11.429797
1482  1  7.999198 11.545844 13.879039
1483  1  7.999198 18.473352  1.632828
1484  1  7.999198 18.473352  4.082070
1485  1  7.999198 18.473352  6.531313
1486  1  7.999198 18.473352  8.980555
1487  1  7.999198 18.473352 11.429797
1488  1  7.999198 18.473352 13.879039
1489  1  7.999198 25.400859  1.632828
1490  1  7.999198 25.400859  4.082070
1491  1  7.999198 25.400859  6.531313
1492  1  7.999198 25.400859  8.980555
1493  1  7.999198 25.400859 11.429797
1494  1  7.999198 25.400859 13.879039
1495  1  7.999198 32.328366  1.632828
1496  1  7.999198 32.328366  4.082070
1497  1  7.999198 32.328366  6.531313
1498  1  7.999198 32.328366  8.980555
1499  1  7.999198 32.328366 11.429797
1500  1  7.999198 32.328366 13.879039
1501  1  7.999198 39.255873  1.632828
1502  1  7.999198 39.255873  4.082070
1503  1  7.999198 39.255873  6.531313
1504  1  7.999198 39.255873  8.980555
1505  1  7.999198 39.255873 11.429797
1506  1  7.999198 39.255873 13.879039
1507  1  7.999198 46.183380  1.632828
1508  1  7.999198 46.183380  4.082070
1509  1  7.999198 46.183380  6.531313
1510  1  7.999198 46.183380  8.980555
1511  1  7.999198 46.183380 11.429797
1512  1  7.999198 46.183380 13.879039
1513  1 11.998797  4.618337  1.632828
1514  1 11.998797  4.618337  4.082070
1515  1 11.998797  4.618337  6.531313
1516  1 11.998797  4.618337  8.980555
1517  1 11.998797  4.618337 11.429797
1518  1 11.998797  4.618337 13.879039
1519  1 11.998797 11.545844  1.632828
1520  1 11.998797 11.545844  4.082070
1521  1 11.998797 11.545844  6.531313
1522  1 11.998797 11.545844  8.980555
1523  1 11.998797 11.545844 11.429797
1524  1 11.998797 11.545844 13.879039
1525  1 11.998797 18.473352  1.632828
1526  1 11.998797 18.473352  4.082070
1527  1 11.998797 18.473352  6.531313
1528  1 11.998797 18.473352  8.980555
1529  1 11.998797 18.473352 11.429797
1530  1 11.998797 18.473352 13.879039
1531  1 11.998797 25.400859  1.632828
1532  1 11.998797 25.400859  4.082070
1533  1 11.998797 25.400859  6.531313
1534  1 11.998797 25.400859  8.980555
1535  1 11.998797 25.400859 11.429797
1536  1 11.998797 25.400859 13.879039
1537  1 11.998797 32.328366  1.632828
1538  1 11.998797 32.328366  4.082070
1539  1 11.998797 32.328366  6.531313
1540  1 11.998797 32.328366  8.980555
1541  1 11.998797 32.328366 11.429797
1542  1 11.998797 32.328366 13.879039
1543  1 11.998797 39.255873  1.632828
1544  1 11.998797 39.255873  4.082070
1545  1 11.998797 39.255873  6.531313
1546  1 11.998797 39.255873  8.980555
1547  1 11.998797 39.255873 11.429797
1548  1 11.998797 39.255873 13.879039
1549  1 11.998797 46.183380  1.632828
1550  1 11.998797 46.183380  4.082070
1551  1 11.998797 46.183380  6.531313
1552  1 11.998797 46.183380  8.980555
1553  1 11.998797 46.183380 11.429797
1554  1 11.998797 46.183380 13.879039
1555  1 15.998396  4.618337  1.632828
1556  1 15.998396  4.618337  4.082070
1557  1 15.998396  4.618337  6.531313
1558  1 15.998396  4.618337  8.980555
1559  1 15.998396  4.618337 11.429797
1560  1 15.998396  4.618337 13.879039
1561  1 15.998396 11.545844  1.632828
1562  1 15.998396 11.545844  4.082070
1563  1 15.998396 11.545844  6.531313
1564  1 15.998396 11.545844  8.980555
1565  1 15.998396 11.545844 11.429797
1566  1 15.998396 11.545844 13.879039
1567  1 15.998396 18.473352  1.632828
1568  1 15.998396 18.473352  4.082070
1569  1 15.998396 18.473352  6.531313
1570  1 15.998396 18.473352  8.980555
1571  1 15.998396 18.473352 11.429797
1572  1 15.998396 18.473352 13.879039
1573  1 15.998396 25.400859  1.632828
1574  1 15.998396 25.400859  4.082070
1575  1 15.998396 25.400859  6.531313
1576  1 15.998396 25.400859  8.980555
1577  1 15.998396 25.400859 11.429797
1578  1 15.998396 25.400859 13.879039
1579  1 15.998396 32.328366  1.632828
1580  1 15.998396 32.328366  4.082070
1581  1 15.998396 32.328366  6.531313
1582  1 15.998396 32.328366  8.980555
1583  1 15.998396 32.328366 11.429797
1584  1 15.998396 32.328366 13.879039
1585  1 15.998396 39.255873  1.632828
1586  1 15.998396 39.255873  4.082070
1587  1 15.998396 39.255873  6.531313
1588  1 15.998396 39.255873  8.980555
1589  1 15.998396 39.255873 11.429797
1590  1 15.998396 39.255873 13.879039
1591  1 15.998396 46.183380  1.632828
1592  1 15.998396 46.183380  4.082070
1593  1 15.998396 46.183380  6.531313
1594  1 15.998396 46.183380  8.980555
1595  1 15.998396 46.183380 11.429797
1596  1 15.998396 46.183380 13.879039
1597  1 19.997995  4.618337  1.632828
1598  1 19.997995  4.618337  4.082070
1599  1 19.997995  4.618337  6.531313
1600  1 19.997995  4.618337  8.980555
1601  1 19.997995  4.618337 11.429797
1602  1 19.997995  4.618337 13.879039
1603  1 19.997995 11.545844  1.632828
1604  1 19.997995 11.545844  4.082070
1605  1 19.997995 11.545844  6.531313
1606  1 19.997995 11.545844  8.980555
1607  1 19.997995 11.545844 11.429797
1608  1 19.997995 11.545844 13.879039
1609  1 19.997995 18.473352  1.632828
1610  1 19.997995 18.473352  4.082070
1611  1 19.997995 18.473352  6.531313
1612  1 19.997995 18.473352  8.980555
1613  1 19.997995 18.473352 11.429797
1614  1 19.997995 18.473352 13.879039
1615  1 19.997995 25.400859  1.632828
1616  1 19.997995 25.400859  4.082070
1617  1 19.997995 25.400859  6.531313
1618  1 19.997995 25.400859  8.980555
1619  1 19.997995 25.400859 11.429797
1620  1 19.997995 25.400859 13.879039
1621  1 19.997995 32.328366  1.632828
1622  1 19.997995 32.328366  4.082070
1623  1 19.997995 32.328366  6.531313
1624  1 19.997995 32.328366  8.980555
1625  1 19.997995 32.328366 11.429797
1626  1 19.997995 32.328366 13.879039
1627  1 19.997995 39.255873  1.632828
1628  1 19.997995 39.255873  4.082070
1629  1 19.997995 39.255873  6.531313
1630  1 19.997995 39.255873  8.980555
1631  1 19.997995 39.255873 11.429797
1632  1 19.997995 39.255873 13.879039
1633  1 19.997995 46.183380  1.632828
1634  1 19.997995 46.183380  4.082070
1635  1 19.997995 46.183380  6.531313
1636  1 19.997995 46.183380  8.980555
1637  1 19.997995 46.183380 11.429797
1638  1 19.997995 46.183380 13.879039
1639  1 23.997594  4.618337  1.632828
1640  1 23.997594  4.618337  4.082070
1641  1 23.997594  4.618337  6.531313
1642  1 23.997594  4.618337  8.980555
1643  1 23.997594  4.618337 11.429797
1644  1 23.997594  4.618337 13.879039
1645  1 23.997594 11.545844  1.632828
1646  1 23.997594 11.545844  4.082070
1647  1 23.997594 11.545844  6.531313
1648  1 23.997594 11.545844  8.980555
1649  1 23.997594 11.545844 11.429797
1650  1 23.997594 11.545844 13.879039
1651  1 23.997594 18.473352  1.632828
1652  1 23.997594 18.473352  4.082070
1653  1 23.997594 18.473352  6.531313
1654  1 23.997594 18.473352  8.980555
1655  1 23.997594 18.473352 11.429797
1656  1 23.997594 18.473352 13.879039
1657  1 23.997594 25.400859  1.632828
1658  1 23.997594 25.400859  4.082070
1659  1 23.997594 25.400859  6.531313
1660  1 23.997594 25.400859  8.980555
1661  1 23.997594 25.400859 11.429797
1662  1 23.997594 25.400859 13.879039
1663  1 23.997594 32.328366  1.632828
1664  1 23.997594 32.328366  4.082070
1665  1 23.997594 32.328366  6.531313
1666  1 23.997594 32.328366  8.980555
1667  1 23.997594 32.328366 11.429797
1668  1 23.997594 32.328366 13.879039
1669  1 23.997594 39.255873  1.632828
1670  1 23.997594 39.255873  4.082070
1671  1 23.997594 39.255873  6.531313
1672  1 23.997594 39.255873  8.980555
1673  1 23.997594 39.255873 11.429797
1674  1 23.997594 39.255873 13.879039
1675  1 23.997594 46.183380  1.632828
1676  1 23.997594 46.183380  4.082070
1677  1 23.997594 46.183380  6.531313
1678  1 23.997594 46.183380  8.980555
1679  1 23.997594 46.183380 11.429797
1680  1 23.997594 46.183380 13.879039
1681  1 27.997193  4.618337  1.632828
1682  1 27.997193  4.618337  4.082070
1683  1 27.997193  4.618337  6.531313
1684  1 27.997193  4.618337  8.980555
1685  1 27.997193  4.618337 11.429797
1686  1 27.997193  4.618337 13.879039
1687  1 27.997193 11.545844  1.632828
1688  1 27.997193 11.545844  4.082070
1689  1 27.997193 11.545844  6.531313
1690  1 27.997193 11.545844  8.980555
1691  1 27.997193 11.545844 11.429797
1692  1 27.997193 11.545844 13.879039
1693  1 27.997193 18.473352  1.632828
1694  1 27.997193 18.473352  4.082070
1695  1 27.997193 18.473352  6.531313
1696  1 27.997193 18.473352  8.980555
1697  1 27.997193 18.473352 11.429797
1698  1 27.997193 18.473352 13.879039
1699  1 27.997193 25.400859  1.632828
1700  1 27.997193 25.400859  4.082070
1701  1 27.997193 25.400859  6.531313
1702  1 27.997193 25.400859  8.980555
1703  1 27.997193 25.400859 11.429797
1704  1 27.997193 25.400859 13.879039
1705  1 27.997193 32.328366  1.632828
1706  1 27.997193 32.328366  4.082070
1707  1 27.997193 32.328366  6.531313
1708  1 27.997193 32.328366  8.980555
1709  1 27.997193 32.328366 11.429797
1710  1 27.997193 32.328366 13.879039
1711  1 27.997193 39.255873  1.632828
1712  1 27.997193 39.255873  4.082070
1713  1 27.997193 39.255873  6.531313
1714  1 27.997193 39.255873  8.980555
1715  1 27.997193 39.255873 11.429797
1716  1 27.997193 39.255873 13.879039
1717  1 27.997193 46.183380  1.632828
1718  1 27.997193 46.183380  4.082070
1719  1 27.997193 46.183380  6.531313
1720  1 27.997193 46.183380  8.980555
1721  1 27.997193 46.183380 11.429797
1722  1 27.997193 46.183380 13.879039
1723  1 31.996792  4.618337  1.632828
1724  1 31.996792  4.618337  4.082070
1725  1 31.996792  4.618337  6.531313
1726  1 31.996792  4.618337  8.980555
1727  1 31.996792  4.618337 11.429797
1728  1 31.996792  4.618337 13.879039
1729  1 31.996792 11.545844  1.632828
1730  1 31.996792 11.545844  4.082070
1731  1 31.996792 11.545844  6.531313
1732  1 31.996792 11.545844  8.980555
1733  1 31.996792 11.545844 11.429797
1734  1 31.996792 11.545844 13.879039
1735  1 31.996792 18.473352  1.632828
1736  1 31.996792 18.473352  4.082070
1737  1 31.996792 18.473352  6.531313
1738  1 31.996792 18.473352  8.980555
1739  1 31.996792 18.473352 11.429797
1740  1 31.996792 18.473352 13.879039
1741  1 31.996792 25.400859  1.632828
1742  1 31.996792 25.400859  4.082070
1743  1 31.996792 25.400859  6.531313
1744  1 31.996792 25.400859  8.980555
1745  1 31.996792 25.400859 11.429797
1746  1 31.996792 25.400859 13.879039
1747  1 31.996792 32.328366  1.632828
1748  1 31.996792 32.328366  4.082070
1749  1 31.996792 32.328366  6.531313
1750  1 31.996792 32.328366  8.980555
1751  1 31.996792 32.328366 11.429797
1752  1 31.996792 32.328366 13.879039
1753  1 31.996792 39.255873  1.632828
1754  1 31.996792 39.255873  4.082070
1755  1 31.996792 39.255873  6.531313
1756  1 31.996792 39.255873  8.980555
1757  1 31.996792 39.255873 11.429797
1758  1 31.996792 39.255873 13.879039
1759  1 31.996792 46.183380  1.632828
1760  1 31.996792 46.183380  4.082070
1761  1 31.996792 46.183380  6.531313
1762  1 31.996792 46.183380  8.980555
1763  1 31.996792 46.183380 11.429797
1764  1 31.996792 46.183380 13.879039
1765  1 35.996391  4.618337  1.632828
1766  1 35.996391  4.618337  4.082070
1767  1 35.996391  4.618337  6.531313
1768  1 35.996391  4.618337  8.980555
1769  1 35.996391  4.618337 11.429797
1770  1 35.996391  4.618337 13.879039
1771  1 35.996391 11.545844  1.632828
1772  1 35.996391 11.545844  4.082070
1773  1 35.996391 11.545844  6.531313
1774  1 35.996391 11.545844  8.980555
1775  1 35.996391 11.545844 11.429797
1776  1 35.996391 11.545844 13.879039
1777  1 35.996391 18.473352  1.632828
1778  1 35.996391 18.473352  4.082070
1779  1 35.996391 18.473352  6.531313
1780  1 35.996391 18.473352  8.980555
1781  1 35.996391 18.473352 11.429797
1782  1 35.996391 18.473352 13.879039
1783  1 35.996391 25.400859  1.632828
1784  1 35.996391 25.400859  4.082070
1785  1 35.996391 25.400859  6.531313
1786  1 35.996391 25.400859  8.980555
1787  1 35.996391 25.400859 11.429797
1788  1 35.996391 25.400859 13.879039
1789  1 35.996391 32.328366  1.632828
1790  1 35.996391 32.328366  4.082070
1791  1 35.996391 32.328366  6.531313
1792  1 35.996391 32.328366  8.980555
1793  1 35.996391 32.328366 11.429797
1794  1 35.996391 32.328366 13.879039
1795  1 35.996391 39.255873  1.632828
1796  1 35.996391 39.255873  4.082070
1797  1 35.996391 39.255873  6.531313
1798  1 35.996391 39.255873  8.980555
1799  1 35.996391 39.255873 11.429797
1800  1 35.996391 39.255873 13.879039
1801  1 35.996391 46.183380  1.632828
1802  1 35.996391 46.183380  4.082070
1803  1 35.996391 46.183380  6.531313
1804  1 35.996391 46.183380  8.980555
1805  1 35.996391 46.183380 11.429797
1806  1 35.996391 46.183380 13.879039
1807  1 39.995990  4.618337  1.632828
1808  1 39.995990  4.618337  4.082070
1809  1 39.995990  4.618337  6.531313
1810  1 39.995990  4.618337  8.980555
1811  1 39.995990  4.618337 11.429797
1812  1 39.995990  4.618337 13.879039
1813  1 39.995990 11.545844  1.632828
1814  1 39.995990 11.545844  4.082070
1815  1 39.995990 11.545844  6.531313
1816  1 39.995990 11.545844  8.980555
1817  1 39.995990 11.545844 11.429797
1818  1 39.995990 11.545844 13.879039
1819  1 39.995990 18.473352  1.632828
1820  1 39.995990 18.473352  4.082070
1821  1 39.995990 18.473352  6.531313
1822  1 39.995990 18.473352  8.980555
1823  1 39.995990 18.473352 11.429797
1824  1 39.995990 18.473352 13.879039
1825  1 39.995990 25.400859  1.632828
1826  1 39.995990 25.400859  4.082070
1827  1 39.995990 25.400859  6.531313
1828  1 39.995990 25.400859  8.980555
1829  1 39.995990 25.400859 11.429797
1830  1 39.995990 25.400859 13.879039
1831  1 39.995990 32.328366  1.632828
1832  1 39.995990 32.328366  4.082070
1833  1 39.995990 32.328366  6.531313
1834  1 39.995990 32.328366  8.980555
1835  1 39.995990 32.328366 11.429797
1836  1 39.995990 32.328366 13.879039
1837  1 39.995990 39.255873  1.632828
1838  1 39.995990 39.255873  4.082070
1839  1 39.995990 39.255873  6.531313
1840  1 39.995990 39.255873  8.980555
1841  1 39.995990 39.255873 11.429797
1842  1 39.995990 39.255873 13.879039
1843  1 39.995990 46.183380  1.632828
1844  1 39.995990 46.183380  4.082070
1845  1 39.995990 46.183380  6.531313
1846  1 39.995990 46.183380  8.980555
1847  1 39.995990 46.183380 11.429797
1848  1 39.995990 46.183380 13.879039
1849  1  0.000000  2.309170  0.816414
1850  1  0.000000  2.309170  3.265656
1851  1  0.000000  2.309170  5.714899
1852  1  0.000000  2.309170  8.164141
1853  1  0.000000  2.309170 10.613383
1854  1  0.000000  2.309170 13.062625
1855  1  0.000000  9.236677  0.816414
1856  1  0.000000  9.236677  3.265656
1857  1  0.000000  9.236677  5.714899
1858  1  0.000000  9.236677  8.164141
1859  1  0.000000  9.236677 10.613383
1860  1  0.000000  9.236677 13.062625
1861  1  0.000000 16.164184  0.816414
1862  1  0.000000 16.164184  3.265656
1863  1  0.000000 16.164184  5.714899
1864  1  0.000000 16.164184  8.164141
1865  1  0.000000 16.164184 10.613383
1866  1  0.000000 16.164184 13.062625
1867  1  0.000000 23.091692  0.816414
1868  1  0.000000 23.091692  3.265656
1869  1  0.000000 23.091692  5.714899
1870  1  0.000000 23.091692  8.164141
1871  1  0.000000 23.091692 10.613383
1872  1  0.000000 23.091692 13.062625
1873  1  0.000000 30.019199  0.816414
1874  1  0.000000 30.019199  3.265656
1875  1  0.000000 30.019199  5.714899
1876  1  0.000000 30.019199  8.164141
1877  1  0.000000 30.019199 10.613383
1878  1  0.000000 30.019199 13.062625
1879  1  0.000000 36.946706  0.816414
1880  1  0.000000 36.946706  3.265656
1881  1  0.000000 36.946706  5.714899
1882  1  0.000000 36.946706  8.164141
1883  1  0.000000 36.946706 10.613383
1884  1  0.000000 36.946706 13.062625
1885  1  0.000000 43.874213  0.816414
1886  1  0.000000 43.874213  3.265656
1887  1  0.000000 43.874213  5.714899
1888  1  0.000000 43.874213  8.164141
1889  1  0.000000 43.874213 10.613383
1890  1  0.000000 43.874213 13.062625
1891  1  3.999599  2.309170  0.816414
1892  1  3.999599  2.309170  3.265656
1893  1  3.999599  2.309170  5.714899
1894  1  3.999599  2.309170  8.164141
1895  1  3.999599  2.309170 10.613383
1896  1  3.999599  2.309170 13.062625
1897  1  3.999599  9.236677  0.816414
1898  1  3.999599  9.236677  3.265656
1899  1  3.999599  9.236677  5.714899
1900  1  3.999599  9.236677  8.164141
1901  1  3.999599  9.236677 10.613383
1902  1  3.999599  9.236677 13.062625
1903  1  3.999599 16.164184  0.816414
1904  1  3.999599 16.164184  3.265656
1905  1  3.999599 16.164184  5.714899
1906  1  3.999599 16.164184  8.164141
1907  1  3.999599 16.164184 10.613383
1908  1  3.999599 16.164184 13.062625
1909  1  3.999599 23.091692  0.816414
1910  1  3.999599 23.091692  3.265656
1911  1  3.999599 23.091692  5.714899
1912  1  3.999599 23.091692  8.164141
1913  1  3.999599 23.091692 10.613383
1914  1  3.999599 23.091692 13.062625
1915  1  3.999599 30.019199  0.816414
1916  1  3.999599 30.019199  3.265656
1917  1  3.999599 30.019199  5.714899
1918  1  3.999599 30.019199  8.164141
1919  1  3.999599 30.019199 10.613383
1920  1  3.999599 30.019199 13.062625
1921  1  3.999599 36.946706  0.816414
1922  1  3.999599 36.946706  3.265656
1923  1  3.999599 36.946706  5.714899
1924  1  3.999599 36.946706  8.164141
1925  1  3.999599 36.946706 10.613383
1926  1  3.999599 36.946706 13.062625
1927  1  3.999599 43.874213  0.816414
1928  1  3.999599 43.874213  3.265656
1929  1  3.999599 43.874213  5.714899
1930  1  3.999599 43.874213  8.164141
1931  1  3.999599 43.874213 10.613383
1932  1  3.999599 43.874213 13.062625
1933  1  7.999198  2.309170  0.816414
1934  1  7.999198  2.309170  3.265656
1935  1  7.999198  2.309170  5.714899
1936  1  7.999198  2.309170  8.164141
1937  1  7.999198  2.309170 10.613383
1938  1  7.999198  2.309170 13.062625
1939  1  7.999198  9.236677  0.816414
1940  1  7.999198  9.236677  3.265656
1941  1  7.999198  9.236677  5.714899
1942  1  7.999198  9.236677  8.164141
1943  1  7.999198  9.236677 10.613383
1944  1  7.999198  9.236677 13.062625
1945  1  7.999198 16.164184  0.816414
1946  1  7.999198 16.164184  3.265656
1947  1  7.999198 16.164184  5.714899
1948  1  7.999198 16.164184  8.164141
1949  1  7.999198 16.164184 10.613383
1950  1  7.999198 16.164184 13.062625
1951  1  7.999198 23.091692  0.816414
1952  1  7.999198 23.091692  3.265656
1953  1  7.999198 23.091692  5.714899
1954  1  7.999198 23.091692  8.164141
1955  1  7.999198 23.091692 10.613383
1956  1  7.999198 23.091692 13.062625
1957  1  7.999198 30.019199  0.816414
1958  1  7.999198 30.019199  3.265656
1959  1  7.999198 30.019199  5.714899
1960  1  7.999198 30.019199  8.164141
1961  1  7.999198 30.019199 10.613383
1962  1  7.999198 30.019199 13.062625
1963  1  7.999198 36.946706  0.816414
1964  1  7.999198 36.946706  3.265656
1965  1  7.999198 36.946706  5.714899
1966  1  7.999198 36.946706  8.164141
1967  1  7.999198 36.946706 10.613383
1968  1  7.999198 36.946706 13.062625
1969  1  7.999198 43.874213  0.816414
1970  1  7.999198 43.874213  3.265656
1971  1  7.999198 43.874213  5.714899
1972  1  7.999198 43.874213  8.164141
1973  1  7.999198 43.874213 10.613383
1974  1  7.999198 43.874213 13.062625
1975  1 11.998797  2.309170  0.816414
1976  1 11.998797  2.309170  3.265656
1977  1 11.998797  2.309170  5.714899
1978  1 11.998797  2.309170  8.164141
1979  1 11.998797  2.309170 10.613383
1980  1 11.998797  2.309170 13.062625
1981  1 11.998797  9.236677  0.816414
1982  1 11.998797  9.236677  3.265656
1983  1 11.998797  9.236677  5.714899
1984  1 11.998797  9.236677  8.164141
1985  1 11.998797  9.236677 10.613383
1986  1 11.998797  9.236677 13.062625
1987  1 11.998797 16.164184  0.816414
1988  1 11.998797 16.164184  3.265656
1989  1 11.998797 16.164184  5.714899
1990  1 11.998797 16.164184  8.164141
1991  1 11.998797 16.164184 10.613383
1992  1 11.998797 16.164184 13.062625
1993  1 11.998797 23.091692  0.816414
1994  1 11.998797 23.091692  3.265656
1995  1 11.998797 23.091692  5.714899
1996  1 11.998797 23.091692  8.164141
1997  1 11.998797 23.091692 10.613383
1998  1 11.998797 23.091692 13.062625
1999  1 11.998797 30.019199  0.816414
2000  1 11.998797 30.019199  3.265656
2001  1 11.998797 30.019199  5.714899
2002  1 11.998797 30.019199  8.164141
2003  1 11.998797 30.019199 10.613383
2004  1 11.998797 30.019199 13.062625
2005  1 11.998797 36.946706  0.816414
2006  1 11.998797 36.946706  3.265656
2007  1 11.998797 36.946706  5.714899
2008  1 11.998797 36.946706  8.164141
2009  1 11.998797 36.946706 10.613383
2010  1 11.998797 36.946706 13.062625
2011  1 11.998797 43.874213  0.816414
2012  1 11.998797 43.874213  3.265656
2013  1 11.998797 43.874213  5.714899
2014  1 11.998797 43.874213  8.164141
2015  1 11.998797 43.874213 10.613383
2016  1 11.998797 43.874213 13.062625
2017  1 15.998396  2.309170  0.816414
2018  1 15.998396  2.309170  3.265656
2019  1 15.998396  2.309170  5.714899
2020  1 15.998396  2.309170  8.164141
2021  1 15.998396  2.309170 10.613383
2022  1 15.998396  2.309170 13.062625
2023  1 15.998396  9.236677  0.816414
2024  1 15.998396  9.236677  3.265656
2025  1 15.998396  9.236677  5.714899
2026  1 15.998396  9.236677  8.164141
2027  1 15.998396  9.236677 10.613383
2028  1 15.998396  9.236677 13.062625
2029  1 15.998396 16.164184  0.816414
2030  1 15.998396 16.164184  3.265656
2031  1 15.998396 16.164184  5.714899
2032  1 15.998396 16.164184  8.164141
2033  1 15.998396 16.164184 10.613383
2034  1 15.998396 16.164184 13.062625
2035  1 15.998396 23.091692  0.816414
2036  1 15.998396 23.091692  3.265656
2037  1 15.998396 23.091692  5.714899
2038  1 15.998396 23.091692  8.164141
2039  1 15.998396 23.091692 10.613383
2040  1 15.998396 23.091692 13.062625
2041  1 15.998396 30.019199  0.816414
2042  1 15.998396 30.019199  3.265656
2043  1 15.998396 30.019199  5.714899
2044  1 15.998396 30.019199  8.164141
2045  1 15.998396 30.019199 10.613383
2046  1 15.998396 30.019199 13.062625
2047  1 15.998396 36.946706  0.816414
2048  1 15.998396 36.946706  3.265656
2049  1 15.998396 36.946706  5.714899
2050  1 15.998396 36.946706  8.164141
2051  1 15.998396 36.946706 10.613383
2052  1 15.998396 36.946706 13.062625
2053  1 15.998396 43.874213  0.816414
2054  1 15.998396 43.874213  3.265656
2055  1 15.998396 43.874213  5.714899
2056  1 15.998396 43.874213  8.164141
2057  1 15.998396 43.874213 10.613383
2058  1 15.998396 43.874213 13.062625
2059  1 19.997995  2.309170  0.816414
2060  1 19.997995  2.309170  3.265656
2061  1 19.997995  2.309170  5.714899
2062  1 19.997995  2.309170  8.164141
2063  1 19.997995  2.309170 10.613383
2064  1 19.997995  2.309170 13.062625
2065  1 19.997995  9.236677  0.816414
2066  1 19.997995  9.236677  3.265656
2067  1 19.997995  9.236677  5.714899
2068  1 19.997995  9.236677  8.164141
2069  1 19.997995  9.236677 10.613383
2070  1 19.997995  9.236677 13.062625
2071  1 19.997995 16.164184  0.816414
2072  1 19.997995 16.164184  3.265656
2073  1 19.997995 16.164184  5.714899
2074  1 19.997995 16.164184  8.164141
2075  1 19.997995 16.164184 10.613383
2076  1 19.997995 16.164184 13.062625
2077  1 19.997995 23.091692  0.816414
2078  1 19.997995 23.091692  3.265656
2079  1 19.997995 23.091692  5.714899
2080  1 19.997995 23.091692  8.164141
2081  1 19.997995 23.091692 10.613383
2082  1 19.997995 23.091692 13.062625
2083  1 19.997995 30.019199  0.816414
2084  1 19.997995 30.019199  3.265656
2085  1 19.997995 30.019199  5.714899
2086  1 19.997995 30.019199  8.164141
2087  1 19.997995 30.019199 10.613383
2088  1 19.997995 30.019199 13.062625
2089  1 19.997995 36.946706  0.816414
2090  1 19.997995 36.946706  3.265656
2091  1 19.997995 36.946706  5.714899
2092  1 19.997995 36.946706  8.164141
2093  1 19.997995 36.946706 10.613383
2094  1 19.997995 36.946706 13.062625
2095  1 19.997995 43.874213  0.816414
2096  1 19.997995 43.874213  3.265656
2097  1 19.997995 43.874213  5.714899
2098  1 19.997995 43.874213  8.164141
2099  1 19.997995 43.874213 10.613383
2100  1 19.997995 43.874213 13.062625
2101  1 23.997594  2.309170  0.816414
2102  1 23.997594  2.309170  3.265656
2103  1 23.997594  2.309170  5.714899
2104  1 23.997594  2.309170  8.164141
2105  1 23.997594  2.309170 10.613383
2106  1 23.997594  2.309170 13.062625
2107  1 23.997594  9.236677  0.816414
2108  1 23.997594  9.236677  3.265656
2109  1 23.997594  9.236677  5.714899
2110  1 23.997594  9.236677  8.164141
2111  1 23.997594  9.236677 10.613383
2112  1 23.997594  9.236677 13.062625
2113  1 23.997594 16.164184  0.816414
2114  1 23.997594 16.164184  3.265656
2115  1 23.997594 16.164184  5.714899
2116  1 23.997594 16.164184  8.164141
2117  1 23.997594 16.164184 10.613383
2118  1 23.997594 16.164184 13.062625
2119  1 23.997594 23.091692  0.816414
2120  1 23.997594 23.091692  3.265656
2121  1 23.997594 23.091692  5.714899
2122  1 23.997594 23.091692  8.164141
2123  1 23.997594 23.091692 10.613383
2124  1 23.997594 23.091692 13.062625
2125  1 23.997594 30.019199  0.816414
2126  1 23.997594 30.019199  3.265656
2127  1 23.997594 30.019199  5.714899
2128  1 23.997594 30.019199  8.164141
2129  1 23.997594 30.019199 10.613383
2130  1 23.997594 30.019199 13.062625
2131  1 23.997594 36.946706  0.816414
2132  1 23.997594 36.946706  3.265656
2133  1 23.997594 36.946706  5.714899
2134  1 23.997594 36.946706  8.164141
2135  1 23.997594 36.946706 10.613383
2136  1 23.997594 36.946706 13.062625
2137  1 23.997594 43.874213  0.816414
2138  1 23.997594 43.874213  3.265656
2139  1 23.997594 43.874213  5.714899
2140  1 23.997594 43.874213  8.164141
2141  1 23.997594 43.874213 10.613383
2142  1 23.997594 43.874213 13.062625
2143  1 27.997193  2.309170  0.816414
2144  1 27.997193  2.309170  3.265656
2145  1 27.997193  2.309170  5.714899
2146  1 27.997193  2.309170  8.164141
2147  1 27.997193  2.309170 10.613383
2148  1 27.997193  2.309170 13.062625
2149  1 27.997193  9.236677  0.816414
2150  1 27.997193  9.236677  3.265656
2151  1 27.997193  9.236677  5.714899
2152  1 27.997193  9.236677  8.164141
2153  1 27.997193  9.236677 10.613383
2154  1 27.997193  9.236677 13.062625
2155  1 27.997193 16.164184  0.816414
2156  1 27.997193 16.164184  3.265656
2157  1 27.997193 16.164184  5.714899
2158  1 27.997193 16.164184  8.164141
2159  1 27.997193 16.164184 10.613383
2160  1 27.997193 16.164184 13.062625
2161  1 27.997193 23.091692  0.816414
2162  1 27.997193 23.091692  3.265656
2163  1 27.997193 23.091692  5.714899
2164  1 27.997193 23.091692  8.164141
2165  1 27.997193 23.091692 10.613383
2166  1 27.997193 23.091692 13.062625
2167  1 27.997193 30.019199  0.816414
2168  1 27.997193 30.019199  3.265656
2169  1 27.997193 30.019199  5.714899
2170  1 27.997193 30.019199  8.164141
2171  1 27.997193 30.019199 10.613383
2172  1 27.997193 30.019199 13.062625
2173  1 27.997193 36.946706  0.816414
2174  1 27.997193 36.946706  3.265656
2175  1 27.997193 36.946706  5.714899
2176  1 27.997193 36.946706  8.164141
2177  1 27.997193 36.946706 10.613383
2178  1 27.997193 36.946706 13.062625
2179  1 27.997193 43.874213  0.816414
2180  1 27.997193 43.874213  3.265656
2181  1 27.997193 43.874213  5.714899
2182  1 27.997193 43.874213  8.164141
2183  1 27.997193 43.874213 10.613383
2184  1 27.997193 43.874213 13.062625
2185  1 31.996792  2.309170  0.816414
2186  1 31.996792  2.309170  3.265656
2187  1 31.996792  2.309170  5.714899
2188  1 31.996792  2.309170  8.164141
2189  1 31.996792  2.309170 10.613383
2190  1 31.996792  2.309170 13.062625
2191  1 31.996792  9.236677  0.816414
2192  1 31.996792  9.236677  3.265656
2193  1 31.996792  9.236677  5.714899
2194  1 31.996792  9.236677  8.164141
2195  1 31.996792  9.236677 10.613383
2196  1 31.996792  9.236677 13.062625
2197  1 31.996792 16.164184  0.816414
2198  1 31.996792 16.164184  3.265656
2199  1 31.996792 16.164184  5.714899
2200  1 31.996792 16.164184  8.164141
2201  1 31.996792 16.164184 10.613383
2202  1 31.996792 16.164184 13.062625
2203  1 31.996792 23.091692  0.816414
2204  1 31.996792 23.091692  3.265656
2205  1 31.996792 23.091692  5.714899
2206  1 31.996792 23.091692  8.164141
2207  1 31.996792 23.091692 10.613383
2208  1 31.996792 23.091692 13.062625
2209  1 31.996792 30.019199  0.816414
2210  1 31.996792 30.019199  3.265656
2211  1 31.996792 30.019199  5.714899
2212  1 31.996792 30.019199  8.164141
2213  1 31.996792 30.019199 10.613383
2214  1 31.996792 30.019199 13.062625
2215  1 31.996792 36.946706  0.816414
2216  1 31.996792 36.946706  3.265656
2217  1 31.996792 36.946706  5.714899
2218  1 31.996792 36.946706  8.164141
2219  1 31.996792 36.946706 10.613383
2220  1 31.996792 36.946706 13.062625
2221  1 31.996792 43.874213  0.816414
2222  1 31.996792 43.874213  3.265656
2223  1 31.996792 43.874213  5.714899
2224  1 31.996792 43.874213  8.164141
2225  1 31.996792 43.874213 10.613383
2226  1 31.996792 43.874213 13.062625
2227  1 35.996391  2.309170  0.816414
2228  1 35.996391  2.309170  3.265656
2229  1 35.996391  2.309170  5.714899
2230  1 35.996391  2.309170  8.164141
2231  1 35.996391  2.309170 10.613383
2232  1 35.996391  2.309170 13.062625
2233  1 35.996391  9.236677  0.816414
2234  1 35.996391  9.236677  3.265656
2235  1 35.996391  9.236677  5.714899
2236  1 35.996391  9.236677  8.164141
2237  1 35.996391  9.236677 10.613383
2238  1 35.996391  9.236677 13.062625
2239  1 35.996391 16.164184  0.816414
2240  1 35.996391 16.164184  3.265656
2241  1 35.996391 16.164184  5.714899
2242  1 35.996391 16.164184  8.164141
2243  1 35.996391 16.164184 10.613383
2244  1 35.996391 16.164184 13.062625
2245  1 35.996391 23.091692  0.816414
2246  1 35.996391 23.091692  3.265656
2247  1 35.996391 23.091692  5.714899
2248  1 35.996391 23.091692  8.164141
2249  1 35.996391 23.091692 10.613383
2250  1 35.996391 23.091692 13.062625
2251  1 35.996391 30.019199  0.816414
2252  1 35.996391 30.019199  3.265656
2253  1 35.996391 30.019199  5.714899
2254  1 35.996391 30.019199  8.164141
2255  1 35.996391 30.019199 10.613383
2256  1 35.996391 30.019199 13.062625
2257  1 35.996391 36.946706  0.816414
2258  1 35.996391 36.946706  3.265656
2259  1 35.996391 36.946706  5.714899
2260  1 35.996391 36.946706  8.164141
2261  1 35.996391 36.946706 10.613383
2262  1 35.996391 36.946706 13.062625
2263  1 35.996391 43.874213  0.816414
2264  1 35.996391 43.874213  3.265656
2265  1 35.996391 43.874213  5.714899
2266  1 35.996391 43.874213  8.164141
2267  1 35.996391 43.874213 10.613383
2268  1 35.996391 43.874213 13.062625
2269  1 39.995990  2.309170  0.816414
2270  1 39.995990  2.309170  3.265656
2271  1 39.995990  2.309170  5.714899
2272  1 39.995990  2.309170  8.164141
2273  1 39.995990  2.309170 10.613383
2274  1 39.995990  2.309170 13.062625
2275  1 39.995990  9.236677  0.816414
2276  1 39.995990  9.236677  3.265656
2277  1 39.995990  9.236677  5.714899
2278  1 39.995990  9.236677  8.164141
2279  1 39.995990  9.236677 10.613383
2280  1 39.995990  9.236677 13.062625
2281  1 39.995990 16.164184  0.816414
2282  1 39.995990 16.164184  3.265656
2283  1 39.995990 16.164184  5.714899
2284  1 39.995990 16.164184  8.164141
2285  1 39.995990 16.164184 10.613383
2286  1 39.995990 16.164184 13.062625
2287  1 39.995990 23.091692  0.816414
2288  1 39.995990 23.091692  3.265656
2289  1 39.995990 23.091692  5.714899
2290  1 39.995990 23.091692  8.164141
2291  1 39.995990 23.091692 10.613383
2292  1 39.995990 23.091692 13.062625
2293  1 39.995990 30.019199  0.816414
2294  1 39.995990 30.019199  3.265656
2295  1 39.995990 30.019199  5.714899
2296  1 39.995990 30.019199  8.164141
2297  1 39.995990 30.019199 10.613383
2298  1 39.995990 30.019199 13.062625
2299  1 39.995990 36.946706  0.816414
2300  1 39.995990 36.946706  3.265656
2301  1 39.995990 36.946706  5.714899
2302  1 39.995990 36.946706  8.164141
2303  1 39.995990 36.946706 10.613383
2304  1 39.995990 36.946706 13.062625
2305  1 39.995990 43.874213  0.816414
2306  1 39.995990 43.874213  3.265656
2307  1 39.995990 43.874213  5.714899
2308  1 39.995990 43.874213  8.164141
2309  1 39.995990 43.874213 10.613383
2310  1 39.995990 43.874213 13.062625
2311  1  1.999799  5.772921  0.816414
2312  1  1.999799  5.772921  3.265656
2313  1  1.999799  5.772921  5.714899
2314  1  1.999799  5.772921  8.164141
2315  1  1.999799  5.772921 10.613383
2316  1  1.999799  5.772921 13.062625
2317  1  1.999799 12.700428  0.816414
2318  1  1.999799 12.700428  3.265656
2319  1  1.999799 12.700428  5.714899
2320  1  1.999799 12.700428  8.164141
2321  1  1.999799 12.700428 10.613383
2322  1  1.999799 12.700428 13.062625
2323  1  1.999799 19.627935  0.816414
2324  1  1.999799 19.627935  3.265656
2325  1  1.999799 19.627935  5.714899
2326  1  1.999799 19.627935  8.164141
2327  1  1.999799 19.627935 10.613383
2328  1  1.999799 19.627935 13.062625
2329  1  1.999799 26.555442  0.816414
2330  1  1.999799 26.555442  3.265656
2331  1  1.999799 26.555442  5.714899
2332  1  1.999799 26.555442  8.164141
2333  1  1.999799 26.555442 10.613383
2334  1  1.999799 26.555442 13.062625
2335  1  1.999799 33.482950  0.816414
2336  1  1.999799 33.482950  3.265656
2337  1  1.999799 33.482950  5.714899
2338  1  1.999799 33.482950  8.164141
2339  1  1.999799 33.482950 10.613383
2340  1  1.999799 33.482950 13.062625
2341  1  1.999799 40.410457  0.816414
2342  1  1.999799 40.410457  3.265656
2343  1  1.999799 40.410457  5.714899
2344  1  1.999799 40.410457  8.164141
2345  1  1.999799 40.410457 10.613383
2346  1  1.999799 40.410457 13.062625
2347  1  1.999799 47.337964  0.816414
2348  1  1.999799 47.337964  3.265656
2349  1  1.999799 47.337964  5.714899
2350  1  1.999799 47.337964  8.164141
2351  1  1.999799 47.337964 10.613383
2352  1  1.999799 47.337964 13.062625
2353  1  5.999398  5.772921  0.816414
2354  1  5.999398  5.772921  3.265656
2355  1  5.999398  5.772921  5.714899
2356  1  5.999398  5.772921  8.164141
2357  1  5.999398  5.772921 10.613383
2358  1  5.999398  5.772921 13.062625
2359  1  5.999398 12.700428  0.816414
2360  1  5.999398 12.700428  3.265656
2361  1  5.999398 12.700428  5.714899
2362  1  5.999398 12.700428  8.164141
2363  1  5.999398 12.700428 10.613383
2364  1  5.999398 12.700428 13.062625
2365  1  5.999398 19.627935  0.816414
2366  1  5.999398 19.627935  3.265656
2367  1  5.999398 19.627935  5.714899
2368  1  5.999398 19.627935  8.164141
2369  1  5.999398 19.627935 10.613383
2370  1  5.999398 19.627935 13.062625
2371  1  5.999398 26.555442  0.816414
2372  1  5.999398 26.555442  3.265656
2373  1  5.999398 26.555442  5.714899
2374  1  5.999398 26.555442  8.164141
2375  1  5.999398 26.555442 10.613383
2376  1  5.999398 26.555442 13.062625
2377  1  5.999398 33.482950  0.816414
2378  1  5.999398 33.482950  3.265656
2379  1  5.999398 33.482950  5.714899
2380  1  5.999398 33.482950  8.164141
2381  1  5.999398 33.482950 10.613383
2382  1  5.999398 33.482950 13.062625
2383  1  5.999398 40.410457  0.816414
2384  1  5.999398 40.410457  3.265656
2385  1  5.999398 40.410457  5.714899
2386  1  5.999398 40.410457  8.164141
2387  1  5.999398 40.410457 10.613383
2388  1  5.999398 40.410457 13.062625
2389  1  5.999398 47.337964  0.816414
2390  1  5.999398 47.337964  3.265656
2391  1  5.999398 47.337964  5.714899
2392  1  5.999398 47.337964  8.164141
2393  1  5.999398 47.337964 10.613383
2394  1  5.999398 47.337964 13.062625
2395  1  9.998997  5.772921  0.816414
2396  1  9.998997  5.772921  3.265656
2397  1  9.998997  5.772921  5.714899
2398  1  9.998997  5.772921  8.164141
2399  1  9.998997  5.772921 10.613383
2400  1  9.998997  5.772921 13.062625
2401  1  9.998997 12.700428  0.816414
2402  1  9.998997 12.700428  3.265656
2403  1  9.998997 12.700428  5.714899
2404  1  9.998997 12.700428  8.164141
2405  1  9.998997 12.700428 10.613383
2406  1  9.998997 12.700428 13.062625
2407  1  9.998997 19.627935  0.816414
2408  1  9.998997 19.627935  3.265656
2409  1  9.998997 19.627935  5.714899
2410  1  9.998997 19.627935  8.164141
2411  1  9.998997 19.627935 10.613383
2412  1  9.998997 19.627935 13.062625
2413  1  9.998997 26.555442  0.816414
2414  1  9.998997 26.555442  3.265656
2415  1  9.998997 26.555442  5.714899
2416  1  9.998997 26.555442  8.164141
2417  1  9.998997 26.555442 10.613383
2418  1  9.998997 26.555442 13.062625
2419  1  9.998997 33.482950  0.816414
2420  1  9.998997 33.482950  3.265656
2421  1  9.998997 33.482950  5.714899
2422  1  9.998997 33.482950  8.164141
2423  1  9.998997 33.482950 10.613383
2424  1  9.998997 33.482950 13.062625
2425  1  9.998997 40.410457  0.816414
2426  1  9.998997 40.410457  3.265656
2427  1  9.998997 40.410457  5.714899
2428  1  9.998997 40.410457  8.164141
2429  1  9.998997 40.410457 10.613383
2430  1  9.998997 40.410457 13.062625
2431  1  9.998997 47.337964  0.816414
2432  1  9.998997 47.337964  3.265656
2433  1  9.998997 47.337964  5.714899
2434  1  9.998997 47.337964  8.164141
2435  1  9.998997 47.337964 10.613383
2436  1  9.998997 47.337964 13.062625
2437  1 13.998596  5.772921  0.816414
2438  1 13.998596  5.772921  3.265656
2439  1 13.998596  5.772921  5.714899
2440  1 13.998596  5.772921  8.164141
2441  1 13.998596  5.772921 10.613383
2442  1 13.998596  5.772921 13.062625
2443  1 13.998596 12.700428  0.816414
2444  1 13.998596 12.700428  3.265656
2445  1 13.998596 12.700428  5.714899
2446  1 13.998596 12.700428  8.164141
2447  1 13.998596 12.700428 10.613383
2448  1 13.998596 12.700428 13.062625
2449  1 13.998596 19.627935  0.816414
2450  1 13.998596 19.627935  3.265656
2451  1 13.998596 19.627935  5.714899
2452  1 13.998596 19.627935  8.164141
2453  1 13.998596 19.627935 10.613383
2454  1 13.998596 19.627935 13.062625
2455  1 13.998596 26.555442  0.816414
2456  1 13.998596 26.555442  3.265656
2457  1 13.998596 26.555442  5.714899
2458  1 13.998596 26.555442  8.164141
2459  1 13.998596 26.555442 10.613383
2460  1 13.998596 26.555442 13.062625
2461  1 13.998596 33.482950  0.816414
2462  1 13.998596 33.482950  3.265656
2463  1 13.998596 33.482950  5.714899
2464  1 13.998596 33.482950  8.164141
2465  1 13.998596 33.482950 10.613383
2466  1 13.998596 33.482950 13.062625
2467  1 13.998596 40.410457  0.816414
2468  1 13.998596 40.410457  3.265656
2469  1 13.998596 40.410457  5.714899
2470  1 13.998596 40.410457  8.164141
2471  1 13.998596 40.410457 10.613383
2472  1 13.998596 40.410457 13.062625
2473  1 13.998596 47.337964  0.816414
2474  1 13.998596 47.337964  3.265656
2475  1 13.998596 47.337964  5.714899
2476  1 13.998596 47.337964  8.164141
2477  1 13.998596 47.337964 10.613383
2478  1 13.998596 47.337964 13.062625
2479  1 17.998195  5.772921  0.816414
2480  1 17.998195  5.772921  3.265656
2481  1 17.998195  5.772921  5.714899
2482  1 17.998195  5.772921  8.164141
2483  1 17.998195  5.772921 10.613383
2484  1 17.998195  5.772921 13.062625
2485  1 17.998195 12.700428  0.816414
2486  1 17.998195 12.700428  3.265656
2487  1 17.998195 12.700428  5.714899
2488  1 17.998195 12.700428  8.164141
2489  1 17.998195 12.700428 10.613383
2490  1 17.998195 12.700428 13.062625
2491  1 17.998195 19.627935  0.816414
2492  1 17.998195 19.627935  3.265656
2493  1 17.998195 19.627935  5.714899
2494  1 17.998195 19.627935  8.164141
2495  1 17.998195 19.627935 10.613383
2496  1 17.998195 19.627935 13.062625
2497  1 17.998195 26.555442  0.816414
2498  1 17.998195 26.555442  3.265656
2499  1 17.998195 26.555442  5.714899
2500  1 17.998195 26.555442  8.164141
2501  1 17.998195 26.555442 10.613383
2502  1 17.998195 26.555442 13.062625
2503  1 17.998195 33.482950  0.816414
2504  1 17.998195 33.482950  3.265656
2505  1 17.998195 33.482950  5.714899
2506  1 17.998195 33.482950  8.164141
2507  1 17.998195 33.482950 10.613383
2508  1 17.998195 33.482950 13.062625
2509  1 17.998195 40.410457  0.816414
2510  1 17.998195 40.410457  3.265656
2511  1 17.998195 40.410457  5.714899
2512  1 17.998195 40.410457  8.164141
2513  1 17.998195 40.410457 10.613383
2514  1 17.998195 40.410457 13.062625
2515  1 17.998195 47.337964  0.816414
2516  1 17.998195 47.337964  3.265656
2517  1 17.998195 47.337964  5.714899
2518  1 17.998195 47.337964  8.164141
2519  1 17.998195 47.337964 10.613383
2520  1 17.998195 47.337964 13.062625
2521  1 21.997794  5.772921  0.816414
2522  1 21.997794  5.772921  3.265656
2523  1 21.997794  5.772921  5.714899
2524  1 21.997794  5.772921  8.164141
2525  1 21.997794  5.772921 10.613383
2526  1 21.997794  5.772921 13.062625
2527  1 21.997794 12.700428  0.816414
2528  1 21.997794 12.700428  3.265656
2529  1 21.997794 12.700428  5.714899
2530  1 21.997794 12.700428  8.164141
2531  1 21.997794 12.700428 10.613383
2532  1 21.997794 12.700428 13.062625
2533  1 21.997794 19.627935  0.816414
2534  1 21.997794 19.627935  3.265656
2535  1 21.997794 19.627935  5.714899
2536  1 21.997794 19.627935  8.164141
2537  1 21.997794 19.627935 10.613383
2538  1 21.997794 19.627935 13.062625
2539  1 21.997794 26.555442  0.816414
2540  1 21.997794 26.555442  3.265656
2541  1 21.997794 26.555442  5.714899
2542  1 21.997794 26.555442  8.164141
2543  1 21.997794 26.555442 10.613383
2544  1 21.997794 26.555442 13.062625
2545  1 21.997794 33.482950  0.816414
2546  1 21.997794 33.482950  3.265656
2547  1 21.997794 33.482950  5.714899
2548  1 21.997794 33.482950  8.164141
2549  1 21.997794 33.482950 10.613383
2550  1 21.997794 33.482950 13.062625
2551  1 21.997794 40.410457  0.816414
2552  1 21.997794 40.410457  3.265656
2553  1 21.997794 40.410457  5.714899
2554  1 21.997794 40.410457  8.164141
2555  1 21.997794 40.410457 10.613383
2556  1 21.997794 40.410457 13.062625
2557  1 21.997794 47.337964  0.816414
2558  1 21.997794 47.337964  3.265656
2559  1 21.997794 47.337964  5.714899
2560  1 21.997794 47.337964  8.164141
2561  1 21.997794 47.337964 10.613383
2562  1 21.997794 47.337964 13.062625
2563  1 25.997393  5.772921  0.816414
2564  1 25.997393  5.772921  3.265656
2565  1 25.997393  5.772921  5.714899
2566  1 25.997393  5.772921  8.164141
2567  1 25.997393  5.772921 10.613383
2568  1 25.997393  5.772921 13.062625
2569  1 25.997393 12.700428  0.816414
2570  1 25.997393 12.700428  3.265656
2571  1 25.997393 12.700428  5.714899
2572  1 25.997393 12.700428  8.164141
2573  1 25.997393 12.700428 10.613383
2574  1 25.997393 12.700428 13.062625
2575  1 25.997393 19.627935  0.816414
2576  1 25.997393 19.627935  3.265656
2577  1 25.997393 19.627935  5.714899
2578  1 25.997393 19.627935  8.164141
2579  1 25.997393 19.627935 10.613383
2580  1 25.997393 19.627935 13.062625
2581  1 25.997393 26.555442  0.816414
2582  1 25.997393 26.555442  3.265656
2583  1 25.997393 26.555442  5.714899
2584  1 25.997393 26.555442  8.164141
2585  1 25.997393 26.555442 10.613383
2586  1 25.997393 26.555442 13.062625
2587  1 25.997393 33.482950  0.816414
2588  1 25.997393 33.482950  3.265656
2589  1 25.997393 33.482950  5.714899
2590  1 25.997393 33.482950  8.164141
2591  1 25.997393 33.482950 10.613383
2592  1 25.997393 33.482950 13.062625
2593  1 25.997393 40.410457  0.816414
2594  1 25.997393 40.410457  3.265656
2595  1 25.997393 40.410457  5.714899
2596  1 25.997393 40.410457  8.164141
2597  1 25.997393 40.410457 10.613383
2598  1 25.997393 40.410457 13.062625
2599  1 25.997393 47.337964  0.816414
2600  1 25.997393 47.337964  3.265656
2601  1 25.997393 47.337964  5.714899
2602  1 25.997393 47.337964  8.164141
2603  1 25.997393 47.337964 10.613383
2604  1 25.997393 47.337964 13.062625
2605  1 29.996992  5.772921  0.816414
2606  1 29.996992  5.772921  3.265656
2607  1 29.996992  5.772921  5.714899
2608  1 29.996992  5.772921  8.164141
2609  1 29.996992  5.772921 10.613383
2610  1 29.996992  5.772921 13.062625
2611  1 29.996992 12.700428  0.816414
2612  1 29.996992 12.700428  3.265656
2613  1 29.996992 12.700428  5.714899
2614  1 29.996992 12.700428  8.164141
2615  1 29.996992 12.700428 10.613383
2616  1 29.996992 12.700428 13.062625
2617  1 29.996992 19.627935  0.816414
2618  1 29.996992 19.627935  3.265656
2619  1 29.996992 19.627935  5.714899
2620  1 29.996992 19.627935  8.164141
2621  1 29.996992 19.627935 10.613383
2622  1 29.996992 19.627935 13.062625
2623  1 29.996992 26.555442  0.816414
2624  1 29.996992 26.555442  3.265656
2625  1 29.996992 26.555442  5.714899
2626  1 29.996992 26.555442  8.164141
2627  1 29.996992 26.555442 10.613383
2628  1 29.996992 26.555442 13.062625
2629  1 29.996992 33.482950  0.816414
2630  1 29.996992 33.482950  3.265656
2631  1 29.996992 33.482950  5.714899
2632  1 29.996992 33.482950  8.164141
2633  1 29.996992 33.482950 10.613383
2634  1 29.996992 33.482950 13.062625
2635  1 29.996992 40.410457  0.816414
2636  1 29.996992 40.410457  3.265656
2637  1 29.996992 40.410457  5.714899
2638  1 29.996992 40.410457  8.164141
2639  1 29.996992 40.410457 10.613383
2640  1 29.996992 40.410457 13.062625
2641  1 29.996992 47.337964  0.816414
2642  1 29.996992 47.337964  3.265656
2643  1 29.996992 47.337964  5.714899
2644  1 29.996992 47.337964  8.164141
2645  1 29.996992 47.337964 10.613383
2646  1 29.996992 47.337964 13.062625
2647  1 33.996591  5.772921  0.816414
2648  1 33.996591  5.772921  3.265656
2649  1 33.996591  5.772921  5.714899
2650  1 33.996591  5.772921  8.164141
2651  1 33.996591  5.772921 10.613383
2652  1 33.996591  5.772921 13.062625
2653  1 33.996591 12.700428  0.816414
2654  1 33.996591 12.700428  3.265656
2655  1 33.996591 12.700428  5.714899
2656  1 33.996591 12.700428  8.164141
2657  1 33.996591 12.700428 10.613383
2658  1 33.996591 12.700428 13.062625
2659  1 33.996591 19.627935  0.816414
2660  1 33.996591 19.627935  3.265656
2661  1 33.996591 19.627935  5.714899
2662  1 33.996591 19.627935  8.164141
2663  1 33.996591 19.627935 10.613383
2664  1 33.996591 19.627935 13.062625
2665  1 33.996591 26.555442  0.816414
2666  1 33.996591 26.555442  3.265656
2667  1 33.996591 26.555442  5.714899
2668  1 33.996591 26.555442  8.164141
2669  1 33.996591 26.555442 10.613383
2670  1 33.996591 26.555442 13.062625
2671  1 33.996591 33.482950  0.816414
2672  1 33.996591 33.482950  3.265656
2673  1 33.996591 33.482950  5.714899
2674  1 33.996591 33.482950  8.164141
2675  1 33.996591 33.482950 10.613383
2676  1 33.996591 33.482950 13.062625
2677  1 33.996591 40.410457  0.816414
2678  1 33.996591 40.410457  3.265656
2679  1 33.996591 40.410457  5.714899
2680  1 33.996591 40.410457  8.164141
2681  1 33.996591 40.410457 10.613383
2682  1 33.996591 40.410457 13.062625
2683  1 33.996591 47.337964  0.816414
2684  1 33.996591 47.337964  3.265656
2685  1 33.996591 47.337964  5.714899
2686  1 33.996591 47.337964  8.164141
2687  1 33.996591 47.337964 10.613383
2688  1 33.996591 47.337964 13.062625
2689  1 37.996190  5.772921  0.816414
2690  1 37.996190  5.772921  3.265656
2691  1 37.996190  5.772921  5.714899
2692  1 37.996190  5.772921  8.164141
2693  1 37.996190  5.772921 10.613383
2694  1 37.996190  5.772921 13.062625
2695  1 37.996190 12.700428  0.816414
2696  1 37.996190 12.700428  3.265656
2697  1 37.996190 12.700428  5.714899
2698  1 37.996190 12.700428  8.164141
2699  1 37.996190 12.700428 10.613383
2700  1 37.996190 12.700428 13.062625
2701  1 37.996190 19.627935  0.816414
2702  1 37.996190 19.627935  3.265656
2703  1 37.996190 19.627935  5.714899
2704  1 37.996190 19.627935  8.164141
2705  1 37.996190 19.627935 10.613383
2706  1 37.996190 19.627935 13.062625
2707  1 37.996190 26.555442  0.816414
2708  1 37.996190 26.555442  3.265656
2709  1 37.996190 26.555442  5.714899
2710  1 37.996190 26.555442  8.164141
2711  1 37.996190 26.555442 10.613383
2712  1 37.996190 26.555442 13.062625
2713  1 37.996190 33.482950  0.816414
2714  1 37.996190 33.482950  3.265656
2715  1 37.996190 33.482950  5.714899
2716  1 37.996190 33.482950  8.164141
2717  1 37.996190 33.482950 10.613383
2718  1 37.996190 33.482950 13.062625
2719  1 37.996190 40.410457  0.816414
2720  1 37.996190 40.410457  3.265656
2721  1 37.996190 40.410457  5.714899
2722  1 37.996190 40.410457  8.164141
2723  1 37.996190 40.410457 10.613383
2724  1 37.996190 40.410457 13.062625
2725  1 37.996190 47.337964  0.816414
2726  1 37.996190 47.337964  3.265656
2727  1 37.996190 47.337964  5.714899
2728  1 37.996190 47.337964  8.164141
2729  1 37.996190 47.337964 10.613383
2730  1 37.996190 47.337964 13.062625
2731  1 41.995789  5.772921  0.816414
2732  1 41.995789  5.772921  3.265656
2733  1 41.995789  5.772921  5.714899
2734  1 41.995789  5.772921  8.164141
2735  1 41.995789  5.772921 10.613383
2736  1 41.995789  5.772921 13.062625
2737  1 41.995789 12.700428  0.816414
2738  1 41.995789 12.700428  3.265656
2739  1 41.995789 12.700428  5.714899
2740  1 41.995789 12.700428  8.164141
2741  1 41.995789 12.700428 10.613383
2742  1 41.995789 12.700428 13.062625
2743  1 41.995789 19.627935  0.816414
2744  1 41.995789 19.627935  3.265656
2745  1 41.995789 19.627935  5.714899
2746  1 41.995789 19.627935  8.164141
2747  1 41.995789 19.627935 10.613383
2748  1 41.995789 19.627935 13.062625
2749  1 41.995789 26.555442  0.816414
2750  1 41.995789 26.555442  3.265656
2751  1 41.995789 26.555442  5.714899
2752  1 41.995789 26.555442  8.164141
2753  1 41.995789 26.555442 10.613383
2754  1 41.995789 26.555442 13.062625
2755  1 41.995789 33.482950  0.816414
2756  1 41.995789 33.482950  3.265656
2757  1 41.995789 33.482950  5.714899
2758  1 41.995789 33.482950  8.164141
2759  1 41.995789 33.482950 10.613383
2760  1 41.995789 33.482950 13.062625
2761  1 41.995789 40.410457  0.816414
2762  1 41.995789 40.410457  3.265656
2763  1 41.995789 40.410457  5.714899
2764  1 41.995789 40.410457  8.164141
2765  1 41.995789 40.410457 10.613383
2766  1 41.995789 40.410457 13.062625
2767  1 41.995789 47.337964  0.816414
2768  1 41.995789 47.337964  3.265656
2769  1 41.995789 47.337964  5.714899
2770  1 41.995789 47.337964  8.164141
2771  1 41.995789 47.337964 10.613383
2772  1 41.995789 47.337964 13.062625

