Ta32 Ti34 Nb32 W10                      
   1.00000000000000     
     9.1216997255111210    0.0000000000000000    0.0000000000000000
     0.0000000000000000    8.3788097184575001    0.0000000000000000
     0.0000000000000000   -1.8619591595323015   23.6988662189480159
   Ta   Ti   Nb   W 
    32    34    32    10
Selective dynamics
Direct
  0.4994571676000206  0.2716467793135706  0.2235802302613152   F   F   T
  0.0007011838891344  0.2714538714656740  0.2251823387002584   F   F   T
  0.2495600548973158  0.2342523429390937  0.0544637074708796   F   F   T
  0.4999658814041439  0.8021739085754831  0.1139127489417106   F   F   T
  0.0000479543384628  0.4692976496988166  0.1109387439252142   F   F   T
  0.0014814358292270  0.5435699706493153  0.4429174412543383   F   F   T
  0.2504715557544870  0.9131773802716836  0.6071590836804542   F   F   T
  0.0006088878015333  0.6666076588213414  0.0014581764708954   F   F   T
  0.7506980600066626  0.6047849213400340  0.7205128819901179   F   F   T
  0.4998717066019083  0.7408308445903842  0.3326675462818596   F   F   T
  0.2497759176542687  0.9379307025030670  0.7237268141108545   F   F   T
  0.9998461222754713  0.3957238207197875  0.7789764173151643   F   F   T
  0.0005745086022202  0.4818789560999051  0.6648654218483975   F   F   T
  0.2495106240223279  0.6298766210526168  0.8346843505714362   F   F   T
  0.7497640967820587  0.2468747470209962  0.6064690129620338   F   F   T
  0.0012324422402941  0.8145454977592195  0.6663830080949720   F   F   T
  0.2498146343417176  0.8396302278720356  0.2768314256760930   F   F   T
  0.4992161048643524  0.8151457457175297  0.6663606668848530   F   F   T
  0.5003964755988406  0.7286765415301204  0.7774220784106145   F   F   T
  0.4996118710759134  0.9988566461189805  0.0000135791673279   F   F   T
  0.5001801896752340  0.0616772396266398  0.7792201067698855   F   F   T
  0.4999855333282923  0.4071838780510433  0.3337465015523008   F   F   T
  0.0003203214657930  0.9383532032136443  0.2237638563063415   F   F   T
  0.2491167970940609  0.6422481663243644  0.3863167311579546   F   F   T
  0.4995821383535883  0.6670023486036456  0.0007125086834424   F   F   T
  0.7502763096117064  0.5810557200344348  0.6060132718277501   F   F   T
  0.7504420632422253  0.9133084181465350  0.6072468473580783   F   F   T
  0.0002089534286114  0.1356638149761551  0.1139324369668422   F   F   T
  0.2497824446881296  0.9626560086075528  0.8383920995654742   F   F   T
  0.5009183035403240  0.5312864656396314  0.8898474657262001   F   F   T
  0.9997743751242751  0.8654362066482904  0.8905540603833151   F   F   T
  0.2499611531302293  0.5057807047046126  0.2763072460826481   F   F   T
  0.4993217237138055  0.6793158029515851  0.5534888966888557   F   F   T
  0.0006181661184712  0.0124481247724830  0.5525372756014532   F   F   T
  0.5000270802090654  0.4810000688047964  0.6651562012931070   F   F   T
  0.7503350559090833  0.2342907249937412  0.0574437411656158   F   F   T
  0.5001069796275743  0.2100556443201711  0.4416899772594911   F   F   T
  0.7500853215986609  0.8394636194538307  0.2734515527226756   F   F   T
  0.7501204241673207  0.1728083827574878  0.2808951927340512   F   F   T
  0.7498964864102220  0.0368752782837376  0.1705696738130134   F   F   T
  0.9999488100767664  0.5310942370089364  0.8906218420636508   F   F   T
  0.7485847158406287  0.9763092256809145  0.3864727679035404   F   F   T
  0.5000746504558933  0.8636602026153355  0.8895357504311432   F   F   T
  0.4998462243517281  0.3339853512107709  0.0005870659038471   F   F   T
  0.5002779828903812  0.1976544023906897  0.8925707636358914   F   F   T
  0.0004289236194879  0.7410764386612811  0.3325803815166954   F   F   T
  0.7492359320902082  0.3084323164670479  0.3899945339048051   F   F   T
  0.4990507496593892  0.8776979298470167  0.4432935483113842   F   F   T
  0.7504724678271089  0.0988042778281084  0.9451188647634472   F   F   T
  0.7502944376332223  0.9388364313237361  0.7220006845634759   F   F   T
  0.2495517935165452  0.6047767804277626  0.7218309269325861   F   F   T
  0.2492706110137775  0.9757584438361704  0.3870124643547577   F   F   T
  0.0004841176504584  0.3457357236761212  0.5524472005910107   F   F   T
  0.4998581739266967  0.1354622718799305  0.1118162378510034   F   F   T
  0.7495056616346218  0.6418650693382304  0.3885084272296566   F   F   T
  0.7498974037428923  0.7653940410433577  0.9456395498406145   F   F   T
  0.7502289433568023  0.7779983391240108  0.4979425438512749   F   F   T
  0.2498951653222576  0.2962047401270098  0.8410329178260781   F   F   T
  0.0007319690377372  0.0738317749031765  0.3325125845197635   F   F   T
  0.5005552856449071  0.6047428335218115  0.2196790826120195   F   F   T
  0.7498102399859761  0.4441999601394500  0.4984055598213792   F   F   T
  0.5003063270432619  0.3949014037912733  0.7776855999073334   F   F   T
  0.0003011545578602  0.4072743069103666  0.3341220382146775   F   F   T
  0.2500659537346763  0.3704063254193386  0.1656820885266808   F   F   T
  0.0004593157160002  0.6789832202633264  0.5539654251261281   F   F   T
  0.7499589664007402  0.5063592425798475  0.2766307640134262   F   F   T
  0.0034042081272148  0.8767959056917363  0.4422200276024826   F   F   T
  0.9992044502014608  0.1952985282896549  0.8897062541945427   F   F   T
  0.4998168687279900  0.4696696418618487  0.1104780065045562   F   F   T
  0.2529331584649555  0.1092526678883345  0.4975901172576767   F   F   T
  0.4975832870308210  0.3443314416366903  0.5547175109932641   F   F   T
  0.2514682671844923  0.2717909953123083  0.7251599397824444   F   F   T
  0.7498894854668166  0.1109307047492152  0.4962756001579431   F   F   T
  0.9999800691477887  0.0000703622095273  0.0013883879708752   F   F   T
  0.7503600807643522  0.6299838508233151  0.8352542060859356   F   F   T
  0.7513694862986284  0.2702935669341429  0.7229536338553234   F   F   T
  0.2501330520519929  0.7789944192152731  0.4967778514244481   F   F   T
  0.2504580636488072  0.7647494334576734  0.9450880655904323   F   F   T
  0.2492790023416731  0.4429579361835820  0.4972468970428535   F   F   T
  0.0009289644364827  0.3332906532471185  0.9991912336995363   F   F   T
  0.9999297653457830  0.8022590968801211  0.1132149602123397   F   F   T
  0.7487214725870288  0.9023197069522411  0.0575077860826122   F   F   T
  0.5005938200933713  0.0741375479170188  0.3324125991324729   F   F   T
  0.5008810097877685  0.5448641372000509  0.4424729601400743   F   F   T
  0.7495892499497998  0.2958509343167393  0.8385223938094859   F   F   T
  0.7500503501359645  0.9602392209070629  0.8353771681068594   F   F   T
  0.0003188102599410  0.6049147945813615  0.2226077534331358   F   F   T
  0.9986838604704076  0.1472874925165399  0.6664446334595490   F   F   T
  0.7498685242076348  0.5681172583552154  0.0572635159783746   F   F   T
  0.4996707942471517  0.9379618286792635  0.2231050972971390   F   F   T
  0.7498829497651229  0.3706572190909228  0.1680233120273951   F   F   T
  0.4957225303476420  0.0134095423452720  0.5535583325978026   F   F   T
  0.2511062279074494  0.9013176796231264  0.0565179341688743   F   F   T
  0.0012608868751300  0.2095496916732742  0.4412940439095964   F   F   T
  0.2500160050277884  0.0370296751092738  0.1687571911326413   F   F   T
  0.2483608885329858  0.5832086734001436  0.6092221821997065   F   F   T
  0.2507630857270939  0.2463693382919203  0.6089211399936134   F   F   T
  0.7475495221513739  0.4324967998167040  0.9474923723569932   F   F   T
  0.2500587314067104  0.5679034286394327  0.0564363795439966   F   F   T
  0.2494184020951380  0.0987176164971970  0.9451731085684293   F   F   T
  0.2502745500970818  0.7036859495596346  0.1661077803857945   F   F   T
  0.2494411266852055  0.1737465933776576  0.2803370965452684   F   F   T
  0.9999629411264692  0.7275647030239085  0.7794273509405288   F   F   T
  0.2493584891262870  0.3079566517367738  0.3858156355871214   F   F   T
  0.9995397471666081  0.0619768233643470  0.7806658608247570   F   F   T
  0.2498069767961155  0.4324562618593930  0.9472258924823347   F   F   T
  0.7499436562060993  0.7035084527947433  0.1678639624773188   F   F   T
  0.4996546992342843  0.1491297550667241  0.6666804430604010   F   F   T
 
  0.00000000E+00  0.00000000E+00  0.00000000E+00
  0.00000000E+00  0.00000000E+00  0.00000000E+00
  0.00000000E+00  0.00000000E+00  0.00000000E+00
  0.00000000E+00  0.00000000E+00  0.00000000E+00
  0.00000000E+00  0.00000000E+00  0.00000000E+00
  0.00000000E+00  0.00000000E+00  0.00000000E+00
  0.00000000E+00  0.00000000E+00  0.00000000E+00
  0.00000000E+00  0.00000000E+00  0.00000000E+00
  0.00000000E+00  0.00000000E+00  0.00000000E+00
  0.00000000E+00  0.00000000E+00  0.00000000E+00
  0.00000000E+00  0.00000000E+00  0.00000000E+00
  0.00000000E+00  0.00000000E+00  0.00000000E+00
  0.00000000E+00  0.00000000E+00  0.00000000E+00
  0.00000000E+00  0.00000000E+00  0.00000000E+00
  0.00000000E+00  0.00000000E+00  0.00000000E+00
  0.00000000E+00  0.00000000E+00  0.00000000E+00
  0.00000000E+00  0.00000000E+00  0.00000000E+00
  0.00000000E+00  0.00000000E+00  0.00000000E+00
  0.00000000E+00  0.00000000E+00  0.00000000E+00
  0.00000000E+00  0.00000000E+00  0.00000000E+00
  0.00000000E+00  0.00000000E+00  0.00000000E+00
  0.00000000E+00  0.00000000E+00  0.00000000E+00
  0.00000000E+00  0.00000000E+00  0.00000000E+00
  0.00000000E+00  0.00000000E+00  0.00000000E+00
  0.00000000E+00  0.00000000E+00  0.00000000E+00
  0.00000000E+00  0.00000000E+00  0.00000000E+00
  0.00000000E+00  0.00000000E+00  0.00000000E+00
  0.00000000E+00  0.00000000E+00  0.00000000E+00
  0.00000000E+00  0.00000000E+00  0.00000000E+00
  0.00000000E+00  0.00000000E+00  0.00000000E+00
  0.00000000E+00  0.00000000E+00  0.00000000E+00
  0.00000000E+00  0.00000000E+00  0.00000000E+00
  0.00000000E+00  0.00000000E+00  0.00000000E+00
  0.00000000E+00  0.00000000E+00  0.00000000E+00
  0.00000000E+00  0.00000000E+00  0.00000000E+00
  0.00000000E+00  0.00000000E+00  0.00000000E+00
  0.00000000E+00  0.00000000E+00  0.00000000E+00
  0.00000000E+00  0.00000000E+00  0.00000000E+00
  0.00000000E+00  0.00000000E+00  0.00000000E+00
  0.00000000E+00  0.00000000E+00  0.00000000E+00
  0.00000000E+00  0.00000000E+00  0.00000000E+00
  0.00000000E+00  0.00000000E+00  0.00000000E+00
  0.00000000E+00  0.00000000E+00  0.00000000E+00
  0.00000000E+00  0.00000000E+00  0.00000000E+00
  0.00000000E+00  0.00000000E+00  0.00000000E+00
  0.00000000E+00  0.00000000E+00  0.00000000E+00
  0.00000000E+00  0.00000000E+00  0.00000000E+00
  0.00000000E+00  0.00000000E+00  0.00000000E+00
  0.00000000E+00  0.00000000E+00  0.00000000E+00
  0.00000000E+00  0.00000000E+00  0.00000000E+00
  0.00000000E+00  0.00000000E+00  0.00000000E+00
  0.00000000E+00  0.00000000E+00  0.00000000E+00
  0.00000000E+00  0.00000000E+00  0.00000000E+00
  0.00000000E+00  0.00000000E+00  0.00000000E+00
  0.00000000E+00  0.00000000E+00  0.00000000E+00
  0.00000000E+00  0.00000000E+00  0.00000000E+00
  0.00000000E+00  0.00000000E+00  0.00000000E+00
  0.00000000E+00  0.00000000E+00  0.00000000E+00
  0.00000000E+00  0.00000000E+00  0.00000000E+00
  0.00000000E+00  0.00000000E+00  0.00000000E+00
  0.00000000E+00  0.00000000E+00  0.00000000E+00
  0.00000000E+00  0.00000000E+00  0.00000000E+00
  0.00000000E+00  0.00000000E+00  0.00000000E+00
  0.00000000E+00  0.00000000E+00  0.00000000E+00
  0.00000000E+00  0.00000000E+00  0.00000000E+00
  0.00000000E+00  0.00000000E+00  0.00000000E+00
  0.00000000E+00  0.00000000E+00  0.00000000E+00
  0.00000000E+00  0.00000000E+00  0.00000000E+00
  0.00000000E+00  0.00000000E+00  0.00000000E+00
  0.00000000E+00  0.00000000E+00  0.00000000E+00
  0.00000000E+00  0.00000000E+00  0.00000000E+00
  0.00000000E+00  0.00000000E+00  0.00000000E+00
  0.00000000E+00  0.00000000E+00  0.00000000E+00
  0.00000000E+00  0.00000000E+00  0.00000000E+00
  0.00000000E+00  0.00000000E+00  0.00000000E+00
  0.00000000E+00  0.00000000E+00  0.00000000E+00
  0.00000000E+00  0.00000000E+00  0.00000000E+00
  0.00000000E+00  0.00000000E+00  0.00000000E+00
  0.00000000E+00  0.00000000E+00  0.00000000E+00
  0.00000000E+00  0.00000000E+00  0.00000000E+00
  0.00000000E+00  0.00000000E+00  0.00000000E+00
  0.00000000E+00  0.00000000E+00  0.00000000E+00
  0.00000000E+00  0.00000000E+00  0.00000000E+00
  0.00000000E+00  0.00000000E+00  0.00000000E+00
  0.00000000E+00  0.00000000E+00  0.00000000E+00
  0.00000000E+00  0.00000000E+00  0.00000000E+00
  0.00000000E+00  0.00000000E+00  0.00000000E+00
  0.00000000E+00  0.00000000E+00  0.00000000E+00
  0.00000000E+00  0.00000000E+00  0.00000000E+00
  0.00000000E+00  0.00000000E+00  0.00000000E+00
  0.00000000E+00  0.00000000E+00  0.00000000E+00
  0.00000000E+00  0.00000000E+00  0.00000000E+00
  0.00000000E+00  0.00000000E+00  0.00000000E+00
  0.00000000E+00  0.00000000E+00  0.00000000E+00
  0.00000000E+00  0.00000000E+00  0.00000000E+00
  0.00000000E+00  0.00000000E+00  0.00000000E+00
  0.00000000E+00  0.00000000E+00  0.00000000E+00
  0.00000000E+00  0.00000000E+00  0.00000000E+00
  0.00000000E+00  0.00000000E+00  0.00000000E+00
  0.00000000E+00  0.00000000E+00  0.00000000E+00
  0.00000000E+00  0.00000000E+00  0.00000000E+00
  0.00000000E+00  0.00000000E+00  0.00000000E+00
  0.00000000E+00  0.00000000E+00  0.00000000E+00
  0.00000000E+00  0.00000000E+00  0.00000000E+00
  0.00000000E+00  0.00000000E+00  0.00000000E+00
  0.00000000E+00  0.00000000E+00  0.00000000E+00
  0.00000000E+00  0.00000000E+00  0.00000000E+00
  0.00000000E+00  0.00000000E+00  0.00000000E+00
