       N       E                     dE             d eps       ncg     rms          rms(c)
DAV:   1    -0.397681944709E+05   -0.39768E+05   -0.91818E+05 33744   0.209E+03
DAV:   2    -0.587156920322E+05   -0.18947E+05   -0.18086E+05 36624   0.111E+03
DAV:   3    -0.615994277601E+05   -0.28837E+04   -0.27282E+04 38400   0.461E+02
DAV:   4    -0.625526732659E+05   -0.95325E+03   -0.88297E+03 38400   0.237E+02
DAV:   5    -0.630784062729E+05   -0.52573E+03   -0.49931E+03 38400   0.164E+02    0.131E+04
DAV:   6    -0.225838682567E+05    0.40495E+05   -0.23018E+05 34848   0.814E+02    0.126E+04
DAV:   7    -0.134807227985E+05    0.91031E+04   -0.22831E+05 37968   0.953E+02    0.561E+03
DAV:   8    -0.176806021384E+05   -0.41999E+04   -0.32332E+05 38400   0.107E+03    0.490E+03
DAV:   9    -0.416376190685E+04    0.13517E+05   -0.16607E+05 36480   0.699E+02    0.426E+03
DAV:  10    -0.506359148110E+04   -0.89983E+03   -0.62554E+04 34560   0.387E+02    0.402E+03
DAV:  11    -0.337563276943E+04    0.16880E+04   -0.15632E+04 35520   0.228E+02    0.419E+03
DAV:  12    -0.523493966728E+04   -0.18593E+04   -0.70648E+03 31968   0.126E+02    0.430E+03
DAV:  13    -0.576426406851E+04   -0.52932E+03   -0.22392E+03 33840   0.660E+01    0.430E+03
DAV:  14    -0.497234803502E+04    0.79192E+03   -0.71987E+02 34272   0.514E+01    0.426E+03
DAV:  15    -0.599845359916E+04   -0.10261E+04   -0.12950E+03 34848   0.791E+01    0.429E+03
DAV:  16    -0.653909700276E+04   -0.54064E+03   -0.65471E+02 34608   0.520E+01    0.430E+03
DAV:  17    -0.547225315609E+04    0.10668E+04   -0.37085E+02 34560   0.451E+01    0.419E+03
DAV:  18    -0.467162365215E+04    0.80063E+03   -0.19721E+04 34560   0.123E+02    0.358E+03
DAV:  19    -0.435135546794E+04    0.32027E+03   -0.47238E+03 31584   0.114E+02    0.349E+03
DAV:  20    -0.406007620063E+04    0.29128E+03   -0.10832E+03 33120   0.554E+01    0.349E+03
DAV:  21    -0.401139529797E+04    0.48681E+02   -0.26621E+02 32160   0.268E+01    0.341E+03
DAV:  22    -0.507317192602E+04   -0.10618E+04   -0.37152E+03 30384   0.128E+02    0.283E+03
DAV:  23    -0.558291998281E+04   -0.50975E+03   -0.56971E+03 30000   0.148E+02    0.231E+03
DAV:  24    -0.916425233945E+04   -0.35813E+04   -0.13841E+04 35616   0.185E+02    0.198E+03
DAV:  25    -0.109341094508E+05   -0.17699E+04   -0.12556E+04 31728   0.272E+02    0.226E+03
DAV:  26    -0.109935694845E+05   -0.59460E+02   -0.19012E+03 30144   0.675E+01    0.270E+03
DAV:  27    -0.111694599614E+05   -0.17589E+03   -0.24526E+02 35136   0.209E+01    0.295E+03
DAV:  28    -0.116547642615E+05   -0.48530E+03   -0.15405E+02 27840   0.285E+01    0.305E+03
DAV:  29    -0.125874503998E+05   -0.93269E+03   -0.25175E+03 29712   0.681E+01    0.310E+03
DAV:  30    -0.119955557635E+05    0.59189E+03   -0.39865E+02 26880   0.467E+01
   1 F= -.11995556E+05 E0= -.11995528E+05  d E =-.119956E+05
       N       E                     dE             d eps       ncg     rms          rms(c)
DAV:   1    -0.108191436604E+05    0.17683E+04   -0.16132E+03 26928   0.792E+01    0.292E+03
DAV:   2    -0.241924839861E+05   -0.13373E+05   -0.41297E+05 36192   0.766E+02    0.214E+03
DAV:   3    -0.107615929680E+05    0.13431E+05   -0.41475E+05 37296   0.103E+03    0.208E+03
DAV:   4    -0.370079387713E+04    0.70608E+04   -0.87086E+04 35472   0.586E+02    0.108E+03
DAV:   5    -0.294159894418E+04    0.75919E+03   -0.48907E+04 36048   0.309E+02    0.725E+02
DAV:   6    -0.137975352427E+05   -0.10856E+05   -0.18061E+05 38400   0.508E+02    0.930E+02
DAV:   7    -0.289942020591E+04    0.10898E+05   -0.11804E+05 38112   0.414E+02    0.467E+02
DAV:   8    -0.441813839869E+04   -0.15187E+04   -0.82620E+04 34752   0.442E+02    0.335E+02
DAV:   9    -0.264048886462E+04    0.17776E+04   -0.63313E+04 37200   0.339E+02    0.259E+02
DAV:  10    -0.201320998066E+04    0.62728E+03   -0.16516E+04 35568   0.201E+02    0.257E+02
DAV:  11    -0.169925161936E+04    0.31396E+03   -0.12739E+04 37392   0.154E+02    0.243E+02
DAV:  12    -0.140249617758E+04    0.29676E+03   -0.25856E+03 32496   0.683E+01    0.224E+02
DAV:  13    -0.140402822718E+04   -0.15320E+01   -0.42149E+02 31920   0.239E+01    0.215E+02
DAV:  14    -0.138482194878E+04    0.19206E+02   -0.62841E+01 31632   0.110E+01    0.210E+02
DAV:  15    -0.132283979282E+04    0.61982E+02   -0.94324E+01 29088   0.146E+01    0.189E+02
DAV:  16    -0.119660587795E+04    0.12623E+03   -0.96283E+02 29088   0.413E+01    0.135E+02
DAV:  17    -0.116339536706E+04    0.33211E+02   -0.50444E+02 30720   0.365E+01    0.114E+02
DAV:  18    -0.115632333769E+04    0.70720E+01   -0.23743E+02 27936   0.264E+01    0.991E+01
DAV:  19    -0.118067759197E+04   -0.24354E+02   -0.30226E+02 27984   0.245E+01    0.102E+02
DAV:  20    -0.113170377492E+04    0.48974E+02   -0.30108E+02 31056   0.341E+01    0.687E+01
DAV:  21    -0.112208010990E+04    0.96237E+01   -0.32156E+02 28848   0.291E+01    0.474E+01
DAV:  22    -0.111155136033E+04    0.10529E+02   -0.60512E+01 28320   0.127E+01    0.410E+01
DAV:  23    -0.110329041842E+04    0.82609E+01   -0.24492E+01 28896   0.735E+00    0.359E+01
DAV:  24    -0.109963035396E+04    0.36601E+01   -0.77852E+00 29088   0.431E+00    0.320E+01
DAV:  25    -0.109821216399E+04    0.14182E+01   -0.10173E+01 26928   0.472E+00    0.273E+01
DAV:  26    -0.109450287690E+04    0.37093E+01   -0.85573E+00 28272   0.461E+00    0.209E+01
DAV:  27    -0.109346166402E+04    0.10412E+01   -0.33584E+00 28224   0.277E+00    0.175E+01
DAV:  28    -0.109264750779E+04    0.81416E+00   -0.30007E+00 29040   0.287E+00    0.142E+01
DAV:  29    -0.109206765178E+04    0.57986E+00   -0.30773E+00 27168   0.296E+00    0.109E+01
DAV:  30    -0.109166781104E+04    0.39984E+00   -0.26974E+00 29424   0.252E+00
   2 F= -.10916678E+04 E0= -.10915645E+04  d E =0.109039E+05
       N       E                     dE             d eps       ncg     rms          rms(c)
DAV:   1    -0.109142912233E+04    0.63853E+00   -0.98625E-01 29136   0.151E+00    0.589E+00
DAV:   2    -0.111565521363E+04   -0.24226E+02   -0.32804E+01 30912   0.129E+01    0.280E+01
DAV:   3    -0.109182706015E+04    0.23828E+02   -0.23649E+01 29712   0.113E+01    0.686E+00
DAV:   4    -0.109298623356E+04   -0.11592E+01   -0.89229E+00 28176   0.449E+00    0.895E+00
DAV:   5    -0.109210487070E+04    0.88136E+00   -0.68581E+00 28464   0.512E+00    0.611E+00
DAV:   6    -0.109176013006E+04    0.34474E+00   -0.42406E+00 27792   0.368E+00    0.469E+00
DAV:   7    -0.109146712468E+04    0.29301E+00   -0.23321E+00 27456   0.244E+00    0.272E+00
DAV:   8    -0.109134590148E+04    0.12122E+00   -0.89186E-01 27024   0.160E+00    0.150E+00
DAV:   9    -0.109132328933E+04    0.22612E-01   -0.29792E-01 27744   0.860E-01    0.811E-01
DAV:  10    -0.109131802617E+04    0.52632E-02   -0.98922E-02 26976   0.544E-01    0.595E-01
DAV:  11    -0.109131473049E+04    0.32957E-02   -0.44888E-02 27696   0.355E-01    0.434E-01
DAV:  12    -0.109131342051E+04    0.13100E-02   -0.23533E-02 27456   0.253E-01    0.312E-01
DAV:  13    -0.109131278906E+04    0.63146E-03   -0.13949E-02 28464   0.192E-01    0.239E-01
DAV:  14    -0.109131226645E+04    0.52261E-03   -0.73957E-03 27216   0.143E-01    0.162E-01
DAV:  15    -0.109131184122E+04    0.42523E-03   -0.27348E-03 29088   0.892E-02    0.837E-02
DAV:  16    -0.109131184130E+04   -0.81985E-07   -0.12241E-03 27648   0.532E-02    0.758E-02
DAV:  17    -0.109131177833E+04    0.62963E-04   -0.64188E-04 27600   0.408E-02    0.411E-02
DAV:  18    -0.109131177054E+04    0.77949E-05   -0.29237E-04 27168   0.280E-02    0.364E-02
DAV:  19    -0.109131175837E+04    0.12170E-04   -0.17590E-04 27120   0.207E-02    0.230E-02
DAV:  20    -0.109131175155E+04    0.68199E-05   -0.69393E-05 26496   0.140E-02    0.139E-02
DAV:  21    -0.109131174871E+04    0.28438E-05   -0.28715E-05 25440   0.856E-03    0.751E-03
DAV:  22    -0.109131174820E+04    0.50755E-06   -0.11075E-05 23184   0.538E-03    0.536E-03
DAV:  23    -0.109131174795E+04    0.24858E-06   -0.48715E-06 19920   0.374E-03
   3 F= -.10913117E+04 E0= -.10912082E+04  d E =0.109042E+05
       N       E                     dE             d eps       ncg     rms          rms(c)
DAV:   1    -0.109131229811E+04   -0.54991E-03   -0.64474E-04 23664   0.447E-02    0.662E-03
DAV:   2    -0.109131232920E+04   -0.31095E-04   -0.99326E-05 30192   0.195E-02    0.353E-02
DAV:   3    -0.109131230352E+04    0.25679E-04   -0.82083E-05 25824   0.166E-02    0.123E-02
DAV:   4    -0.109131230153E+04    0.19927E-05   -0.15199E-05 21744   0.701E-03    0.722E-03
DAV:   5    -0.109131230205E+04   -0.52092E-06   -0.92357E-06 16752   0.562E-03    0.862E-03
DAV:   6    -0.109131230055E+04    0.15047E-05   -0.43726E-06 14928   0.445E-03    0.371E-03
DAV:   7    -0.109131230042E+04    0.12683E-06   -0.11140E-06 13344   0.239E-03    0.266E-03
DAV:   8    -0.109131230042E+04   -0.63301E-09   -0.64009E-07 12480   0.192E-03    0.222E-03
DAV:   9    -0.109131230042E+04   -0.33469E-09   -0.52905E-07 12480   0.181E-03    0.191E-03
DAV:  10    -0.109131230037E+04    0.51550E-07   -0.33414E-07 12480   0.146E-03
   4 F= -.10913123E+04 E0= -.10912087E+04  d E =0.109042E+05
       N       E                     dE             d eps       ncg     rms          rms(c)
DAV:   1    -0.109131648648E+04   -0.41861E-02   -0.13537E+01 21792   0.647E+00    0.912E-01
DAV:   2    -0.109184432491E+04   -0.52784E+00   -0.17755E+00 30048   0.263E+00    0.451E+00
DAV:   3    -0.109142274940E+04    0.42158E+00   -0.13325E+00 29376   0.218E+00    0.164E+00
DAV:   4    -0.109138806658E+04    0.34683E-01   -0.28777E-01 29808   0.960E-01    0.101E+00
DAV:   5    -0.109140374638E+04   -0.15680E-01   -0.19524E-01 29232   0.771E-01    0.129E+00
DAV:   6    -0.109137144559E+04    0.32301E-01   -0.99177E-02 27024   0.569E-01    0.531E-01
DAV:   7    -0.109136896621E+04    0.24794E-02   -0.27829E-02 28992   0.269E-01    0.387E-01
DAV:   8    -0.109136992992E+04   -0.96370E-03   -0.20216E-02 28896   0.252E-01    0.404E-01
DAV:   9    -0.109136860355E+04    0.13264E-02   -0.20178E-02 29424   0.244E-01    0.299E-01
DAV:  10    -0.109136714032E+04    0.14632E-02   -0.92749E-03 29856   0.174E-01    0.158E-01
DAV:  11    -0.109136678990E+04    0.35042E-03   -0.36163E-03 30000   0.929E-02    0.852E-02
DAV:  12    -0.109136673322E+04    0.56680E-04   -0.12022E-03 27072   0.525E-02    0.565E-02
DAV:  13    -0.109136669950E+04    0.33718E-04   -0.42958E-04 29328   0.342E-02    0.386E-02
DAV:  14    -0.109136668738E+04    0.12121E-04   -0.22735E-04 26976   0.242E-02    0.278E-02
DAV:  15    -0.109136668136E+04    0.60216E-05   -0.11527E-04 27360   0.176E-02    0.187E-02
DAV:  16    -0.109136667781E+04    0.35448E-05   -0.53460E-05 26976   0.125E-02    0.131E-02
DAV:  17    -0.109136667484E+04    0.29699E-05   -0.20869E-05 25392   0.777E-03    0.615E-03
DAV:  18    -0.109136667465E+04    0.18955E-06   -0.82689E-06 22512   0.453E-03
   5 F= -.10913667E+04 E0= -.10912628E+04  d E =0.109042E+05
       N       E                     dE             d eps       ncg     rms          rms(c)
DAV:   1    -0.109136178874E+04    0.48861E-02   -0.33810E+00 21648   0.324E+00    0.445E-01
DAV:   2    -0.109149456646E+04   -0.13278E+00   -0.44777E-01 29856   0.133E+00    0.226E+00
DAV:   3    -0.109138822978E+04    0.10634E+00   -0.34528E-01 29136   0.109E+00    0.812E-01
DAV:   4    -0.109137972742E+04    0.85024E-02   -0.69098E-02 29328   0.471E-01    0.497E-01
DAV:   5    -0.109138264505E+04   -0.29176E-02   -0.45697E-02 28272   0.376E-01    0.613E-01
DAV:   6    -0.109137567352E+04    0.69715E-02   -0.23058E-02 27072   0.272E-01    0.266E-01
DAV:   7    -0.109137500569E+04    0.66783E-03   -0.70248E-03 28704   0.136E-01    0.189E-01
DAV:   8    -0.109137522233E+04   -0.21664E-03   -0.49827E-03 28896   0.126E-01    0.196E-01
DAV:   9    -0.109137490074E+04    0.32159E-03   -0.48704E-03 29904   0.120E-01    0.145E-01
DAV:  10    -0.109137455957E+04    0.34116E-03   -0.21975E-03 29760   0.849E-02    0.779E-02
DAV:  11    -0.109137447143E+04    0.88149E-04   -0.84425E-04 29280   0.449E-02    0.399E-02
DAV:  12    -0.109137445998E+04    0.11445E-04   -0.27367E-04 27408   0.252E-02    0.274E-02
DAV:  13    -0.109137445286E+04    0.71251E-05   -0.10556E-04 28032   0.169E-02    0.195E-02
DAV:  14    -0.109137444933E+04    0.35207E-05   -0.56874E-05 25344   0.121E-02    0.136E-02
DAV:  15    -0.109137444776E+04    0.15792E-05   -0.27109E-05 25776   0.862E-03    0.879E-03
DAV:  16    -0.109137444698E+04    0.78064E-06   -0.12169E-05 23280   0.598E-03    0.626E-03
DAV:  17    -0.109137444625E+04    0.72303E-06   -0.43934E-06 19392   0.388E-03
   6 F= -.10913744E+04 E0= -.10912705E+04  d E =0.109042E+05
       N       E                     dE             d eps       ncg     rms          rms(c)
DAV:   1    -0.109137314441E+04    0.13026E-02   -0.32156E-01 21456   0.998E-01    0.137E-01
DAV:   2    -0.109138571259E+04   -0.12568E-01   -0.42582E-02 30336   0.413E-01    0.696E-01
DAV:   3    -0.109137569891E+04    0.10014E-01   -0.32936E-02 29520   0.335E-01    0.250E-01
DAV:   4    -0.109137490139E+04    0.79751E-03   -0.64722E-03 27936   0.144E-01    0.154E-01
DAV:   5    -0.109137514886E+04   -0.24746E-03   -0.43087E-03 29424   0.115E-01    0.187E-01
DAV:   6    -0.109137451114E+04    0.63772E-03   -0.21548E-03 27168   0.826E-02    0.824E-02
DAV:   7    -0.109137444387E+04    0.67267E-04   -0.67226E-04 28800   0.419E-02    0.576E-02
DAV:   8    -0.109137446431E+04   -0.20437E-04   -0.47102E-04 28944   0.388E-02    0.600E-02
DAV:   9    -0.109137443345E+04    0.30860E-04   -0.45641E-04 30240   0.367E-02    0.439E-02
DAV:  10    -0.109137440201E+04    0.31443E-04   -0.20436E-04 30384   0.259E-02    0.240E-02
DAV:  11    -0.109137439368E+04    0.83209E-05   -0.78213E-05 26160   0.137E-02    0.121E-02
DAV:  12    -0.109137439265E+04    0.10334E-05   -0.25356E-05 25056   0.773E-03    0.837E-03
DAV:  13    -0.109137439197E+04    0.68383E-06   -0.98842E-06 23280   0.532E-03
   7 F= -.10913744E+04 E0= -.10912704E+04  d E =0.109042E+05
       N       E                     dE             d eps       ncg     rms          rms(c)
DAV:   1    -0.109137430396E+04    0.88687E-04   -0.36431E-03 22608   0.106E-01    0.156E-02
DAV:   2    -0.109137447944E+04   -0.17547E-03   -0.57229E-04 30096   0.485E-02    0.817E-02
DAV:   3    -0.109137433885E+04    0.14058E-03   -0.46495E-04 27840   0.395E-02    0.305E-02
DAV:   4    -0.109137432660E+04    0.12250E-04   -0.93902E-05 26304   0.172E-02    0.188E-02
DAV:   5    -0.109137432721E+04   -0.60542E-06   -0.56827E-05 25344   0.132E-02    0.195E-02
DAV:   6    -0.109137432054E+04    0.66684E-05   -0.24363E-05 22848   0.891E-03    0.928E-03
DAV:   7    -0.109137431966E+04    0.87982E-06   -0.83773E-06 21600   0.480E-03    0.643E-03
DAV:   8    -0.109137431979E+04   -0.12786E-06   -0.52017E-06 19920   0.430E-03    0.600E-03
DAV:   9    -0.109137431959E+04    0.19730E-06   -0.45034E-06 18768   0.412E-03    0.509E-03
DAV:  10    -0.109137431912E+04    0.47001E-06   -0.22907E-06 15360   0.332E-03
   8 F= -.10913743E+04 E0= -.10912703E+04  d E =0.109042E+05
       N       E                     dE             d eps       ncg     rms          rms(c)
DAV:   1    -0.109137917625E+04   -0.48567E-02   -0.48284E-03 22896   0.110E-01    0.182E-02
DAV:   2    -0.109137926216E+04   -0.85916E-04   -0.40661E-04 30336   0.415E-02    0.564E-02
DAV:   3    -0.109137925154E+04    0.10618E-04   -0.40135E-04 28032   0.361E-02    0.544E-02
DAV:   4    -0.109137919082E+04    0.60723E-04   -0.18742E-04 25824   0.238E-02    0.158E-02
DAV:   5    -0.109137920452E+04   -0.13703E-04   -0.67588E-05 25344   0.142E-02    0.268E-02
DAV:   6    -0.109137918929E+04    0.15231E-04   -0.47994E-05 24480   0.124E-02    0.108E-02
DAV:   7    -0.109137918857E+04    0.72357E-06   -0.13205E-05 23376   0.588E-03    0.839E-03
DAV:   8    -0.109137918820E+04    0.37246E-06   -0.77484E-06 21648   0.537E-03    0.631E-03
DAV:   9    -0.109137918806E+04    0.13586E-06   -0.74877E-06 21456   0.431E-03    0.529E-03
DAV:  10    -0.109137918765E+04    0.40844E-06   -0.26538E-06 16464   0.320E-03
   9 F= -.10913792E+04 E0= -.10912752E+04  d E =-.486853E-02
       N       E                     dE             d eps       ncg     rms          rms(c)
DAV:   1    -0.109139356594E+04   -0.14378E-01   -0.43465E-02 21648   0.329E-01    0.540E-02
DAV:   2    -0.109139437269E+04   -0.80674E-03   -0.36694E-03 30336   0.125E-01    0.173E-01
DAV:   3    -0.109139418558E+04    0.18710E-03   -0.35959E-03 29904   0.108E-01    0.156E-01
DAV:   4    -0.109139370118E+04    0.48440E-03   -0.15726E-03 26976   0.685E-02    0.486E-02
DAV:   5    -0.109139380750E+04   -0.10632E-03   -0.58167E-04 28704   0.417E-02    0.766E-02
DAV:   6    -0.109139368419E+04    0.12330E-03   -0.39573E-04 27264   0.354E-02    0.322E-02
DAV:   7    -0.109139367802E+04    0.61761E-05   -0.11721E-04 27264   0.173E-02    0.256E-02
DAV:   8    -0.109139367442E+04    0.35991E-05   -0.72941E-05 28176   0.160E-02    0.193E-02
DAV:   9    -0.109139367291E+04    0.15097E-05   -0.71531E-05 27216   0.126E-02    0.163E-02
DAV:  10    -0.109139366925E+04    0.36634E-05   -0.29398E-05 25344   0.908E-03    0.930E-03
DAV:  11    -0.109139366818E+04    0.10666E-05   -0.95593E-06 22368   0.520E-03    0.511E-03
DAV:  12    -0.109139366794E+04    0.24393E-06   -0.28045E-06 15600   0.356E-03
  10 F= -.10913937E+04 E0= -.10912897E+04  d E =-.193488E-01
       N       E                     dE             d eps       ncg     rms          rms(c)
DAV:   1    -0.109142169608E+04   -0.28028E-01   -0.17386E-01 21024   0.659E-01    0.108E-01
DAV:   2    -0.109142498890E+04   -0.32928E-02   -0.14953E-02 30384   0.252E-01    0.349E-01
DAV:   3    -0.109142420754E+04    0.78136E-03   -0.14661E-02 29232   0.218E-01    0.315E-01
DAV:   4    -0.109142223566E+04    0.19719E-02   -0.63936E-03 27360   0.138E-01    0.969E-02
DAV:   5    -0.109142265291E+04   -0.41725E-03   -0.23010E-03 29040   0.832E-02    0.152E-01
DAV:   6    -0.109142216583E+04    0.48708E-03   -0.15636E-03 27456   0.705E-02    0.636E-02
DAV:   7    -0.109142214240E+04    0.23430E-04   -0.45838E-04 28608   0.343E-02    0.508E-02
DAV:   8    -0.109142212978E+04    0.12619E-04   -0.29542E-04 28320   0.319E-02    0.398E-02
DAV:   9    -0.109142212066E+04    0.91165E-05   -0.28857E-04 30048   0.251E-02    0.315E-02
DAV:  10    -0.109142210639E+04    0.14272E-04   -0.11216E-04 27552   0.175E-02    0.171E-02
DAV:  11    -0.109142210306E+04    0.33304E-05   -0.37009E-05 25248   0.977E-03    0.985E-03
DAV:  12    -0.109142210242E+04    0.63908E-06   -0.12543E-05 23760   0.642E-03    0.748E-03
DAV:  13    -0.109142210199E+04    0.43408E-06   -0.74634E-06 21360   0.462E-03
  11 F= -.10914221E+04 E0= -.10913181E+04  d E =-.477829E-01
       N       E                     dE             d eps       ncg     rms          rms(c)
DAV:   1    -0.109147512887E+04   -0.53026E-01   -0.69529E-01 21024   0.132E+00    0.216E-01
DAV:   2    -0.109148844462E+04   -0.13316E-01   -0.60304E-02 30432   0.504E-01    0.700E-01
DAV:   3    -0.109148517495E+04    0.32697E-02   -0.59024E-02 29760   0.437E-01    0.630E-01
DAV:   4    -0.109147729435E+04    0.78806E-02   -0.25645E-02 27312   0.275E-01    0.195E-01
DAV:   5    -0.109147890192E+04   -0.16076E-02   -0.91177E-03 28704   0.166E-01    0.301E-01
DAV:   6    -0.109147701075E+04    0.18912E-02   -0.61283E-03 27072   0.140E-01    0.127E-01
DAV:   7    -0.109147691537E+04    0.95385E-04   -0.18324E-03 28896   0.685E-02    0.101E-01
DAV:   8    -0.109147686283E+04    0.52539E-04   -0.11769E-03 28128   0.635E-02    0.786E-02
DAV:   9    -0.109147682815E+04    0.34678E-04   -0.11423E-03 30000   0.499E-02    0.628E-02
DAV:  10    -0.109147677021E+04    0.57938E-04   -0.44834E-04 31632   0.347E-02    0.333E-02
DAV:  11    -0.109147675735E+04    0.12860E-04   -0.14445E-04 27504   0.191E-02    0.190E-02
DAV:  12    -0.109147675485E+04    0.25056E-05   -0.48267E-05 25344   0.121E-02    0.137E-02
DAV:  13    -0.109147675394E+04    0.90917E-06   -0.27760E-05 25344   0.888E-03    0.113E-02
DAV:  14    -0.109147675239E+04    0.15502E-05   -0.13895E-05 23472   0.629E-03    0.662E-03
DAV:  15    -0.109147675181E+04    0.57703E-06   -0.63345E-06 21120   0.427E-03
  12 F= -.10914768E+04 E0= -.10913728E+04  d E =-.102433E+00
       N       E                     dE             d eps       ncg     rms          rms(c)
DAV:   1    -0.109157074361E+04   -0.93991E-01   -0.27807E+00 21024   0.263E+00    0.431E-01
DAV:   2    -0.109162444986E+04   -0.53706E-01   -0.24246E-01 30384   0.101E+00    0.141E+00
DAV:   3    -0.109161034504E+04    0.14105E-01   -0.23651E-01 29520   0.872E-01    0.125E+00
DAV:   4    -0.109157939506E+04    0.30950E-01   -0.10198E-01 26928   0.547E-01    0.390E-01
DAV:   5    -0.109158562557E+04   -0.62305E-02   -0.36091E-02 29328   0.333E-01    0.594E-01
DAV:   6    -0.109157825066E+04    0.73749E-02   -0.24078E-02 27072   0.278E-01    0.254E-01
DAV:   7    -0.109157785854E+04    0.39212E-03   -0.71800E-03 29136   0.136E-01    0.201E-01
DAV:   8    -0.109157767695E+04    0.18160E-03   -0.46744E-03 28080   0.127E-01    0.159E-01
DAV:   9    -0.109157752754E+04    0.14940E-03   -0.46095E-03 30000   0.100E-01    0.126E-01
DAV:  10    -0.109157729368E+04    0.23387E-03   -0.18184E-03 31536   0.704E-02    0.684E-02
DAV:  11    -0.109157724089E+04    0.52787E-04   -0.59400E-04 27840   0.390E-02    0.395E-02
DAV:  12    -0.109157723044E+04    0.10453E-04   -0.20249E-04 27312   0.252E-02    0.296E-02
DAV:  13    -0.109157722342E+04    0.70205E-05   -0.11781E-04 27264   0.179E-02    0.214E-02
DAV:  14    -0.109157721800E+04    0.54124E-05   -0.53063E-05 26256   0.122E-02    0.128E-02
DAV:  15    -0.109157721618E+04    0.18270E-05   -0.26652E-05 25056   0.836E-03    0.869E-03
DAV:  16    -0.109157721564E+04    0.53964E-06   -0.12063E-05 23328   0.550E-03    0.604E-03
DAV:  17    -0.109157721503E+04    0.61176E-06   -0.36357E-06 17856   0.372E-03
  13 F= -.10915772E+04 E0= -.10914734E+04  d E =-.202896E+00
       N       E                     dE             d eps       ncg     rms          rms(c)
DAV:   1    -0.109171609596E+04   -0.13888E+00   -0.11117E+01 21024   0.527E+00    0.872E-01
DAV:   2    -0.109193563665E+04   -0.21954E+00   -0.98707E-01 30288   0.203E+00    0.284E+00
DAV:   3    -0.109187268127E+04    0.62955E-01   -0.94763E-01 29616   0.174E+00    0.247E+00
DAV:   4    -0.109175188761E+04    0.12079E+00   -0.41488E-01 27024   0.108E+00    0.803E-01
DAV:   5    -0.109177630275E+04   -0.24415E-01   -0.14943E-01 28656   0.681E-01    0.119E+00
DAV:   6    -0.109174642447E+04    0.29878E-01   -0.96474E-02 27264   0.555E-01    0.508E-01
DAV:   7    -0.109174484551E+04    0.15790E-02   -0.27894E-02 28608   0.269E-01    0.402E-01
DAV:   8    -0.109174431608E+04    0.52943E-03   -0.18473E-02 28080   0.251E-01    0.325E-01
DAV:   9    -0.109174366667E+04    0.64941E-03   -0.18623E-02 28752   0.204E-01    0.258E-01
DAV:  10    -0.109174272902E+04    0.93765E-03   -0.77272E-03 31536   0.146E-01    0.147E-01
DAV:  11    -0.109174248135E+04    0.24766E-03   -0.26077E-03 28368   0.829E-02    0.842E-02
DAV:  12    -0.109174242793E+04    0.53423E-04   -0.90481E-04 27312   0.530E-02    0.616E-02
DAV:  13    -0.109174239143E+04    0.36501E-04   -0.48663E-04 27936   0.362E-02    0.410E-02
DAV:  14    -0.109174237213E+04    0.19301E-04   -0.20765E-04 27216   0.242E-02    0.252E-02
DAV:  15    -0.109174236634E+04    0.57888E-05   -0.11005E-04 28080   0.172E-02    0.182E-02
DAV:  16    -0.109174236403E+04    0.23041E-05   -0.53529E-05 27120   0.115E-02    0.128E-02
DAV:  17    -0.109174236121E+04    0.28235E-05   -0.17635E-05 24480   0.746E-03    0.570E-03
DAV:  18    -0.109174236095E+04    0.26143E-06   -0.60202E-06 21072   0.404E-03
  14 F= -.10917424E+04 E0= -.10916387E+04  d E =-.368042E+00
       N       E                     dE             d eps       ncg     rms          rms(c)
DAV:   1    -0.109181405360E+04   -0.71692E-01   -0.44390E+01 20832   0.106E+01    0.183E+00
DAV:   2    -0.109273612888E+04   -0.92208E+00   -0.41002E+00 30192   0.420E+00    0.577E+00
DAV:   3    -0.109244517383E+04    0.29096E+00   -0.36836E+00 29136   0.350E+00    0.489E+00
DAV:   4    -0.109197442244E+04    0.47075E+00   -0.17847E+00 27312   0.218E+00    0.174E+00
DAV:   5    -0.109208185367E+04   -0.10743E+00   -0.68884E-01 28800   0.146E+00    0.253E+00
DAV:   6    -0.109194294436E+04    0.13891E+00   -0.42231E-01 26880   0.115E+00    0.103E+00
DAV:   7    -0.109193637137E+04    0.65730E-02   -0.10879E-01 28896   0.531E-01    0.815E-01
DAV:   8    -0.109193557842E+04    0.79295E-03   -0.73026E-02 27984   0.491E-01    0.684E-01
DAV:   9    -0.109193266096E+04    0.29175E-02   -0.76025E-02 28896   0.418E-01    0.543E-01
DAV:  10    -0.109192893152E+04    0.37294E-02   -0.34909E-02 30000   0.313E-01    0.340E-01
DAV:  11    -0.109192760328E+04    0.13282E-02   -0.13236E-02 30528   0.189E-01    0.196E-01
DAV:  12    -0.109192724621E+04    0.35706E-03   -0.46636E-03 27072   0.117E-01    0.131E-01
DAV:  13    -0.109192705344E+04    0.19277E-03   -0.20982E-03 28176   0.761E-02    0.815E-02
DAV:  14    -0.109192698460E+04    0.68836E-04   -0.86991E-04 27120   0.494E-02    0.525E-02
DAV:  15    -0.109192696987E+04    0.14729E-04   -0.50840E-04 28272   0.375E-02    0.414E-02
DAV:  16    -0.109192695614E+04    0.13738E-04   -0.27163E-04 27024   0.268E-02    0.294E-02
DAV:  17    -0.109192694040E+04    0.15741E-04   -0.93513E-05 28416   0.170E-02    0.119E-02
DAV:  18    -0.109192693980E+04    0.59192E-06   -0.33233E-05 25920   0.897E-03    0.100E-02
DAV:  19    -0.109192693881E+04    0.98968E-06   -0.15861E-05 24288   0.605E-03    0.578E-03
DAV:  20    -0.109192693840E+04    0.41113E-06   -0.48154E-06 19584   0.393E-03
  15 F= -.10919269E+04 E0= -.10918238E+04  d E =-.552619E+00
       N       E                     dE             d eps       ncg     rms          rms(c)
DAV:   1    -0.109192604528E+04    0.89354E-03   -0.83229E+00 20976   0.457E+00    0.750E-01
DAV:   2    -0.109209299350E+04   -0.16695E+00   -0.74184E-01 30240   0.178E+00    0.248E+00
DAV:   3    -0.109203808774E+04    0.54906E-01   -0.71111E-01 29520   0.150E+00    0.206E+00
DAV:   4    -0.109195301264E+04    0.85075E-01   -0.29841E-01 27168   0.919E-01    0.670E-01
DAV:   5    -0.109197259100E+04   -0.19578E-01   -0.11050E-01 28464   0.583E-01    0.103E+00
DAV:   6    -0.109194977502E+04    0.22816E-01   -0.73191E-02 27072   0.483E-01    0.438E-01
DAV:   7    -0.109194860226E+04    0.11728E-02   -0.20547E-02 28848   0.231E-01    0.350E-01
DAV:   8    -0.109194831253E+04    0.28974E-03   -0.14269E-02 28080   0.218E-01    0.289E-01
DAV:   9    -0.109194768185E+04    0.63067E-03   -0.13869E-02 29424   0.177E-01    0.218E-01
DAV:  10    -0.109194704338E+04    0.63847E-03   -0.58290E-03 31200   0.125E-01    0.129E-01
DAV:  11    -0.109194684941E+04    0.19397E-03   -0.20375E-03 28272   0.728E-02    0.735E-02
DAV:  12    -0.109194680783E+04    0.41579E-04   -0.70508E-04 27168   0.462E-02    0.536E-02
DAV:  13    -0.109194678101E+04    0.26826E-04   -0.36682E-04 28560   0.322E-02    0.366E-02
DAV:  14    -0.109194676589E+04    0.15117E-04   -0.16955E-04 27168   0.214E-02    0.223E-02
DAV:  15    -0.109194676129E+04    0.46045E-05   -0.83437E-05 27600   0.152E-02    0.159E-02
DAV:  16    -0.109194675946E+04    0.18287E-05   -0.41276E-05 27168   0.103E-02    0.114E-02
DAV:  17    -0.109194675724E+04    0.22213E-05   -0.13798E-05 23856   0.660E-03    0.484E-03
DAV:  18    -0.109194675706E+04    0.17978E-06   -0.46274E-06 19968   0.362E-03
  16 F= -.10919468E+04 E0= -.10918440E+04  d E =-.572438E+00
       N       E                     dE             d eps       ncg     rms          rms(c)
DAV:   1    -0.109196853077E+04   -0.21774E-01   -0.19297E+00 21072   0.243E+00    0.344E-01
DAV:   2    -0.109208813778E+04   -0.11961E+00   -0.34118E-01 29568   0.120E+00    0.209E+00
DAV:   3    -0.109198496819E+04    0.10317E+00   -0.29826E-01 26496   0.100E+00    0.647E-01
DAV:   4    -0.109198141221E+04    0.35560E-02   -0.48128E-02 31872   0.387E-01    0.476E-01
DAV:   5    -0.109197930942E+04    0.21028E-02   -0.27819E-02 28080   0.290E-01    0.364E-01
DAV:   6    -0.109197722864E+04    0.20808E-02   -0.94754E-03 27408   0.176E-01    0.202E-01
DAV:   7    -0.109197686866E+04    0.35998E-03   -0.37754E-03 28992   0.960E-02    0.144E-01
DAV:   8    -0.109197705813E+04   -0.18947E-03   -0.27727E-03 27984   0.954E-02    0.151E-01
DAV:   9    -0.109197684212E+04    0.21600E-03   -0.29037E-03 29520   0.898E-02    0.110E-01
DAV:  10    -0.109197665340E+04    0.18872E-03   -0.12524E-03 32256   0.628E-02    0.600E-02
DAV:  11    -0.109197660723E+04    0.46173E-04   -0.47228E-04 29040   0.344E-02    0.318E-02
DAV:  12    -0.109197660104E+04    0.61831E-05   -0.16685E-04 27696   0.189E-02    0.225E-02
DAV:  13    -0.109197659620E+04    0.48432E-05   -0.66837E-05 27264   0.134E-02    0.157E-02
DAV:  14    -0.109197659393E+04    0.22747E-05   -0.35204E-05 25200   0.976E-03    0.106E-02
DAV:  15    -0.109197659344E+04    0.48291E-06   -0.18759E-05 25776   0.705E-03    0.848E-03
DAV:  16    -0.109197659223E+04    0.12104E-05   -0.91011E-06 21984   0.493E-03    0.395E-03
DAV:  17    -0.109197659200E+04    0.23720E-06   -0.20276E-06 15552   0.294E-03
  17 F= -.10919766E+04 E0= -.10918739E+04  d E =-.298349E-01
       N       E                     dE             d eps       ncg     rms          rms(c)
DAV:   1    -0.109196722095E+04    0.93713E-02   -0.17429E+01 21600   0.731E+00    0.105E+00
DAV:   2    -0.109304433308E+04   -0.10771E+01   -0.29295E+00 29664   0.351E+00    0.622E+00
DAV:   3    -0.109210976112E+04    0.93457E+00   -0.24778E+00 27456   0.294E+00    0.195E+00
DAV:   4    -0.109208151489E+04    0.28246E-01   -0.46173E-01 31776   0.117E+00    0.149E+00
DAV:   5    -0.109205898011E+04    0.22535E-01   -0.26860E-01 27984   0.895E-01    0.111E+00
DAV:   6    -0.109203903034E+04    0.19950E-01   -0.85000E-02 27408   0.529E-01    0.600E-01
DAV:   7    -0.109203637623E+04    0.26541E-02   -0.32332E-02 29088   0.281E-01    0.451E-01
DAV:   8    -0.109203811226E+04   -0.17360E-02   -0.24690E-02 27600   0.284E-01    0.461E-01
DAV:   9    -0.109203619122E+04    0.19210E-02   -0.27058E-02 28704   0.276E-01    0.344E-01
DAV:  10    -0.109203432632E+04    0.18649E-02   -0.12077E-02 30816   0.196E-01    0.183E-01
DAV:  11    -0.109203391667E+04    0.40966E-03   -0.46476E-03 28656   0.108E-01    0.102E-01
DAV:  12    -0.109203383396E+04    0.82707E-04   -0.15943E-03 28992   0.584E-02    0.667E-02
DAV:  13    -0.109203379009E+04    0.43872E-04   -0.57478E-04 27984   0.400E-02    0.474E-02
DAV:  14    -0.109203377124E+04    0.18850E-04   -0.32024E-04 27024   0.293E-02    0.328E-02
DAV:  15    -0.109203376757E+04    0.36634E-05   -0.17473E-04 29424   0.218E-02    0.263E-02
DAV:  16    -0.109203375657E+04    0.11003E-04   -0.90539E-05 28896   0.151E-02    0.126E-02
DAV:  17    -0.109203375481E+04    0.17645E-05   -0.26108E-05 25920   0.852E-03    0.888E-03
DAV:  18    -0.109203375406E+04    0.75065E-06   -0.13264E-05 23328   0.569E-03    0.593E-03
DAV:  19    -0.109203375360E+04    0.46095E-06   -0.43230E-06 19872   0.367E-03
  18 F= -.10920338E+04 E0= -.10919313E+04  d E =-.869965E-01
       N       E                     dE             d eps       ncg     rms          rms(c)
DAV:   1    -0.109170853438E+04    0.32522E+00   -0.69468E+01 21120   0.147E+01    0.234E+00
DAV:   2    -0.109597435653E+04   -0.42658E+01   -0.11005E+01 30000   0.731E+00    0.119E+01
DAV:   3    -0.109232643786E+04    0.36479E+01   -0.78685E+00 27264   0.584E+00    0.399E+00
DAV:   4    -0.109225786527E+04    0.68573E-01   -0.22423E+00 30768   0.250E+00    0.338E+00
DAV:   5    -0.109215614518E+04    0.10172E+00   -0.14132E+00 28320   0.209E+00    0.267E+00
DAV:   6    -0.109202431737E+04    0.13183E+00   -0.44646E-01 27072   0.123E+00    0.122E+00
DAV:   7    -0.109201567444E+04    0.86429E-02   -0.13461E-01 28752   0.577E-01    0.969E-01
DAV:   8    -0.109202188912E+04   -0.62147E-02   -0.99242E-02 27264   0.562E-01    0.955E-01
DAV:   9    -0.109201500316E+04    0.68860E-02   -0.11100E-01 28608   0.565E-01    0.728E-01
DAV:  10    -0.109200693456E+04    0.80686E-02   -0.53993E-02 29856   0.413E-01    0.385E-01
DAV:  11    -0.109200534078E+04    0.15938E-02   -0.22353E-02 29136   0.236E-01    0.240E-01
DAV:  12    -0.109200473794E+04    0.60284E-03   -0.76693E-03 29088   0.129E-01    0.140E-01
DAV:  13    -0.109200453136E+04    0.20658E-03   -0.24871E-03 27216   0.860E-02    0.101E-01
DAV:  14    -0.109200448186E+04    0.49496E-04   -0.16004E-03 27024   0.643E-02    0.774E-02
DAV:  15    -0.109200444626E+04    0.35600E-04   -0.86949E-04 28656   0.498E-02    0.573E-02
DAV:  16    -0.109200439344E+04    0.52816E-04   -0.43421E-04 28896   0.338E-02    0.284E-02
DAV:  17    -0.109200438437E+04    0.90694E-05   -0.13107E-04 27840   0.185E-02    0.182E-02
DAV:  18    -0.109200438156E+04    0.28159E-05   -0.58332E-05 27024   0.120E-02    0.129E-02
DAV:  19    -0.109200437965E+04    0.19103E-05   -0.21020E-05 25248   0.723E-03    0.665E-03
DAV:  20    -0.109200437956E+04    0.84576E-07   -0.84563E-06 22128   0.505E-03
  19 F= -.10920044E+04 E0= -.10919026E+04  d E =-.576225E-01
       N       E                     dE             d eps       ncg     rms          rms(c)
DAV:   1    -0.109192950886E+04    0.74871E-01   -0.27158E+01 21072   0.914E+00    0.139E+00
DAV:   2    -0.109361826440E+04   -0.16888E+01   -0.46945E+00 29760   0.451E+00    0.787E+00
DAV:   3    -0.109217209748E+04    0.14462E+01   -0.35798E+00 26976   0.385E+00    0.252E+00
DAV:   4    -0.109213139040E+04    0.40707E-01   -0.75520E-01 30576   0.156E+00    0.198E+00
DAV:   5    -0.109209480867E+04    0.36582E-01   -0.49321E-01 28224   0.120E+00    0.153E+00
DAV:   6    -0.109205425346E+04    0.40555E-01   -0.15741E-01 27120   0.720E-01    0.770E-01
DAV:   7    -0.109204965072E+04    0.46027E-02   -0.55690E-02 28704   0.371E-01    0.574E-01
DAV:   8    -0.109205298469E+04   -0.33340E-02   -0.42525E-02 27696   0.366E-01    0.624E-01
DAV:   9    -0.109204860462E+04    0.43801E-02   -0.41901E-02 29088   0.344E-01    0.400E-01
DAV:  10    -0.109204640839E+04    0.21962E-02   -0.18709E-02 31488   0.241E-01    0.248E-01
DAV:  11    -0.109204563193E+04    0.77646E-03   -0.74784E-03 28704   0.133E-01    0.123E-01
DAV:  12    -0.109204550747E+04    0.12446E-03   -0.23585E-03 28176   0.750E-02    0.882E-02
DAV:  13    -0.109204542387E+04    0.83604E-04   -0.89181E-04 28080   0.493E-02    0.569E-02
DAV:  14    -0.109204541192E+04    0.11948E-04   -0.51643E-04 27744   0.368E-02    0.451E-02
DAV:  15    -0.109204540055E+04    0.11367E-04   -0.30834E-04 28368   0.296E-02    0.350E-02
DAV:  16    -0.109204538029E+04    0.20267E-04   -0.15046E-04 27936   0.195E-02    0.160E-02
DAV:  17    -0.109204537775E+04    0.25320E-05   -0.44436E-05 26304   0.106E-02    0.113E-02
DAV:  18    -0.109204537657E+04    0.11831E-05   -0.21323E-05 25008   0.715E-03    0.762E-03
DAV:  19    -0.109204537601E+04    0.56159E-06   -0.70731E-06 21744   0.457E-03
  20 F= -.10920454E+04 E0= -.10919432E+04  d E =-.986190E-01
       N       E                     dE             d eps       ncg     rms          rms(c)
DAV:   1    -0.109204949754E+04   -0.41210E-02   -0.32162E+00 20928   0.327E+00    0.428E-01
DAV:   2    -0.109248291710E+04   -0.43342E+00   -0.10145E+00 30960   0.200E+00    0.390E+00
DAV:   3    -0.109206659837E+04    0.41632E+00   -0.88104E-01 26448   0.173E+00    0.512E-01
DAV:   4    -0.109208273081E+04   -0.16132E-01   -0.94130E-02 31488   0.517E-01    0.883E-01
DAV:   5    -0.109206728772E+04    0.15443E-01   -0.69218E-02 27696   0.455E-01    0.420E-01
DAV:   6    -0.109206492952E+04    0.23582E-02   -0.12392E-02 28464   0.196E-01    0.234E-01
DAV:   7    -0.109206460344E+04    0.32608E-03   -0.54221E-03 29328   0.116E-01    0.188E-01
DAV:   8    -0.109206473393E+04   -0.13049E-03   -0.41594E-03 28272   0.111E-01    0.182E-01
DAV:   9    -0.109206439212E+04    0.34181E-03   -0.41421E-03 29088   0.107E-01    0.121E-01
DAV:  10    -0.109206422231E+04    0.16980E-03   -0.17086E-03 32016   0.716E-02    0.724E-02
DAV:  11    -0.109206416217E+04    0.60148E-04   -0.67490E-04 28992   0.439E-02    0.459E-02
DAV:  12    -0.109206413234E+04    0.29831E-04   -0.24122E-04 27312   0.259E-02    0.271E-02
DAV:  13    -0.109206412798E+04    0.43553E-05   -0.99366E-05 27312   0.171E-02    0.215E-02
DAV:  14    -0.109206412731E+04    0.67228E-06   -0.76484E-05 27024   0.143E-02    0.175E-02
DAV:  15    -0.109206412303E+04    0.42737E-05   -0.38968E-05 27312   0.114E-02    0.111E-02
DAV:  16    -0.109206412114E+04    0.18893E-05   -0.15594E-05 24096   0.635E-03    0.550E-03
DAV:  17    -0.109206412087E+04    0.27118E-06   -0.45562E-06 20208   0.360E-03
  21 F= -.10920641E+04 E0= -.10919620E+04  d E =-.187449E-01
       N       E                     dE             d eps       ncg     rms          rms(c)
DAV:   1    -0.109198644909E+04    0.77672E-01   -0.20432E+01 20592   0.826E+00    0.115E+00
DAV:   2    -0.109470676453E+04   -0.27203E+01   -0.58290E+00 30768   0.511E+00    0.952E+00
DAV:   3    -0.109209892888E+04    0.26078E+01   -0.45742E+00 26832   0.422E+00    0.131E+00
DAV:   4    -0.109222042394E+04   -0.12150E+00   -0.67422E-01 30864   0.136E+00    0.237E+00
DAV:   5    -0.109210900283E+04    0.11142E+00   -0.50408E-01 27984   0.123E+00    0.116E+00
DAV:   6    -0.109208916255E+04    0.19840E-01   -0.90526E-02 28800   0.534E-01    0.593E-01
DAV:   7    -0.109208759395E+04    0.15686E-02   -0.35218E-02 29088   0.293E-01    0.496E-01
DAV:   8    -0.109208795219E+04   -0.35824E-03   -0.25831E-02 28320   0.277E-01    0.445E-01
DAV:   9    -0.109208614220E+04    0.18100E-02   -0.26218E-02 28992   0.271E-01    0.316E-01
DAV:  10    -0.109208507300E+04    0.10692E-02   -0.11787E-02 32784   0.185E-01    0.190E-01
DAV:  11    -0.109208466399E+04    0.40902E-03   -0.46824E-03 28176   0.117E-01    0.129E-01
DAV:  12    -0.109208441937E+04    0.24462E-03   -0.17231E-03 27456   0.694E-02    0.704E-02
DAV:  13    -0.109208440428E+04    0.15094E-04   -0.72525E-04 27552   0.461E-02    0.611E-02
DAV:  14    -0.109208439261E+04    0.11665E-04   -0.58420E-04 28896   0.389E-02    0.477E-02
DAV:  15    -0.109208435709E+04    0.35523E-04   -0.27325E-04 27456   0.308E-02    0.285E-02
DAV:  16    -0.109208434587E+04    0.11216E-04   -0.10860E-04 27984   0.163E-02    0.149E-02
DAV:  17    -0.109208434402E+04    0.18494E-05   -0.32607E-05 26928   0.887E-03    0.878E-03
DAV:  18    -0.109208434342E+04    0.60006E-06   -0.12685E-05 23808   0.580E-03    0.652E-03
DAV:  19    -0.109208434304E+04    0.38941E-06   -0.55939E-06 20928   0.422E-03
  22 F= -.10920843E+04 E0= -.10919824E+04  d E =-.389670E-01
       N       E                     dE             d eps       ncg     rms          rms(c)
DAV:   1    -0.109208161103E+04    0.27324E-02   -0.34768E+00 20928   0.334E+00    0.460E-01
DAV:   2    -0.109271471092E+04   -0.63310E+00   -0.14092E+00 31440   0.230E+00    0.472E+00
DAV:   3    -0.109209664988E+04    0.61806E+00   -0.12456E+00 27072   0.204E+00    0.490E-01
DAV:   4    -0.109211733836E+04   -0.20688E-01   -0.11019E-01 30864   0.556E-01    0.957E-01
DAV:   5    -0.109209863017E+04    0.18708E-01   -0.78001E-02 27024   0.485E-01    0.414E-01
DAV:   6    -0.109209641246E+04    0.22177E-02   -0.12475E-02 28944   0.202E-01    0.244E-01
DAV:   7    -0.109209619236E+04    0.22010E-03   -0.64119E-03 28848   0.129E-01    0.203E-01
DAV:   8    -0.109209615128E+04    0.41080E-04   -0.51530E-03 29472   0.119E-01    0.185E-01
DAV:   9    -0.109209581130E+04    0.33998E-03   -0.41747E-03 29472   0.108E-01    0.125E-01
DAV:  10    -0.109209568191E+04    0.12938E-03   -0.19674E-03 32880   0.754E-02    0.805E-02
DAV:  11    -0.109209557119E+04    0.11072E-03   -0.71165E-04 27552   0.457E-02    0.456E-02
DAV:  12    -0.109209554078E+04    0.30413E-04   -0.21889E-04 28080   0.245E-02    0.260E-02
DAV:  13    -0.109209553963E+04    0.11502E-05   -0.11027E-04 26976   0.182E-02    0.227E-02
DAV:  14    -0.109209553907E+04    0.55590E-06   -0.96108E-05 26928   0.153E-02    0.197E-02
DAV:  15    -0.109209553323E+04    0.58434E-05   -0.43964E-05 26304   0.114E-02    0.979E-03
DAV:  16    -0.109209553173E+04    0.15017E-05   -0.13202E-05 23664   0.620E-03    0.551E-03
DAV:  17    -0.109209553145E+04    0.28051E-06   -0.48077E-06 19728   0.369E-03
  23 F= -.10920955E+04 E0= -.10919936E+04  d E =-.111884E-01
       N       E                     dE             d eps       ncg     rms          rms(c)
DAV:   1    -0.109207056478E+04    0.24967E-01   -0.76050E+00 21312   0.494E+00    0.687E-01
DAV:   2    -0.109344972007E+04   -0.13792E+01   -0.29493E+00 31200   0.341E+00    0.692E+00
DAV:   3    -0.109210257762E+04    0.13471E+01   -0.25409E+00 27408   0.299E+00    0.717E-01
DAV:   4    -0.109215041561E+04   -0.47838E-01   -0.24675E-01 31392   0.831E-01    0.144E+00
DAV:   5    -0.109210760110E+04    0.42815E-01   -0.17600E-01 27120   0.725E-01    0.618E-01
DAV:   6    -0.109210257848E+04    0.50226E-02   -0.27522E-02 28416   0.299E-01    0.361E-01
DAV:   7    -0.109210218637E+04    0.39211E-03   -0.13951E-02 28416   0.190E-01    0.306E-01
DAV:   8    -0.109210203686E+04    0.14951E-03   -0.11140E-02 29328   0.176E-01    0.272E-01
DAV:   9    -0.109210133835E+04    0.69851E-03   -0.92752E-03 29808   0.160E-01    0.189E-01
DAV:  10    -0.109210105598E+04    0.28237E-03   -0.45186E-03 32592   0.114E-01    0.123E-01
DAV:  11    -0.109210079126E+04    0.26471E-03   -0.15811E-03 27936   0.685E-02    0.677E-02
DAV:  12    -0.109210072457E+04    0.66696E-04   -0.47889E-04 28368   0.363E-02    0.393E-02
DAV:  13    -0.109210072326E+04    0.13047E-05   -0.25242E-04 27216   0.274E-02    0.349E-02
DAV:  14    -0.109210072112E+04    0.21411E-05   -0.21966E-04 27936   0.232E-02    0.298E-02
DAV:  15    -0.109210070776E+04    0.13360E-04   -0.10066E-04 27024   0.173E-02    0.149E-02
DAV:  16    -0.109210070442E+04    0.33398E-05   -0.30788E-05 25968   0.936E-03    0.831E-03
DAV:  17    -0.109210070390E+04    0.52504E-06   -0.11604E-05 23376   0.536E-03    0.555E-03
DAV:  18    -0.109210070359E+04    0.31004E-06   -0.39842E-06 18144   0.356E-03
  24 F= -.10921007E+04 E0= -.10919989E+04  d E =-.163605E-01
       N       E                     dE             d eps       ncg     rms          rms(c)
DAV:   1    -0.109209557616E+04    0.51277E-02   -0.36814E+00 20304   0.326E+00    0.512E-01
DAV:   2    -0.109283889191E+04   -0.74332E+00   -0.16109E+00 31104   0.247E+00    0.516E+00
DAV:   3    -0.109211239026E+04    0.72650E+00   -0.14716E+00 27408   0.222E+00    0.647E-01
DAV:   4    -0.109212989010E+04   -0.17500E-01   -0.12504E-01 29040   0.598E-01    0.964E-01
DAV:   5    -0.109211176183E+04    0.18128E-01   -0.87026E-02 27504   0.513E-01    0.474E-01
DAV:   6    -0.109210883588E+04    0.29260E-02   -0.16734E-02 28320   0.232E-01    0.279E-01
DAV:   7    -0.109210824342E+04    0.59246E-03   -0.81163E-03 29232   0.145E-01    0.204E-01
DAV:   8    -0.109210839188E+04   -0.14846E-03   -0.61398E-03 28896   0.134E-01    0.204E-01
DAV:   9    -0.109210780861E+04    0.58328E-03   -0.49963E-03 28128   0.119E-01    0.115E-01
DAV:  10    -0.109210764606E+04    0.16255E-03   -0.18630E-03 31104   0.698E-02    0.612E-02
DAV:  11    -0.109210759595E+04    0.50105E-04   -0.53214E-04 28128   0.387E-02    0.366E-02
DAV:  12    -0.109210758270E+04    0.13253E-04   -0.19269E-04 27504   0.239E-02    0.257E-02
DAV:  13    -0.109210757962E+04    0.30816E-05   -0.10409E-04 26976   0.175E-02    0.203E-02
DAV:  14    -0.109210758054E+04   -0.91951E-06   -0.76390E-05 27456   0.154E-02    0.202E-02
DAV:  15    -0.109210757525E+04    0.52860E-05   -0.42941E-05 25200   0.115E-02    0.118E-02
DAV:  16    -0.109210757308E+04    0.21729E-05   -0.16189E-05 24240   0.709E-03    0.718E-03
DAV:  17    -0.109210757234E+04    0.74053E-06   -0.59438E-06 20544   0.408E-03
  25 F= -.10921076E+04 E0= -.10920057E+04  d E =-.686875E-02
       N       E                     dE             d eps       ncg     rms          rms(c)
DAV:   1    -0.109210574780E+04    0.18253E-02   -0.74072E-01 20256   0.146E+00    0.230E-01
DAV:   2    -0.109225592971E+04   -0.15018E+00   -0.33773E-01 31392   0.111E+00    0.233E+00
DAV:   3    -0.109210930705E+04    0.14662E+00   -0.31092E-01 27264   0.101E+00    0.296E-01
DAV:   4    -0.109211278696E+04   -0.34799E-02   -0.25367E-02 29136   0.270E-01    0.436E-01
DAV:   5    -0.109210903911E+04    0.37479E-02   -0.17638E-02 27648   0.233E-01    0.211E-01
DAV:   6    -0.109210847385E+04    0.56526E-03   -0.33607E-03 27840   0.104E-01    0.126E-01
DAV:   7    -0.109210834687E+04    0.12698E-03   -0.16600E-03 29712   0.654E-02    0.910E-02
DAV:   8    -0.109210838081E+04   -0.33939E-04   -0.12355E-03 28656   0.602E-02    0.918E-02
DAV:   9    -0.109210826062E+04    0.12019E-03   -0.99319E-04 28224   0.534E-02    0.512E-02
DAV:  10    -0.109210822968E+04    0.30941E-04   -0.37151E-04 31488   0.311E-02    0.289E-02
DAV:  11    -0.109210822021E+04    0.94683E-05   -0.11554E-04 27120   0.179E-02    0.186E-02
DAV:  12    -0.109210821717E+04    0.30384E-05   -0.44714E-05 26736   0.120E-02    0.139E-02
DAV:  13    -0.109210821529E+04    0.18786E-05   -0.22744E-05 24864   0.870E-03    0.993E-03
DAV:  14    -0.109210821518E+04    0.11040E-06   -0.17963E-05 24768   0.709E-03    0.885E-03
DAV:  15    -0.109210821415E+04    0.10372E-05   -0.93849E-06 22512   0.526E-03    0.472E-03
DAV:  16    -0.109210821371E+04    0.43694E-06   -0.28144E-06 16896   0.335E-03
  26 F= -.10921082E+04 E0= -.10920063E+04  d E =-.751012E-02
       N       E                     dE             d eps       ncg     rms          rms(c)
DAV:   1    -0.109210680673E+04    0.14074E-02   -0.88415E-01 20064   0.165E+00    0.257E-01
DAV:   2    -0.109223301050E+04   -0.12620E+00   -0.30275E-01 31584   0.107E+00    0.218E+00
DAV:   3    -0.109211230497E+04    0.12071E+00   -0.27708E-01 26928   0.951E-01    0.356E-01
DAV:   4    -0.109211532995E+04   -0.30250E-02   -0.29145E-02 28512   0.295E-01    0.464E-01
DAV:   5    -0.109211145387E+04    0.38761E-02   -0.20823E-02 27024   0.254E-01    0.251E-01
DAV:   6    -0.109211059825E+04    0.85562E-03   -0.48907E-03 27888   0.129E-01    0.151E-01
DAV:   7    -0.109211036527E+04    0.23298E-03   -0.23424E-03 28224   0.768E-02    0.101E-01
DAV:   8    -0.109211038307E+04   -0.17797E-04   -0.14016E-03 28080   0.660E-02    0.955E-02
DAV:   9    -0.109211029355E+04    0.89518E-04   -0.13616E-03 28176   0.585E-02    0.696E-02
DAV:  10    -0.109211021235E+04    0.81204E-04   -0.50802E-04 30384   0.390E-02    0.289E-02
DAV:  11    -0.109211020701E+04    0.53382E-05   -0.16389E-04 27792   0.203E-02    0.220E-02
DAV:  12    -0.109211020180E+04    0.52089E-05   -0.58384E-05 27504   0.131E-02    0.140E-02
DAV:  13    -0.109211020012E+04    0.16831E-05   -0.24282E-05 25152   0.894E-03    0.106E-02
DAV:  14    -0.109211019964E+04    0.47274E-06   -0.17821E-05 25200   0.732E-03    0.869E-03
DAV:  15    -0.109211019881E+04    0.83019E-06   -0.98244E-06 22800   0.547E-03
  27 F= -.10921102E+04 E0= -.10920083E+04  d E =-.198511E-02
       N       E                     dE             d eps       ncg     rms          rms(c)
DAV:   1    -0.109210965707E+04    0.54257E-03   -0.16476E-01 20256   0.712E-01    0.110E-01
DAV:   2    -0.109213340188E+04   -0.23745E-01   -0.57166E-02 31680   0.459E-01    0.948E-01
DAV:   3    -0.109211067392E+04    0.22728E-01   -0.51688E-02 26928   0.418E-01    0.154E-01
DAV:   4    -0.109211122142E+04   -0.54749E-03   -0.54098E-03 28896   0.127E-01    0.199E-01
DAV:   5    -0.109211050100E+04    0.72042E-03   -0.38216E-03 27264   0.109E-01    0.107E-01
DAV:   6    -0.109211035160E+04    0.14940E-03   -0.89486E-04 27312   0.550E-02    0.657E-02
DAV:   7    -0.109211030639E+04    0.45208E-04   -0.43554E-04 27312   0.331E-02    0.432E-02
DAV:   8    -0.109211031193E+04   -0.55376E-05   -0.26699E-04 27936   0.286E-02    0.422E-02
DAV:   9    -0.109211029302E+04    0.18907E-04   -0.25600E-04 28224   0.252E-02    0.291E-02
DAV:  10    -0.109211027854E+04    0.14478E-04   -0.88797E-05 29088   0.166E-02    0.124E-02
DAV:  11    -0.109211027775E+04    0.79683E-06   -0.30225E-05 26880   0.868E-03    0.941E-03
DAV:  12    -0.109211027672E+04    0.10242E-05   -0.10484E-05 23136   0.566E-03    0.596E-03
DAV:  13    -0.109211027634E+04    0.37870E-06   -0.42002E-06 18336   0.404E-03
  28 F= -.10921103E+04 E0= -.10920084E+04  d E =-.206263E-02
       N       E                     dE             d eps       ncg     rms          rms(c)
DAV:   1    -0.109210954576E+04    0.73096E-03   -0.40770E-01 20736   0.111E+00    0.155E-01
DAV:   2    -0.109213223996E+04   -0.22694E-01   -0.66440E-02 30672   0.528E-01    0.919E-01
DAV:   3    -0.109211234313E+04    0.19897E-01   -0.54540E-02 26784   0.435E-01    0.238E-01
DAV:   4    -0.109211260084E+04   -0.25771E-03   -0.92289E-03 30672   0.168E-01    0.245E-01
DAV:   5    -0.109211171544E+04    0.88540E-03   -0.62501E-03 27696   0.138E-01    0.155E-01
DAV:   6    -0.109211135905E+04    0.35639E-03   -0.18533E-03 27312   0.799E-02    0.923E-02
DAV:   7    -0.109211127779E+04    0.81258E-04   -0.85056E-04 27648   0.472E-02    0.653E-02
DAV:   8    -0.109211129261E+04   -0.14822E-04   -0.59827E-04 27216   0.432E-02    0.658E-02
DAV:   9    -0.109211125633E+04    0.36280E-04   -0.62091E-04 28128   0.386E-02    0.477E-02
DAV:  10    -0.109211121785E+04    0.38481E-04   -0.23130E-04 29712   0.272E-02    0.243E-02
DAV:  11    -0.109211121095E+04    0.68967E-05   -0.78304E-05 28560   0.144E-02    0.132E-02
DAV:  12    -0.109211120980E+04    0.11572E-05   -0.29062E-05 26784   0.873E-03    0.988E-03
DAV:  13    -0.109211120870E+04    0.11004E-05   -0.12226E-05 23520   0.579E-03    0.627E-03
DAV:  14    -0.109211120831E+04    0.38775E-06   -0.56051E-06 20592   0.444E-03
  29 F= -.10921112E+04 E0= -.10920094E+04  d E =-.931966E-03
       N       E                     dE             d eps       ncg     rms          rms(c)
DAV:   1    -0.109211122128E+04   -0.12581E-04   -0.29336E-03 21744   0.946E-02    0.135E-02
DAV:   2    -0.109211142264E+04   -0.20136E-03   -0.55825E-04 30816   0.477E-02    0.863E-02
DAV:   3    -0.109211124235E+04    0.18029E-03   -0.47053E-04 26544   0.409E-02    0.217E-02
DAV:   4    -0.109211124438E+04   -0.20301E-05   -0.74836E-05 28128   0.150E-02    0.221E-02
DAV:   5    -0.109211123653E+04    0.78508E-05   -0.48995E-05 24528   0.122E-02    0.127E-02
DAV:   6    -0.109211123439E+04    0.21379E-05   -0.13554E-05 21936   0.694E-03    0.833E-03
DAV:   7    -0.109211123363E+04    0.76630E-06   -0.62522E-06 20832   0.428E-03    0.539E-03
DAV:   8    -0.109211123377E+04   -0.13979E-06   -0.40397E-06 19104   0.393E-03    0.582E-03
DAV:   9    -0.109211123347E+04    0.29213E-06   -0.42391E-06 19248   0.367E-03    0.399E-03
DAV:  10    -0.109211123319E+04    0.28383E-06   -0.11027E-06 13104   0.271E-03
  30 F= -.10921112E+04 E0= -.10920094E+04  d E =-.956847E-03
       N       E                     dE             d eps       ncg     rms          rms(c)
DAV:   1    -0.109211095606E+04    0.27741E-03   -0.15065E-01 21312   0.660E-01    0.859E-02
DAV:   2    -0.109211206693E+04   -0.11109E-02   -0.89967E-03 29904   0.201E-01    0.182E-01
DAV:   3    -0.109211218937E+04   -0.12244E-03   -0.44213E-03 30144   0.122E-01    0.178E-01
DAV:   4    -0.109211153848E+04    0.65089E-03   -0.25986E-03 28752   0.909E-02    0.757E-02
DAV:   5    -0.109211171529E+04   -0.17682E-03   -0.99331E-04 27360   0.544E-02    0.105E-01
DAV:   6    -0.109211151419E+04    0.20110E-03   -0.95898E-04 28896   0.548E-02    0.607E-02
DAV:   7    -0.109211146319E+04    0.51003E-04   -0.32777E-04 27744   0.303E-02    0.374E-02
DAV:   8    -0.109211147044E+04   -0.72534E-05   -0.20524E-04 29328   0.260E-02    0.398E-02
DAV:   9    -0.109211144962E+04    0.20824E-04   -0.19820E-04 28752   0.227E-02    0.244E-02
DAV:  10    -0.109211144173E+04    0.78894E-05   -0.70142E-05 26832   0.145E-02    0.159E-02
DAV:  11    -0.109211143834E+04    0.33830E-05   -0.27562E-05 24960   0.861E-03    0.808E-03
DAV:  12    -0.109211143775E+04    0.59804E-06   -0.93049E-06 23472   0.523E-03
  31 F= -.10921114E+04 E0= -.10920096E+04  d E =-.204555E-03
       N       E                     dE             d eps       ncg     rms          rms(c)
DAV:   1    -0.109211141271E+04    0.25635E-04   -0.39658E-03 21696   0.107E-01    0.145E-02
DAV:   2    -0.109211144654E+04   -0.33834E-04   -0.25609E-04 29952   0.337E-02    0.327E-02
DAV:   3    -0.109211145742E+04   -0.10880E-04   -0.16184E-04 29952   0.235E-02    0.379E-02
DAV:   4    -0.109211142719E+04    0.30230E-04   -0.10270E-04 25440   0.174E-02    0.120E-02
DAV:   5    -0.109211143306E+04   -0.58659E-05   -0.28895E-05 23280   0.940E-03    0.177E-02
DAV:   6    -0.109211142692E+04    0.61406E-05   -0.26847E-05 21120   0.946E-03    0.984E-03
DAV:   7    -0.109211142570E+04    0.12151E-05   -0.89227E-06 20448   0.520E-03    0.651E-03
DAV:   8    -0.109211142589E+04   -0.18804E-06   -0.59856E-06 21120   0.457E-03    0.723E-03
DAV:   9    -0.109211142515E+04    0.74467E-06   -0.51774E-06 20208   0.411E-03    0.353E-03
DAV:  10    -0.109211142507E+04    0.72010E-07   -0.13869E-06 14112   0.276E-03
  32 F= -.10921114E+04 E0= -.10920096E+04  d E =-.191883E-03
       N       E                     dE             d eps       ncg     rms          rms(c)
DAV:   1    -0.109211131923E+04    0.10591E-03   -0.73979E-02 21120   0.449E-01    0.588E-02
DAV:   2    -0.109211266674E+04   -0.13475E-02   -0.56157E-03 30624   0.156E-01    0.225E-01
DAV:   3    -0.109211186110E+04    0.80564E-03   -0.40603E-03 28032   0.119E-01    0.113E-01
DAV:   4    -0.109211156491E+04    0.29619E-03   -0.11261E-03 28944   0.629E-02    0.487E-02
DAV:   5    -0.109211171975E+04   -0.15485E-03   -0.67269E-04 28224   0.437E-02    0.897E-02
DAV:   6    -0.109211155838E+04    0.16137E-03   -0.60771E-04 27744   0.430E-02    0.397E-02
DAV:   7    -0.109211153786E+04    0.20517E-04   -0.14427E-04 27024   0.192E-02    0.240E-02
DAV:   8    -0.109211154225E+04   -0.43832E-05   -0.10652E-04 27408   0.177E-02    0.271E-02
DAV:   9    -0.109211153345E+04    0.87986E-05   -0.86746E-05 26736   0.153E-02    0.164E-02
DAV:  10    -0.109211152932E+04    0.41268E-05   -0.33361E-05 25680   0.104E-02    0.108E-02
DAV:  11    -0.109211152776E+04    0.15657E-05   -0.14745E-05 23328   0.635E-03    0.560E-03
DAV:  12    -0.109211152745E+04    0.30546E-06   -0.47602E-06 20016   0.387E-03
  33 F= -.10921115E+04 E0= -.10920097E+04  d E =-.102377E-03
       N       E                     dE             d eps       ncg     rms          rms(c)
DAV:   1    -0.109211151801E+04    0.97491E-05   -0.22563E-03 21504   0.785E-02    0.107E-02
DAV:   2    -0.109211155844E+04   -0.40437E-04   -0.17541E-04 30528   0.275E-02    0.394E-02
DAV:   3    -0.109211153660E+04    0.21846E-04   -0.13043E-04 26352   0.212E-02    0.216E-02
DAV:   4    -0.109211152549E+04    0.11105E-04   -0.40646E-05 24624   0.121E-02    0.901E-03
DAV:   5    -0.109211153136E+04   -0.58669E-05   -0.25119E-05 22272   0.855E-03    0.174E-02
DAV:   6    -0.109211152496E+04    0.64045E-05   -0.21260E-05 20208   0.815E-03    0.666E-03
DAV:   7    -0.109211152448E+04    0.47882E-06   -0.41273E-06 18240   0.363E-03    0.439E-03
DAV:   8    -0.109211152456E+04   -0.78391E-07   -0.26778E-06 16752   0.339E-03    0.459E-03
DAV:   9    -0.109211152426E+04    0.29257E-06   -0.19189E-06 15456   0.305E-03    0.255E-03
DAV:  10    -0.109211152420E+04    0.64909E-07   -0.78396E-07 12480   0.217E-03
  34 F= -.10921115E+04 E0= -.10920097E+04  d E =-.991240E-04
       N       E                     dE             d eps       ncg     rms          rms(c)
DAV:   1    -0.109211141572E+04    0.10855E-03   -0.64776E-02 20640   0.418E-01    0.610E-02
DAV:   2    -0.109211383480E+04   -0.24191E-02   -0.75995E-03 29904   0.179E-01    0.301E-01
DAV:   3    -0.109211188714E+04    0.19477E-02   -0.63374E-03 26784   0.151E-01    0.112E-01
DAV:   4    -0.109211171272E+04    0.17443E-03   -0.13007E-03 29376   0.645E-02    0.714E-02
DAV:   5    -0.109211172225E+04   -0.95368E-05   -0.80636E-04 28224   0.486E-02    0.721E-02
DAV:   6    -0.109211163747E+04    0.84779E-04   -0.39896E-04 26880   0.351E-02    0.415E-02
DAV:   7    -0.109211161237E+04    0.25109E-04   -0.13593E-04 27792   0.192E-02    0.218E-02
DAV:   8    -0.109211161736E+04   -0.49994E-05   -0.85952E-05 26928   0.163E-02    0.256E-02
DAV:   9    -0.109211160840E+04    0.89611E-05   -0.87558E-05 29088   0.146E-02    0.146E-02
DAV:  10    -0.109211160427E+04    0.41318E-05   -0.24754E-05 24960   0.844E-03    0.734E-03
DAV:  11    -0.109211160387E+04    0.40213E-06   -0.91089E-06 23088   0.449E-03
  35 F= -.10921116E+04 E0= -.10920098E+04  d E =-.796721E-04
