Ta32 Ti34 Nb32 W10
1.0
   9.1216997255111210    0.0000000000000000    0.0000000000000000
   0.0000000000000000    8.3788097184575001    0.0000000000000000
   0.0000000000000000   -1.8619591595323015   23.6988662189480159
Ta Ti Nb W
32 34 32 10
Selective dynamics
direct
   0.4994571676000188    0.2716467793135683    0.2221844125832531 F F T Ta
   0.0007011838891362    0.2714538714656710    0.2222969547399315 F F T Ta
   0.2495600548973154    0.2342523429390939    0.0552218671863136 F F T Ta
   0.4999658814041453    0.8021739085754823    0.1106250486140423 F F T Ta
   0.0000479543384657    0.4692976496988139    0.1107595639448087 F F T Ta
   0.0014814358292294    0.5435699706493144    0.4441870424789326 F F T Ta
   0.2504715557544857    0.9131773802716825    0.6108685672411065 F F T Ta
   0.0006088878015314    0.6666076588213419    0.0000564157924039 F F T Ta
   0.7506980600066611    0.6047849213400354    0.7223370811846667 F F T Ta
   0.4998717066019089    0.7408308445903838    0.3332488289665618 F F T Ta
   0.2497759176542704    0.9379307025030689    0.7219820401393814 F F T Ta
  -0.0001538777245262    0.3957238207197882    0.7776772436159906 F F T Ta
   0.0005745086022187    0.4818789560999063    0.6665706801487550 F F T Ta
   0.2495106240223294    0.6298766210526201    0.8333599043358833 F F T Ta
   0.7497640967820619    0.2468747470209976    0.6113127594073537 F F T Ta
   0.0012324422402965    0.8145454977592199    0.6667589202653421 F F T Ta
   0.2498146343417189    0.8396302278720349    0.2778721876399691 F F T Ta
   0.4992161048643542    0.8151457457175316    0.6663259174694899 F F T Ta
   0.5003964755988403    0.7286765415301181    0.7779960255058993 F F T Ta
   0.4996118710759145   -0.0011433538810214    0.0002092495871261 F F T Ta
   0.5001801896752340    0.0616772396266408    0.7777102048961968 F F T Ta
   0.4999855333282915    0.4071838780510454    0.3335002845253261 F F T Ta
   0.0003203214657926    0.9383532032136430    0.2222758329792449 F F T Ta
   0.2491167970940612    0.6422481663243672    0.3892463970274340 F F T Ta
   0.4995821383535909    0.6670023486036449    0.0000962085192487 F F T Ta
   0.7502763096117065    0.5810557200344321    0.6108467221356220 F F T Ta
   0.7504420632422223    0.9133084181465327    0.6109905865278420 F F T Ta
   0.0002089534286128    0.1356638149761559    0.1106420942708451 F F T Ta
   0.2497824446881278   -0.0373439913924444    0.8332720978506815 F F T Ta
   0.5009183035403245    0.5312864656396304    0.8896547066660992 F F T Ta
  -0.0002256248757224    0.8654362066482904    0.8894052059858858 F F T Ta
   0.2499611531302305    0.5057807047046099    0.2777786518139822 F F T Ta
   0.4993217237138038    0.6793158029515874    0.5558412334762918 F F T Ti
   0.0006181661184688    1.0124481247724837    0.5556698044370203 F F T Ti
   0.5000270802090673    0.4810000688047976    0.6666470210034284 F F T Ti
   0.7503350559090847    0.2342907249937396    0.0554064020510288 F F T Ti
   0.5001069796275747    0.2100556443201722    0.4442993439930025 F F T Ti
   0.7500853215986627    0.8394636194538327    0.2778550345578690 F F T Ti
   0.7501204241673179    0.1728083827574893    0.2779134634888824 F F T Ti
   0.7498964864102219    0.0368752782837385    0.1665200910555622 F F T Ti
  -0.0000511899232333    0.5310942370089340    0.8887023250580404 F F T Ti
   0.7485847158406278    0.9763092256809179    0.3890418402806057 F F T Ti
   0.5000746504558943    0.8636602026153388    0.8896041809652653 F F T Ti
   0.4998462243517314    0.3339853512107714   -0.0000119449792834 F F T Ti
   0.5002779828903824    0.1976544023906891    0.8889666155683655 F F T Ti
   0.0004289236194867    0.7410764386612799    0.3334865845305007 F F T Ti
   0.7492359320902069    0.3084323164670445    0.3892039890393464 F F T Ti
   0.4990507496593882    0.8776979298470154    0.4445007074576243 F F T Ti
   0.7504724678271103    0.0988042778281106    0.9444180717995363 F F T Ti
   0.7502944376332240    0.9388364313237343    0.7222225599458375 F F T Ti
   0.2495517935165419    0.6047767804277637    0.7218703431924005 F F T Ti
   0.2492706110137771    0.9757584438361699    0.3894639861429106 F F T Ti
   0.0004841176504550    0.3457357236761192    0.5558272347654557 F F T Ti
   0.4998581739266997    0.1354622718799323    0.1107399222769636 F F T Ti
   0.7495056616346191    0.6418650693382324    0.3890133779922089 F F T Ti
   0.7498974037428945    0.7653940410433567    0.9442398911268398 F F T Ti
   0.7502289433568059    0.7779983391240096    0.4998680576375514 F F T Ti
   0.2498951653222598    0.2962047401270065    0.8333550674743501 F F T Ti
   0.0007319690377400    0.0738317749031759    0.3333241389969969 F F T Ti
   0.5005552856449084    0.6047428335218104    0.2219207200823024 F F T Ti
   0.7498102399859732    0.4441999601394521    0.4999738191343905 F F T Ti
   0.5003063270432624    0.3949014037912700    0.7778945817211680 F F T Ti
   0.0003011545578601    0.4072743069103680    0.3333297782578192 F F T Ti
   0.2500659537346776    0.3704063254193370    0.1666646156521340 F F T Ti
   0.0004593157159999    0.6789832202633281    0.5556994616071530 F F T Ti
   0.7499589664007379    0.5063592425798463    0.2778279007604584 F F T Ti
   0.0034042081272116    0.8767959056917347    0.4443379516513961 F F T Nb
  -0.0007955497985423    0.1952985282896562    0.8889021362158046 F F T Nb
   0.4998168687279926    0.4696696418618501    0.1108445805938887 F F T Nb
   0.2529331584649590    0.1092526678883353    0.4991768249129459 F F T Nb
   0.4975832870308235    0.3443314416366907    0.5556765570889036 F F T Nb
   0.2514682671844912    0.2717909953123099    0.7228563909179352 F F T Nb
   0.7498894854668198    0.1109307047492119    0.4999650255851756 F F T Nb
  -0.0000199308522110    0.0000703622095242   -0.0001746784517552 F F T Nb
   0.7503600807643558    0.6299838508233165    0.8337254542792184 F F T Nb
   0.7513694862986319    0.2702935669341395    0.7229465459648501 F F T Nb
   0.2501330520519929    0.7789944192152753    0.4998775633385416 F F T Nb
   0.2504580636488039    0.7647494334576714    0.9442539053911181 F F T Nb
   0.2492790023416740    0.4429579361835852    0.4994514799096101 F F T Nb
   0.0009289644364851    0.3332906532471155   -0.0000259359246489 F F T Nb
  -0.0000702346542182    0.8022590968801209    0.1113915522971861 F F T Nb
   0.7487214725870281    0.9023197069522408    0.0557467007561002 F F T Nb
   0.5005938200933709    0.0741375479170192    0.3337247156851078 F F T Nb
   0.5008810097877678    0.5448641372000534    0.4439628845172769 F F T Nb
   0.7495892499498003    0.2958509343167380    0.8331660554124600 F F T Nb
   0.7500503501359642   -0.0397607790929405    0.8334601901535476 F F T Nb
   0.0003188102599387    0.6049147945813583    0.2220188481800910 F F T Nb
  -0.0013161395295951    0.1472874925165390    0.6670689401932420 F F T Nb
   0.7498685242076365    0.5681172583552133    0.0555269802144306 F F T Nb
   0.4996707942471540    0.9379618286792648    0.2222487277888263 F F T Nb
   0.7498829497651244    0.3706572190909232    0.1665311362689704 F F T Nb
   0.4957225303476437    1.0134095423452687    0.5552737998694196 F F T Nb
   0.2511062279074470    0.9013176796231244    0.0552915934497340 F F T Nb
   0.0012608868751333    0.2095496916732741    0.4442796182522069 F F T Nb
   0.2500160050277864    0.0370296751092705    0.1666748385297163 F F T Nb
   0.2483608885329880    0.5832086734001415    0.6106357076716401 F F T Nb
   0.2507630857270932    0.2463693382919188    0.6104611992979506 F F T Nb
   0.7475495221513716    0.4324967998167021    0.9445207599043237 F F T Nb
   0.2500587314067091    0.5679034286394304    0.0553548956246068 F F T W
   0.2494184020951366    0.0987176164971936    0.9448121444358643 F F T W
   0.2502745500970799    0.7036859495596346    0.1666768861842307 F F T W
   0.2494411266852071    0.1737465933776552    0.2777928376900672 F F T W
  -0.0000370588735282    0.7275647030239084    0.7778233066028649 F F T W
   0.2493584891262904    0.3079566517367728    0.3895648227731496 F F T W
  -0.0004602528333926    0.0619768233643483    0.7776907264989419 F F T W
   0.2498069767961148    0.4324562618593931    0.9448492218075097 F F T W
   0.7499436562060972    0.7035084527947443    0.1665267452015047 F F T W
   0.4996546992342818    0.1491297550667244    0.6665379891809190 F F T W
