Generated by pymatgen.io.lammps.data.LammpsData

2000  atoms

   4  atom types

0.000000 10.000000  xlo xhi
0.000000 10.000000  ylo yhi
0.000000 10.000000  zlo zhi
0.000000 0.000000 0.000000  xy xz yz

Masses

1  55.845
2   1.008
3   4.003
4  51.996

Atoms

1     4 0.000000 0.000000 0.000000
2     4 0.000000 0.000000 1.000000
3     4 0.000000 0.000000 2.000000
4     4 0.000000 0.000000 3.000000
5     4 0.000000 0.000000 4.000000
6     4 0.000000 0.000000 5.000000
7     4 0.000000 0.000000 6.000000
8     4 0.000000 0.000000 7.000000
9     4 0.000000 0.000000 8.000000
10    4 0.000000 0.000000 9.000000
11    4 0.000000 1.000000 0.000000
12    4 0.000000 1.000000 1.000000
13    4 0.000000 1.000000 2.000000
14    4 0.000000 1.000000 3.000000
15    4 0.000000 1.000000 4.000000
16    4 0.000000 1.000000 5.000000
17    4 0.000000 1.000000 6.000000
18    4 0.000000 1.000000 7.000000
19    4 0.000000 1.000000 8.000000
20    4 0.000000 1.000000 9.000000
21    4 0.000000 2.000000 0.000000
22    4 0.000000 2.000000 1.000000
23    4 0.000000 2.000000 2.000000
24    4 0.000000 2.000000 3.000000
25    4 0.000000 2.000000 4.000000
26    4 0.000000 2.000000 5.000000
27    4 0.000000 2.000000 6.000000
28    4 0.000000 2.000000 7.000000
29    4 0.000000 2.000000 8.000000
30    4 0.000000 2.000000 9.000000
31    4 0.000000 3.000000 0.000000
32    4 0.000000 3.000000 1.000000
33    4 0.000000 3.000000 2.000000
34    4 0.000000 3.000000 3.000000
35    4 0.000000 3.000000 4.000000
36    4 0.000000 3.000000 5.000000
37    4 0.000000 3.000000 6.000000
38    4 0.000000 3.000000 7.000000
39    4 0.000000 3.000000 8.000000
40    4 0.000000 3.000000 9.000000
41    4 0.000000 4.000000 0.000000
42    4 0.000000 4.000000 1.000000
43    4 0.000000 4.000000 2.000000
44    4 0.000000 4.000000 3.000000
45    4 0.000000 4.000000 4.000000
46    4 0.000000 4.000000 5.000000
47    4 0.000000 4.000000 6.000000
48    4 0.000000 4.000000 7.000000
49    4 0.000000 4.000000 8.000000
50    4 0.000000 4.000000 9.000000
51    4 0.000000 5.000000 0.000000
52    4 0.000000 5.000000 1.000000
53    4 0.000000 5.000000 2.000000
54    4 0.000000 5.000000 3.000000
55    4 0.000000 5.000000 4.000000
56    4 0.000000 5.000000 5.000000
57    4 0.000000 5.000000 6.000000
58    4 0.000000 5.000000 7.000000
59    4 0.000000 5.000000 8.000000
60    4 0.000000 5.000000 9.000000
61    4 0.000000 6.000000 0.000000
62    4 0.000000 6.000000 1.000000
63    4 0.000000 6.000000 2.000000
64    4 0.000000 6.000000 3.000000
65    4 0.000000 6.000000 4.000000
66    4 0.000000 6.000000 5.000000
67    4 0.000000 6.000000 6.000000
68    4 0.000000 6.000000 7.000000
69    4 0.000000 6.000000 8.000000
70    4 0.000000 6.000000 9.000000
71    4 0.000000 7.000000 0.000000
72    4 0.000000 7.000000 1.000000
73    4 0.000000 7.000000 2.000000
74    4 0.000000 7.000000 3.000000
75    4 0.000000 7.000000 4.000000
76    4 0.000000 7.000000 5.000000
77    4 0.000000 7.000000 6.000000
78    4 0.000000 7.000000 7.000000
79    4 0.000000 7.000000 8.000000
80    4 0.000000 7.000000 9.000000
81    4 0.000000 8.000000 0.000000
82    4 0.000000 8.000000 1.000000
83    4 0.000000 8.000000 2.000000
84    4 0.000000 8.000000 3.000000
85    4 0.000000 8.000000 4.000000
86    4 0.000000 8.000000 5.000000
87    4 0.000000 8.000000 6.000000
88    4 0.000000 8.000000 7.000000
89    4 0.000000 8.000000 8.000000
90    4 0.000000 8.000000 9.000000
91    4 0.000000 9.000000 0.000000
92    4 0.000000 9.000000 1.000000
93    4 0.000000 9.000000 2.000000
94    4 0.000000 9.000000 3.000000
95    4 0.000000 9.000000 4.000000
96    4 0.000000 9.000000 5.000000
97    4 0.000000 9.000000 6.000000
98    4 0.000000 9.000000 7.000000
99    4 0.000000 9.000000 8.000000
100   4 0.000000 9.000000 9.000000
101   4 1.000000 0.000000 0.000000
102   4 1.000000 0.000000 1.000000
103   4 1.000000 0.000000 2.000000
104   4 1.000000 0.000000 3.000000
105   4 1.000000 0.000000 4.000000
106   4 1.000000 0.000000 5.000000
107   4 1.000000 0.000000 6.000000
108   4 1.000000 0.000000 7.000000
109   4 1.000000 0.000000 8.000000
110   4 1.000000 0.000000 9.000000
111   4 1.000000 1.000000 0.000000
112   4 1.000000 1.000000 1.000000
113   4 1.000000 1.000000 2.000000
114   4 1.000000 1.000000 3.000000
115   4 1.000000 1.000000 4.000000
116   4 1.000000 1.000000 5.000000
117   4 1.000000 1.000000 6.000000
118   4 1.000000 1.000000 7.000000
119   4 1.000000 1.000000 8.000000
120   4 1.000000 1.000000 9.000000
121   4 1.000000 2.000000 0.000000
122   4 1.000000 2.000000 1.000000
123   4 1.000000 2.000000 2.000000
124   4 1.000000 2.000000 3.000000
125   4 1.000000 2.000000 4.000000
126   4 1.000000 2.000000 5.000000
127   4 1.000000 2.000000 6.000000
128   4 1.000000 2.000000 7.000000
129   4 1.000000 2.000000 8.000000
130   4 1.000000 2.000000 9.000000
131   4 1.000000 3.000000 0.000000
132   4 1.000000 3.000000 1.000000
133   4 1.000000 3.000000 2.000000
134   4 1.000000 3.000000 3.000000
135   4 1.000000 3.000000 4.000000
136   4 1.000000 3.000000 5.000000
137   4 1.000000 3.000000 6.000000
138   4 1.000000 3.000000 7.000000
139   4 1.000000 3.000000 8.000000
140   4 1.000000 3.000000 9.000000
141   4 1.000000 4.000000 0.000000
142   4 1.000000 4.000000 1.000000
143   4 1.000000 4.000000 2.000000
144   4 1.000000 4.000000 3.000000
145   4 1.000000 4.000000 4.000000
146   4 1.000000 4.000000 5.000000
147   4 1.000000 4.000000 6.000000
148   4 1.000000 4.000000 7.000000
149   4 1.000000 4.000000 8.000000
150   4 1.000000 4.000000 9.000000
151   4 1.000000 5.000000 0.000000
152   4 1.000000 5.000000 1.000000
153   4 1.000000 5.000000 2.000000
154   4 1.000000 5.000000 3.000000
155   4 1.000000 5.000000 4.000000
156   4 1.000000 5.000000 5.000000
157   4 1.000000 5.000000 6.000000
158   4 1.000000 5.000000 7.000000
159   4 1.000000 5.000000 8.000000
160   4 1.000000 5.000000 9.000000
161   4 1.000000 6.000000 0.000000
162   4 1.000000 6.000000 1.000000
163   4 1.000000 6.000000 2.000000
164   4 1.000000 6.000000 3.000000
165   4 1.000000 6.000000 4.000000
166   4 1.000000 6.000000 5.000000
167   4 1.000000 6.000000 6.000000
168   4 1.000000 6.000000 7.000000
169   4 1.000000 6.000000 8.000000
170   4 1.000000 6.000000 9.000000
171   4 1.000000 7.000000 0.000000
172   4 1.000000 7.000000 1.000000
173   4 1.000000 7.000000 2.000000
174   4 1.000000 7.000000 3.000000
175   4 1.000000 7.000000 4.000000
176   4 1.000000 7.000000 5.000000
177   4 1.000000 7.000000 6.000000
178   4 1.000000 7.000000 7.000000
179   4 1.000000 7.000000 8.000000
180   4 1.000000 7.000000 9.000000
181   4 1.000000 8.000000 0.000000
182   4 1.000000 8.000000 1.000000
183   4 1.000000 8.000000 2.000000
184   4 1.000000 8.000000 3.000000
185   4 1.000000 8.000000 4.000000
186   4 1.000000 8.000000 5.000000
187   4 1.000000 8.000000 6.000000
188   4 1.000000 8.000000 7.000000
189   4 1.000000 8.000000 8.000000
190   4 1.000000 8.000000 9.000000
191   4 1.000000 9.000000 0.000000
192   4 1.000000 9.000000 1.000000
193   4 1.000000 9.000000 2.000000
194   4 1.000000 9.000000 3.000000
195   4 1.000000 9.000000 4.000000
196   4 1.000000 9.000000 5.000000
197   4 1.000000 9.000000 6.000000
198   4 1.000000 9.000000 7.000000
199   4 1.000000 9.000000 8.000000
200   4 1.000000 9.000000 9.000000
201   4 2.000000 0.000000 0.000000
202   4 2.000000 0.000000 1.000000
203   4 2.000000 0.000000 2.000000
204   4 2.000000 0.000000 3.000000
205   4 2.000000 0.000000 4.000000
206   4 2.000000 0.000000 5.000000
207   4 2.000000 0.000000 6.000000
208   4 2.000000 0.000000 7.000000
209   4 2.000000 0.000000 8.000000
210   4 2.000000 0.000000 9.000000
211   4 2.000000 1.000000 0.000000
212   4 2.000000 1.000000 1.000000
213   4 2.000000 1.000000 2.000000
214   4 2.000000 1.000000 3.000000
215   4 2.000000 1.000000 4.000000
216   4 2.000000 1.000000 5.000000
217   4 2.000000 1.000000 6.000000
218   4 2.000000 1.000000 7.000000
219   4 2.000000 1.000000 8.000000
220   4 2.000000 1.000000 9.000000
221   4 2.000000 2.000000 0.000000
222   4 2.000000 2.000000 1.000000
223   4 2.000000 2.000000 2.000000
224   4 2.000000 2.000000 3.000000
225   4 2.000000 2.000000 4.000000
226   4 2.000000 2.000000 5.000000
227   4 2.000000 2.000000 6.000000
228   4 2.000000 2.000000 7.000000
229   4 2.000000 2.000000 8.000000
230   4 2.000000 2.000000 9.000000
231   4 2.000000 3.000000 0.000000
232   4 2.000000 3.000000 1.000000
233   4 2.000000 3.000000 2.000000
234   4 2.000000 3.000000 3.000000
235   4 2.000000 3.000000 4.000000
236   4 2.000000 3.000000 5.000000
237   4 2.000000 3.000000 6.000000
238   4 2.000000 3.000000 7.000000
239   4 2.000000 3.000000 8.000000
240   4 2.000000 3.000000 9.000000
241   4 2.000000 4.000000 0.000000
242   4 2.000000 4.000000 1.000000
243   4 2.000000 4.000000 2.000000
244   4 2.000000 4.000000 3.000000
245   4 2.000000 4.000000 4.000000
246   4 2.000000 4.000000 5.000000
247   4 2.000000 4.000000 6.000000
248   4 2.000000 4.000000 7.000000
249   4 2.000000 4.000000 8.000000
250   4 2.000000 4.000000 9.000000
251   4 2.000000 5.000000 0.000000
252   4 2.000000 5.000000 1.000000
253   4 2.000000 5.000000 2.000000
254   4 2.000000 5.000000 3.000000
255   4 2.000000 5.000000 4.000000
256   4 2.000000 5.000000 5.000000
257   4 2.000000 5.000000 6.000000
258   4 2.000000 5.000000 7.000000
259   4 2.000000 5.000000 8.000000
260   4 2.000000 5.000000 9.000000
261   4 2.000000 6.000000 0.000000
262   4 2.000000 6.000000 1.000000
263   4 2.000000 6.000000 2.000000
264   4 2.000000 6.000000 3.000000
265   4 2.000000 6.000000 4.000000
266   4 2.000000 6.000000 5.000000
267   4 2.000000 6.000000 6.000000
268   4 2.000000 6.000000 7.000000
269   4 2.000000 6.000000 8.000000
270   4 2.000000 6.000000 9.000000
271   4 2.000000 7.000000 0.000000
272   4 2.000000 7.000000 1.000000
273   4 2.000000 7.000000 2.000000
274   4 2.000000 7.000000 3.000000
275   4 2.000000 7.000000 4.000000
276   4 2.000000 7.000000 5.000000
277   4 2.000000 7.000000 6.000000
278   4 2.000000 7.000000 7.000000
279   4 2.000000 7.000000 8.000000
280   4 2.000000 7.000000 9.000000
281   4 2.000000 8.000000 0.000000
282   4 2.000000 8.000000 1.000000
283   4 2.000000 8.000000 2.000000
284   4 2.000000 8.000000 3.000000
285   4 2.000000 8.000000 4.000000
286   4 2.000000 8.000000 5.000000
287   4 2.000000 8.000000 6.000000
288   4 2.000000 8.000000 7.000000
289   4 2.000000 8.000000 8.000000
290   4 2.000000 8.000000 9.000000
291   4 2.000000 9.000000 0.000000
292   4 2.000000 9.000000 1.000000
293   4 2.000000 9.000000 2.000000
294   4 2.000000 9.000000 3.000000
295   4 2.000000 9.000000 4.000000
296   4 2.000000 9.000000 5.000000
297   4 2.000000 9.000000 6.000000
298   4 2.000000 9.000000 7.000000
299   4 2.000000 9.000000 8.000000
300   4 2.000000 9.000000 9.000000
301   4 3.000000 0.000000 0.000000
302   4 3.000000 0.000000 1.000000
303   4 3.000000 0.000000 2.000000
304   4 3.000000 0.000000 3.000000
305   4 3.000000 0.000000 4.000000
306   4 3.000000 0.000000 5.000000
307   4 3.000000 0.000000 6.000000
308   4 3.000000 0.000000 7.000000
309   4 3.000000 0.000000 8.000000
310   4 3.000000 0.000000 9.000000
311   4 3.000000 1.000000 0.000000
312   4 3.000000 1.000000 1.000000
313   4 3.000000 1.000000 2.000000
314   4 3.000000 1.000000 3.000000
315   4 3.000000 1.000000 4.000000
316   4 3.000000 1.000000 5.000000
317   4 3.000000 1.000000 6.000000
318   4 3.000000 1.000000 7.000000
319   4 3.000000 1.000000 8.000000
320   4 3.000000 1.000000 9.000000
321   4 3.000000 2.000000 0.000000
322   4 3.000000 2.000000 1.000000
323   4 3.000000 2.000000 2.000000
324   4 3.000000 2.000000 3.000000
325   4 3.000000 2.000000 4.000000
326   4 3.000000 2.000000 5.000000
327   4 3.000000 2.000000 6.000000
328   4 3.000000 2.000000 7.000000
329   4 3.000000 2.000000 8.000000
330   4 3.000000 2.000000 9.000000
331   4 3.000000 3.000000 0.000000
332   4 3.000000 3.000000 1.000000
333   4 3.000000 3.000000 2.000000
334   4 3.000000 3.000000 3.000000
335   4 3.000000 3.000000 4.000000
336   4 3.000000 3.000000 5.000000
337   4 3.000000 3.000000 6.000000
338   4 3.000000 3.000000 7.000000
339   4 3.000000 3.000000 8.000000
340   4 3.000000 3.000000 9.000000
341   4 3.000000 4.000000 0.000000
342   4 3.000000 4.000000 1.000000
343   4 3.000000 4.000000 2.000000
344   4 3.000000 4.000000 3.000000
345   4 3.000000 4.000000 4.000000
346   4 3.000000 4.000000 5.000000
347   4 3.000000 4.000000 6.000000
348   4 3.000000 4.000000 7.000000
349   4 3.000000 4.000000 8.000000
350   4 3.000000 4.000000 9.000000
351   4 3.000000 5.000000 0.000000
352   4 3.000000 5.000000 1.000000
353   4 3.000000 5.000000 2.000000
354   4 3.000000 5.000000 3.000000
355   4 3.000000 5.000000 4.000000
356   4 3.000000 5.000000 5.000000
357   4 3.000000 5.000000 6.000000
358   4 3.000000 5.000000 7.000000
359   4 3.000000 5.000000 8.000000
360   4 3.000000 5.000000 9.000000
361   4 3.000000 6.000000 0.000000
362   4 3.000000 6.000000 1.000000
363   4 3.000000 6.000000 2.000000
364   4 3.000000 6.000000 3.000000
365   4 3.000000 6.000000 4.000000
366   4 3.000000 6.000000 5.000000
367   4 3.000000 6.000000 6.000000
368   4 3.000000 6.000000 7.000000
369   4 3.000000 6.000000 8.000000
370   4 3.000000 6.000000 9.000000
371   4 3.000000 7.000000 0.000000
372   4 3.000000 7.000000 1.000000
373   4 3.000000 7.000000 2.000000
374   4 3.000000 7.000000 3.000000
375   4 3.000000 7.000000 4.000000
376   4 3.000000 7.000000 5.000000
377   4 3.000000 7.000000 6.000000
378   4 3.000000 7.000000 7.000000
379   4 3.000000 7.000000 8.000000
380   4 3.000000 7.000000 9.000000
381   4 3.000000 8.000000 0.000000
382   4 3.000000 8.000000 1.000000
383   4 3.000000 8.000000 2.000000
384   4 3.000000 8.000000 3.000000
385   4 3.000000 8.000000 4.000000
386   4 3.000000 8.000000 5.000000
387   4 3.000000 8.000000 6.000000
388   4 3.000000 8.000000 7.000000
389   4 3.000000 8.000000 8.000000
390   4 3.000000 8.000000 9.000000
391   4 3.000000 9.000000 0.000000
392   4 3.000000 9.000000 1.000000
393   4 3.000000 9.000000 2.000000
394   4 3.000000 9.000000 3.000000
395   4 3.000000 9.000000 4.000000
396   4 3.000000 9.000000 5.000000
397   4 3.000000 9.000000 6.000000
398   4 3.000000 9.000000 7.000000
399   4 3.000000 9.000000 8.000000
400   4 3.000000 9.000000 9.000000
401   4 4.000000 0.000000 0.000000
402   4 4.000000 0.000000 1.000000
403   4 4.000000 0.000000 2.000000
404   4 4.000000 0.000000 3.000000
405   4 4.000000 0.000000 4.000000
406   4 4.000000 0.000000 5.000000
407   4 4.000000 0.000000 6.000000
408   4 4.000000 0.000000 7.000000
409   4 4.000000 0.000000 8.000000
410   4 4.000000 0.000000 9.000000
411   4 4.000000 1.000000 0.000000
412   4 4.000000 1.000000 1.000000
413   4 4.000000 1.000000 2.000000
414   4 4.000000 1.000000 3.000000
415   4 4.000000 1.000000 4.000000
416   4 4.000000 1.000000 5.000000
417   4 4.000000 1.000000 6.000000
418   4 4.000000 1.000000 7.000000
419   4 4.000000 1.000000 8.000000
420   4 4.000000 1.000000 9.000000
421   4 4.000000 2.000000 0.000000
422   4 4.000000 2.000000 1.000000
423   4 4.000000 2.000000 2.000000
424   4 4.000000 2.000000 3.000000
425   4 4.000000 2.000000 4.000000
426   4 4.000000 2.000000 5.000000
427   4 4.000000 2.000000 6.000000
428   4 4.000000 2.000000 7.000000
429   4 4.000000 2.000000 8.000000
430   4 4.000000 2.000000 9.000000
431   4 4.000000 3.000000 0.000000
432   4 4.000000 3.000000 1.000000
433   4 4.000000 3.000000 2.000000
434   4 4.000000 3.000000 3.000000
435   4 4.000000 3.000000 4.000000
436   4 4.000000 3.000000 5.000000
437   4 4.000000 3.000000 6.000000
438   4 4.000000 3.000000 7.000000
439   4 4.000000 3.000000 8.000000
440   4 4.000000 3.000000 9.000000
441   4 4.000000 4.000000 0.000000
442   4 4.000000 4.000000 1.000000
443   4 4.000000 4.000000 2.000000
444   4 4.000000 4.000000 3.000000
445   4 4.000000 4.000000 4.000000
446   4 4.000000 4.000000 5.000000
447   4 4.000000 4.000000 6.000000
448   4 4.000000 4.000000 7.000000
449   4 4.000000 4.000000 8.000000
450   4 4.000000 4.000000 9.000000
451   4 4.000000 5.000000 0.000000
452   4 4.000000 5.000000 1.000000
453   4 4.000000 5.000000 2.000000
454   4 4.000000 5.000000 3.000000
455   4 4.000000 5.000000 4.000000
456   4 4.000000 5.000000 5.000000
457   4 4.000000 5.000000 6.000000
458   4 4.000000 5.000000 7.000000
459   4 4.000000 5.000000 8.000000
460   4 4.000000 5.000000 9.000000
461   4 4.000000 6.000000 0.000000
462   4 4.000000 6.000000 1.000000
463   4 4.000000 6.000000 2.000000
464   4 4.000000 6.000000 3.000000
465   4 4.000000 6.000000 4.000000
466   4 4.000000 6.000000 5.000000
467   4 4.000000 6.000000 6.000000
468   4 4.000000 6.000000 7.000000
469   4 4.000000 6.000000 8.000000
470   4 4.000000 6.000000 9.000000
471   4 4.000000 7.000000 0.000000
472   4 4.000000 7.000000 1.000000
473   4 4.000000 7.000000 2.000000
474   4 4.000000 7.000000 3.000000
475   4 4.000000 7.000000 4.000000
476   4 4.000000 7.000000 5.000000
477   4 4.000000 7.000000 6.000000
478   4 4.000000 7.000000 7.000000
479   4 4.000000 7.000000 8.000000
480   4 4.000000 7.000000 9.000000
481   4 4.000000 8.000000 0.000000
482   4 4.000000 8.000000 1.000000
483   4 4.000000 8.000000 2.000000
484   4 4.000000 8.000000 3.000000
485   4 4.000000 8.000000 4.000000
486   4 4.000000 8.000000 5.000000
487   4 4.000000 8.000000 6.000000
488   4 4.000000 8.000000 7.000000
489   4 4.000000 8.000000 8.000000
490   4 4.000000 8.000000 9.000000
491   4 4.000000 9.000000 0.000000
492   4 4.000000 9.000000 1.000000
493   4 4.000000 9.000000 2.000000
494   4 4.000000 9.000000 3.000000
495   4 4.000000 9.000000 4.000000
496   4 4.000000 9.000000 5.000000
497   4 4.000000 9.000000 6.000000
498   4 4.000000 9.000000 7.000000
499   4 4.000000 9.000000 8.000000
500   4 4.000000 9.000000 9.000000
501   4 5.000000 0.000000 0.000000
502   4 5.000000 0.000000 1.000000
503   4 5.000000 0.000000 2.000000
504   4 5.000000 0.000000 3.000000
505   4 5.000000 0.000000 4.000000
506   4 5.000000 0.000000 5.000000
507   4 5.000000 0.000000 6.000000
508   4 5.000000 0.000000 7.000000
509   4 5.000000 0.000000 8.000000
510   4 5.000000 0.000000 9.000000
511   4 5.000000 1.000000 0.000000
512   4 5.000000 1.000000 1.000000
513   4 5.000000 1.000000 2.000000
514   4 5.000000 1.000000 3.000000
515   4 5.000000 1.000000 4.000000
516   4 5.000000 1.000000 5.000000
517   4 5.000000 1.000000 6.000000
518   4 5.000000 1.000000 7.000000
519   4 5.000000 1.000000 8.000000
520   4 5.000000 1.000000 9.000000
521   4 5.000000 2.000000 0.000000
522   4 5.000000 2.000000 1.000000
523   4 5.000000 2.000000 2.000000
524   4 5.000000 2.000000 3.000000
525   4 5.000000 2.000000 4.000000
526   4 5.000000 2.000000 5.000000
527   4 5.000000 2.000000 6.000000
528   4 5.000000 2.000000 7.000000
529   4 5.000000 2.000000 8.000000
530   4 5.000000 2.000000 9.000000
531   4 5.000000 3.000000 0.000000
532   4 5.000000 3.000000 1.000000
533   4 5.000000 3.000000 2.000000
534   4 5.000000 3.000000 3.000000
535   4 5.000000 3.000000 4.000000
536   4 5.000000 3.000000 5.000000
537   4 5.000000 3.000000 6.000000
538   4 5.000000 3.000000 7.000000
539   4 5.000000 3.000000 8.000000
540   4 5.000000 3.000000 9.000000
541   4 5.000000 4.000000 0.000000
542   4 5.000000 4.000000 1.000000
543   4 5.000000 4.000000 2.000000
544   4 5.000000 4.000000 3.000000
545   4 5.000000 4.000000 4.000000
546   4 5.000000 4.000000 5.000000
547   4 5.000000 4.000000 6.000000
548   4 5.000000 4.000000 7.000000
549   4 5.000000 4.000000 8.000000
550   4 5.000000 4.000000 9.000000
551   4 5.000000 5.000000 0.000000
552   4 5.000000 5.000000 1.000000
553   4 5.000000 5.000000 2.000000
554   4 5.000000 5.000000 3.000000
555   4 5.000000 5.000000 4.000000
556   4 5.000000 5.000000 5.000000
557   4 5.000000 5.000000 6.000000
558   4 5.000000 5.000000 7.000000
559   4 5.000000 5.000000 8.000000
560   4 5.000000 5.000000 9.000000
561   4 5.000000 6.000000 0.000000
562   4 5.000000 6.000000 1.000000
563   4 5.000000 6.000000 2.000000
564   4 5.000000 6.000000 3.000000
565   4 5.000000 6.000000 4.000000
566   4 5.000000 6.000000 5.000000
567   4 5.000000 6.000000 6.000000
568   4 5.000000 6.000000 7.000000
569   4 5.000000 6.000000 8.000000
570   4 5.000000 6.000000 9.000000
571   4 5.000000 7.000000 0.000000
572   4 5.000000 7.000000 1.000000
573   4 5.000000 7.000000 2.000000
574   4 5.000000 7.000000 3.000000
575   4 5.000000 7.000000 4.000000
576   4 5.000000 7.000000 5.000000
577   4 5.000000 7.000000 6.000000
578   4 5.000000 7.000000 7.000000
579   4 5.000000 7.000000 8.000000
580   4 5.000000 7.000000 9.000000
581   4 5.000000 8.000000 0.000000
582   4 5.000000 8.000000 1.000000
583   4 5.000000 8.000000 2.000000
584   4 5.000000 8.000000 3.000000
585   4 5.000000 8.000000 4.000000
586   4 5.000000 8.000000 5.000000
587   4 5.000000 8.000000 6.000000
588   4 5.000000 8.000000 7.000000
589   4 5.000000 8.000000 8.000000
590   4 5.000000 8.000000 9.000000
591   4 5.000000 9.000000 0.000000
592   4 5.000000 9.000000 1.000000
593   4 5.000000 9.000000 2.000000
594   4 5.000000 9.000000 3.000000
595   4 5.000000 9.000000 4.000000
596   4 5.000000 9.000000 5.000000
597   4 5.000000 9.000000 6.000000
598   4 5.000000 9.000000 7.000000
599   4 5.000000 9.000000 8.000000
600   4 5.000000 9.000000 9.000000
601   4 6.000000 0.000000 0.000000
602   4 6.000000 0.000000 1.000000
603   4 6.000000 0.000000 2.000000
604   4 6.000000 0.000000 3.000000
605   4 6.000000 0.000000 4.000000
606   4 6.000000 0.000000 5.000000
607   4 6.000000 0.000000 6.000000
608   4 6.000000 0.000000 7.000000
609   4 6.000000 0.000000 8.000000
610   4 6.000000 0.000000 9.000000
611   4 6.000000 1.000000 0.000000
612   4 6.000000 1.000000 1.000000
613   4 6.000000 1.000000 2.000000
614   4 6.000000 1.000000 3.000000
615   4 6.000000 1.000000 4.000000
616   4 6.000000 1.000000 5.000000
617   4 6.000000 1.000000 6.000000
618   4 6.000000 1.000000 7.000000
619   4 6.000000 1.000000 8.000000
620   4 6.000000 1.000000 9.000000
621   4 6.000000 2.000000 0.000000
622   4 6.000000 2.000000 1.000000
623   4 6.000000 2.000000 2.000000
624   4 6.000000 2.000000 3.000000
625   4 6.000000 2.000000 4.000000
626   4 6.000000 2.000000 5.000000
627   4 6.000000 2.000000 6.000000
628   4 6.000000 2.000000 7.000000
629   4 6.000000 2.000000 8.000000
630   4 6.000000 2.000000 9.000000
631   4 6.000000 3.000000 0.000000
632   4 6.000000 3.000000 1.000000
633   4 6.000000 3.000000 2.000000
634   4 6.000000 3.000000 3.000000
635   4 6.000000 3.000000 4.000000
636   4 6.000000 3.000000 5.000000
637   4 6.000000 3.000000 6.000000
638   4 6.000000 3.000000 7.000000
639   4 6.000000 3.000000 8.000000
640   4 6.000000 3.000000 9.000000
641   4 6.000000 4.000000 0.000000
642   4 6.000000 4.000000 1.000000
643   4 6.000000 4.000000 2.000000
644   4 6.000000 4.000000 3.000000
645   4 6.000000 4.000000 4.000000
646   4 6.000000 4.000000 5.000000
647   4 6.000000 4.000000 6.000000
648   4 6.000000 4.000000 7.000000
649   4 6.000000 4.000000 8.000000
650   4 6.000000 4.000000 9.000000
651   4 6.000000 5.000000 0.000000
652   4 6.000000 5.000000 1.000000
653   4 6.000000 5.000000 2.000000
654   4 6.000000 5.000000 3.000000
655   4 6.000000 5.000000 4.000000
656   4 6.000000 5.000000 5.000000
657   4 6.000000 5.000000 6.000000
658   4 6.000000 5.000000 7.000000
659   4 6.000000 5.000000 8.000000
660   4 6.000000 5.000000 9.000000
661   4 6.000000 6.000000 0.000000
662   4 6.000000 6.000000 1.000000
663   4 6.000000 6.000000 2.000000
664   4 6.000000 6.000000 3.000000
665   4 6.000000 6.000000 4.000000
666   4 6.000000 6.000000 5.000000
667   4 6.000000 6.000000 6.000000
668   4 6.000000 6.000000 7.000000
669   4 6.000000 6.000000 8.000000
670   4 6.000000 6.000000 9.000000
671   4 6.000000 7.000000 0.000000
672   4 6.000000 7.000000 1.000000
673   4 6.000000 7.000000 2.000000
674   4 6.000000 7.000000 3.000000
675   4 6.000000 7.000000 4.000000
676   4 6.000000 7.000000 5.000000
677   4 6.000000 7.000000 6.000000
678   4 6.000000 7.000000 7.000000
679   4 6.000000 7.000000 8.000000
680   4 6.000000 7.000000 9.000000
681   4 6.000000 8.000000 0.000000
682   4 6.000000 8.000000 1.000000
683   4 6.000000 8.000000 2.000000
684   4 6.000000 8.000000 3.000000
685   4 6.000000 8.000000 4.000000
686   4 6.000000 8.000000 5.000000
687   4 6.000000 8.000000 6.000000
688   4 6.000000 8.000000 7.000000
689   4 6.000000 8.000000 8.000000
690   4 6.000000 8.000000 9.000000
691   4 6.000000 9.000000 0.000000
692   4 6.000000 9.000000 1.000000
693   4 6.000000 9.000000 2.000000
694   4 6.000000 9.000000 3.000000
695   4 6.000000 9.000000 4.000000
696   4 6.000000 9.000000 5.000000
697   4 6.000000 9.000000 6.000000
698   4 6.000000 9.000000 7.000000
699   4 6.000000 9.000000 8.000000
700   4 6.000000 9.000000 9.000000
701   4 7.000000 0.000000 0.000000
702   4 7.000000 0.000000 1.000000
703   4 7.000000 0.000000 2.000000
704   4 7.000000 0.000000 3.000000
705   4 7.000000 0.000000 4.000000
706   4 7.000000 0.000000 5.000000
707   4 7.000000 0.000000 6.000000
708   4 7.000000 0.000000 7.000000
709   4 7.000000 0.000000 8.000000
710   4 7.000000 0.000000 9.000000
711   4 7.000000 1.000000 0.000000
712   4 7.000000 1.000000 1.000000
713   4 7.000000 1.000000 2.000000
714   4 7.000000 1.000000 3.000000
715   4 7.000000 1.000000 4.000000
716   4 7.000000 1.000000 5.000000
717   4 7.000000 1.000000 6.000000
718   4 7.000000 1.000000 7.000000
719   4 7.000000 1.000000 8.000000
720   4 7.000000 1.000000 9.000000
721   4 7.000000 2.000000 0.000000
722   4 7.000000 2.000000 1.000000
723   4 7.000000 2.000000 2.000000
724   4 7.000000 2.000000 3.000000
725   4 7.000000 2.000000 4.000000
726   4 7.000000 2.000000 5.000000
727   4 7.000000 2.000000 6.000000
728   4 7.000000 2.000000 7.000000
729   4 7.000000 2.000000 8.000000
730   4 7.000000 2.000000 9.000000
731   4 7.000000 3.000000 0.000000
732   4 7.000000 3.000000 1.000000
733   4 7.000000 3.000000 2.000000
734   4 7.000000 3.000000 3.000000
735   4 7.000000 3.000000 4.000000
736   4 7.000000 3.000000 5.000000
737   4 7.000000 3.000000 6.000000
738   4 7.000000 3.000000 7.000000
739   4 7.000000 3.000000 8.000000
740   4 7.000000 3.000000 9.000000
741   4 7.000000 4.000000 0.000000
742   4 7.000000 4.000000 1.000000
743   4 7.000000 4.000000 2.000000
744   4 7.000000 4.000000 3.000000
745   4 7.000000 4.000000 4.000000
746   4 7.000000 4.000000 5.000000
747   4 7.000000 4.000000 6.000000
748   4 7.000000 4.000000 7.000000
749   4 7.000000 4.000000 8.000000
750   4 7.000000 4.000000 9.000000
751   4 7.000000 5.000000 0.000000
752   4 7.000000 5.000000 1.000000
753   4 7.000000 5.000000 2.000000
754   4 7.000000 5.000000 3.000000
755   4 7.000000 5.000000 4.000000
756   4 7.000000 5.000000 5.000000
757   4 7.000000 5.000000 6.000000
758   4 7.000000 5.000000 7.000000
759   4 7.000000 5.000000 8.000000
760   4 7.000000 5.000000 9.000000
761   4 7.000000 6.000000 0.000000
762   4 7.000000 6.000000 1.000000
763   4 7.000000 6.000000 2.000000
764   4 7.000000 6.000000 3.000000
765   4 7.000000 6.000000 4.000000
766   4 7.000000 6.000000 5.000000
767   4 7.000000 6.000000 6.000000
768   4 7.000000 6.000000 7.000000
769   4 7.000000 6.000000 8.000000
770   4 7.000000 6.000000 9.000000
771   4 7.000000 7.000000 0.000000
772   4 7.000000 7.000000 1.000000
773   4 7.000000 7.000000 2.000000
774   4 7.000000 7.000000 3.000000
775   4 7.000000 7.000000 4.000000
776   4 7.000000 7.000000 5.000000
777   4 7.000000 7.000000 6.000000
778   4 7.000000 7.000000 7.000000
779   4 7.000000 7.000000 8.000000
780   4 7.000000 7.000000 9.000000
781   4 7.000000 8.000000 0.000000
782   4 7.000000 8.000000 1.000000
783   4 7.000000 8.000000 2.000000
784   4 7.000000 8.000000 3.000000
785   4 7.000000 8.000000 4.000000
786   4 7.000000 8.000000 5.000000
787   4 7.000000 8.000000 6.000000
788   4 7.000000 8.000000 7.000000
789   4 7.000000 8.000000 8.000000
790   4 7.000000 8.000000 9.000000
791   4 7.000000 9.000000 0.000000
792   4 7.000000 9.000000 1.000000
793   4 7.000000 9.000000 2.000000
794   4 7.000000 9.000000 3.000000
795   4 7.000000 9.000000 4.000000
796   4 7.000000 9.000000 5.000000
797   4 7.000000 9.000000 6.000000
798   4 7.000000 9.000000 7.000000
799   4 7.000000 9.000000 8.000000
800   4 7.000000 9.000000 9.000000
801   4 8.000000 0.000000 0.000000
802   4 8.000000 0.000000 1.000000
803   4 8.000000 0.000000 2.000000
804   4 8.000000 0.000000 3.000000
805   4 8.000000 0.000000 4.000000
806   4 8.000000 0.000000 5.000000
807   4 8.000000 0.000000 6.000000
808   4 8.000000 0.000000 7.000000
809   4 8.000000 0.000000 8.000000
810   4 8.000000 0.000000 9.000000
811   4 8.000000 1.000000 0.000000
812   4 8.000000 1.000000 1.000000
813   4 8.000000 1.000000 2.000000
814   4 8.000000 1.000000 3.000000
815   4 8.000000 1.000000 4.000000
816   4 8.000000 1.000000 5.000000
817   4 8.000000 1.000000 6.000000
818   4 8.000000 1.000000 7.000000
819   4 8.000000 1.000000 8.000000
820   4 8.000000 1.000000 9.000000
821   4 8.000000 2.000000 0.000000
822   4 8.000000 2.000000 1.000000
823   4 8.000000 2.000000 2.000000
824   4 8.000000 2.000000 3.000000
825   4 8.000000 2.000000 4.000000
826   4 8.000000 2.000000 5.000000
827   4 8.000000 2.000000 6.000000
828   4 8.000000 2.000000 7.000000
829   4 8.000000 2.000000 8.000000
830   4 8.000000 2.000000 9.000000
831   4 8.000000 3.000000 0.000000
832   4 8.000000 3.000000 1.000000
833   4 8.000000 3.000000 2.000000
834   4 8.000000 3.000000 3.000000
835   4 8.000000 3.000000 4.000000
836   4 8.000000 3.000000 5.000000
837   4 8.000000 3.000000 6.000000
838   4 8.000000 3.000000 7.000000
839   4 8.000000 3.000000 8.000000
840   4 8.000000 3.000000 9.000000
841   4 8.000000 4.000000 0.000000
842   4 8.000000 4.000000 1.000000
843   4 8.000000 4.000000 2.000000
844   4 8.000000 4.000000 3.000000
845   4 8.000000 4.000000 4.000000
846   4 8.000000 4.000000 5.000000
847   4 8.000000 4.000000 6.000000
848   4 8.000000 4.000000 7.000000
849   4 8.000000 4.000000 8.000000
850   4 8.000000 4.000000 9.000000
851   4 8.000000 5.000000 0.000000
852   4 8.000000 5.000000 1.000000
853   4 8.000000 5.000000 2.000000
854   4 8.000000 5.000000 3.000000
855   4 8.000000 5.000000 4.000000
856   4 8.000000 5.000000 5.000000
857   4 8.000000 5.000000 6.000000
858   4 8.000000 5.000000 7.000000
859   4 8.000000 5.000000 8.000000
860   4 8.000000 5.000000 9.000000
861   4 8.000000 6.000000 0.000000
862   4 8.000000 6.000000 1.000000
863   4 8.000000 6.000000 2.000000
864   4 8.000000 6.000000 3.000000
865   4 8.000000 6.000000 4.000000
866   4 8.000000 6.000000 5.000000
867   4 8.000000 6.000000 6.000000
868   4 8.000000 6.000000 7.000000
869   4 8.000000 6.000000 8.000000
870   4 8.000000 6.000000 9.000000
871   4 8.000000 7.000000 0.000000
872   4 8.000000 7.000000 1.000000
873   4 8.000000 7.000000 2.000000
874   4 8.000000 7.000000 3.000000
875   4 8.000000 7.000000 4.000000
876   4 8.000000 7.000000 5.000000
877   4 8.000000 7.000000 6.000000
878   4 8.000000 7.000000 7.000000
879   4 8.000000 7.000000 8.000000
880   4 8.000000 7.000000 9.000000
881   4 8.000000 8.000000 0.000000
882   4 8.000000 8.000000 1.000000
883   4 8.000000 8.000000 2.000000
884   4 8.000000 8.000000 3.000000
885   4 8.000000 8.000000 4.000000
886   4 8.000000 8.000000 5.000000
887   4 8.000000 8.000000 6.000000
888   4 8.000000 8.000000 7.000000
889   4 8.000000 8.000000 8.000000
890   4 8.000000 8.000000 9.000000
891   4 8.000000 9.000000 0.000000
892   4 8.000000 9.000000 1.000000
893   4 8.000000 9.000000 2.000000
894   4 8.000000 9.000000 3.000000
895   4 8.000000 9.000000 4.000000
896   4 8.000000 9.000000 5.000000
897   4 8.000000 9.000000 6.000000
898   4 8.000000 9.000000 7.000000
899   4 8.000000 9.000000 8.000000
900   4 8.000000 9.000000 9.000000
901   4 9.000000 0.000000 0.000000
902   4 9.000000 0.000000 1.000000
903   4 9.000000 0.000000 2.000000
904   4 9.000000 0.000000 3.000000
905   4 9.000000 0.000000 4.000000
906   4 9.000000 0.000000 5.000000
907   4 9.000000 0.000000 6.000000
908   4 9.000000 0.000000 7.000000
909   4 9.000000 0.000000 8.000000
910   4 9.000000 0.000000 9.000000
911   4 9.000000 1.000000 0.000000
912   4 9.000000 1.000000 1.000000
913   4 9.000000 1.000000 2.000000
914   4 9.000000 1.000000 3.000000
915   4 9.000000 1.000000 4.000000
916   4 9.000000 1.000000 5.000000
917   4 9.000000 1.000000 6.000000
918   4 9.000000 1.000000 7.000000
919   4 9.000000 1.000000 8.000000
920   4 9.000000 1.000000 9.000000
921   4 9.000000 2.000000 0.000000
922   4 9.000000 2.000000 1.000000
923   4 9.000000 2.000000 2.000000
924   4 9.000000 2.000000 3.000000
925   4 9.000000 2.000000 4.000000
926   4 9.000000 2.000000 5.000000
927   4 9.000000 2.000000 6.000000
928   4 9.000000 2.000000 7.000000
929   4 9.000000 2.000000 8.000000
930   4 9.000000 2.000000 9.000000
931   4 9.000000 3.000000 0.000000
932   4 9.000000 3.000000 1.000000
933   4 9.000000 3.000000 2.000000
934   4 9.000000 3.000000 3.000000
935   4 9.000000 3.000000 4.000000
936   4 9.000000 3.000000 5.000000
937   4 9.000000 3.000000 6.000000
938   4 9.000000 3.000000 7.000000
939   4 9.000000 3.000000 8.000000
940   4 9.000000 3.000000 9.000000
941   4 9.000000 4.000000 0.000000
942   4 9.000000 4.000000 1.000000
943   4 9.000000 4.000000 2.000000
944   4 9.000000 4.000000 3.000000
945   4 9.000000 4.000000 4.000000
946   4 9.000000 4.000000 5.000000
947   4 9.000000 4.000000 6.000000
948   4 9.000000 4.000000 7.000000
949   4 9.000000 4.000000 8.000000
950   4 9.000000 4.000000 9.000000
951   4 9.000000 5.000000 0.000000
952   4 9.000000 5.000000 1.000000
953   4 9.000000 5.000000 2.000000
954   4 9.000000 5.000000 3.000000
955   4 9.000000 5.000000 4.000000
956   4 9.000000 5.000000 5.000000
957   4 9.000000 5.000000 6.000000
958   4 9.000000 5.000000 7.000000
959   4 9.000000 5.000000 8.000000
960   4 9.000000 5.000000 9.000000
961   4 9.000000 6.000000 0.000000
962   4 9.000000 6.000000 1.000000
963   4 9.000000 6.000000 2.000000
964   4 9.000000 6.000000 3.000000
965   4 9.000000 6.000000 4.000000
966   4 9.000000 6.000000 5.000000
967   4 9.000000 6.000000 6.000000
968   4 9.000000 6.000000 7.000000
969   4 9.000000 6.000000 8.000000
970   4 9.000000 6.000000 9.000000
971   4 9.000000 7.000000 0.000000
972   4 9.000000 7.000000 1.000000
973   4 9.000000 7.000000 2.000000
974   4 9.000000 7.000000 3.000000
975   4 9.000000 7.000000 4.000000
976   4 9.000000 7.000000 5.000000
977   4 9.000000 7.000000 6.000000
978   4 9.000000 7.000000 7.000000
979   4 9.000000 7.000000 8.000000
980   4 9.000000 7.000000 9.000000
981   4 9.000000 8.000000 0.000000
982   4 9.000000 8.000000 1.000000
983   4 9.000000 8.000000 2.000000
984   4 9.000000 8.000000 3.000000
985   4 9.000000 8.000000 4.000000
986   4 9.000000 8.000000 5.000000
987   4 9.000000 8.000000 6.000000
988   4 9.000000 8.000000 7.000000
989   4 9.000000 8.000000 8.000000
990   4 9.000000 8.000000 9.000000
991   4 9.000000 9.000000 0.000000
992   4 9.000000 9.000000 1.000000
993   4 9.000000 9.000000 2.000000
994   4 9.000000 9.000000 3.000000
995   4 9.000000 9.000000 4.000000
996   4 9.000000 9.000000 5.000000
997   4 9.000000 9.000000 6.000000
998   4 9.000000 9.000000 7.000000
999   4 9.000000 9.000000 8.000000
1000  4 9.000000 9.000000 9.000000
1001  4 0.500000 0.500000 0.500000
1002  4 0.500000 0.500000 1.500000
1003  4 0.500000 0.500000 2.500000
1004  4 0.500000 0.500000 3.500000
1005  4 0.500000 0.500000 4.500000
1006  4 0.500000 0.500000 5.500000
1007  4 0.500000 0.500000 6.500000
1008  4 0.500000 0.500000 7.500000
1009  4 0.500000 0.500000 8.500000
1010  4 0.500000 0.500000 9.500000
1011  4 0.500000 1.500000 0.500000
1012  4 0.500000 1.500000 1.500000
1013  4 0.500000 1.500000 2.500000
1014  4 0.500000 1.500000 3.500000
1015  4 0.500000 1.500000 4.500000
1016  4 0.500000 1.500000 5.500000
1017  4 0.500000 1.500000 6.500000
1018  4 0.500000 1.500000 7.500000
1019  4 0.500000 1.500000 8.500000
1020  4 0.500000 1.500000 9.500000
1021  4 0.500000 2.500000 0.500000
1022  4 0.500000 2.500000 1.500000
1023  4 0.500000 2.500000 2.500000
1024  4 0.500000 2.500000 3.500000
1025  4 0.500000 2.500000 4.500000
1026  4 0.500000 2.500000 5.500000
1027  4 0.500000 2.500000 6.500000
1028  4 0.500000 2.500000 7.500000
1029  4 0.500000 2.500000 8.500000
1030  4 0.500000 2.500000 9.500000
1031  4 0.500000 3.500000 0.500000
1032  4 0.500000 3.500000 1.500000
1033  4 0.500000 3.500000 2.500000
1034  4 0.500000 3.500000 3.500000
1035  4 0.500000 3.500000 4.500000
1036  4 0.500000 3.500000 5.500000
1037  4 0.500000 3.500000 6.500000
1038  4 0.500000 3.500000 7.500000
1039  4 0.500000 3.500000 8.500000
1040  4 0.500000 3.500000 9.500000
1041  4 0.500000 4.500000 0.500000
1042  4 0.500000 4.500000 1.500000
1043  4 0.500000 4.500000 2.500000
1044  4 0.500000 4.500000 3.500000
1045  4 0.500000 4.500000 4.500000
1046  4 0.500000 4.500000 5.500000
1047  4 0.500000 4.500000 6.500000
1048  4 0.500000 4.500000 7.500000
1049  4 0.500000 4.500000 8.500000
1050  4 0.500000 4.500000 9.500000
1051  4 0.500000 5.500000 0.500000
1052  4 0.500000 5.500000 1.500000
1053  4 0.500000 5.500000 2.500000
1054  4 0.500000 5.500000 3.500000
1055  4 0.500000 5.500000 4.500000
1056  4 0.500000 5.500000 5.500000
1057  4 0.500000 5.500000 6.500000
1058  4 0.500000 5.500000 7.500000
1059  4 0.500000 5.500000 8.500000
1060  4 0.500000 5.500000 9.500000
1061  4 0.500000 6.500000 0.500000
1062  4 0.500000 6.500000 1.500000
1063  4 0.500000 6.500000 2.500000
1064  4 0.500000 6.500000 3.500000
1065  4 0.500000 6.500000 4.500000
1066  4 0.500000 6.500000 5.500000
1067  4 0.500000 6.500000 6.500000
1068  4 0.500000 6.500000 7.500000
1069  4 0.500000 6.500000 8.500000
1070  4 0.500000 6.500000 9.500000
1071  4 0.500000 7.500000 0.500000
1072  4 0.500000 7.500000 1.500000
1073  4 0.500000 7.500000 2.500000
1074  4 0.500000 7.500000 3.500000
1075  4 0.500000 7.500000 4.500000
1076  4 0.500000 7.500000 5.500000
1077  4 0.500000 7.500000 6.500000
1078  4 0.500000 7.500000 7.500000
1079  4 0.500000 7.500000 8.500000
1080  4 0.500000 7.500000 9.500000
1081  4 0.500000 8.500000 0.500000
1082  4 0.500000 8.500000 1.500000
1083  4 0.500000 8.500000 2.500000
1084  4 0.500000 8.500000 3.500000
1085  4 0.500000 8.500000 4.500000
1086  4 0.500000 8.500000 5.500000
1087  4 0.500000 8.500000 6.500000
1088  4 0.500000 8.500000 7.500000
1089  4 0.500000 8.500000 8.500000
1090  4 0.500000 8.500000 9.500000
1091  4 0.500000 9.500000 0.500000
1092  4 0.500000 9.500000 1.500000
1093  4 0.500000 9.500000 2.500000
1094  4 0.500000 9.500000 3.500000
1095  4 0.500000 9.500000 4.500000
1096  4 0.500000 9.500000 5.500000
1097  4 0.500000 9.500000 6.500000
1098  4 0.500000 9.500000 7.500000
1099  4 0.500000 9.500000 8.500000
1100  4 0.500000 9.500000 9.500000
1101  4 1.500000 0.500000 0.500000
1102  4 1.500000 0.500000 1.500000
1103  4 1.500000 0.500000 2.500000
1104  4 1.500000 0.500000 3.500000
1105  4 1.500000 0.500000 4.500000
1106  4 1.500000 0.500000 5.500000
1107  4 1.500000 0.500000 6.500000
1108  4 1.500000 0.500000 7.500000
1109  4 1.500000 0.500000 8.500000
1110  4 1.500000 0.500000 9.500000
1111  4 1.500000 1.500000 0.500000
1112  4 1.500000 1.500000 1.500000
1113  4 1.500000 1.500000 2.500000
1114  4 1.500000 1.500000 3.500000
1115  4 1.500000 1.500000 4.500000
1116  4 1.500000 1.500000 5.500000
1117  4 1.500000 1.500000 6.500000
1118  4 1.500000 1.500000 7.500000
1119  4 1.500000 1.500000 8.500000
1120  4 1.500000 1.500000 9.500000
1121  4 1.500000 2.500000 0.500000
1122  4 1.500000 2.500000 1.500000
1123  4 1.500000 2.500000 2.500000
1124  4 1.500000 2.500000 3.500000
1125  4 1.500000 2.500000 4.500000
1126  4 1.500000 2.500000 5.500000
1127  4 1.500000 2.500000 6.500000
1128  4 1.500000 2.500000 7.500000
1129  4 1.500000 2.500000 8.500000
1130  4 1.500000 2.500000 9.500000
1131  4 1.500000 3.500000 0.500000
1132  4 1.500000 3.500000 1.500000
1133  4 1.500000 3.500000 2.500000
1134  4 1.500000 3.500000 3.500000
1135  4 1.500000 3.500000 4.500000
1136  4 1.500000 3.500000 5.500000
1137  4 1.500000 3.500000 6.500000
1138  4 1.500000 3.500000 7.500000
1139  4 1.500000 3.500000 8.500000
1140  4 1.500000 3.500000 9.500000
1141  4 1.500000 4.500000 0.500000
1142  4 1.500000 4.500000 1.500000
1143  4 1.500000 4.500000 2.500000
1144  4 1.500000 4.500000 3.500000
1145  4 1.500000 4.500000 4.500000
1146  4 1.500000 4.500000 5.500000
1147  4 1.500000 4.500000 6.500000
1148  4 1.500000 4.500000 7.500000
1149  4 1.500000 4.500000 8.500000
1150  4 1.500000 4.500000 9.500000
1151  4 1.500000 5.500000 0.500000
1152  4 1.500000 5.500000 1.500000
1153  4 1.500000 5.500000 2.500000
1154  4 1.500000 5.500000 3.500000
1155  4 1.500000 5.500000 4.500000
1156  4 1.500000 5.500000 5.500000
1157  4 1.500000 5.500000 6.500000
1158  4 1.500000 5.500000 7.500000
1159  4 1.500000 5.500000 8.500000
1160  4 1.500000 5.500000 9.500000
1161  4 1.500000 6.500000 0.500000
1162  4 1.500000 6.500000 1.500000
1163  4 1.500000 6.500000 2.500000
1164  4 1.500000 6.500000 3.500000
1165  4 1.500000 6.500000 4.500000
1166  4 1.500000 6.500000 5.500000
1167  4 1.500000 6.500000 6.500000
1168  4 1.500000 6.500000 7.500000
1169  4 1.500000 6.500000 8.500000
1170  4 1.500000 6.500000 9.500000
1171  4 1.500000 7.500000 0.500000
1172  4 1.500000 7.500000 1.500000
1173  4 1.500000 7.500000 2.500000
1174  4 1.500000 7.500000 3.500000
1175  4 1.500000 7.500000 4.500000
1176  4 1.500000 7.500000 5.500000
1177  4 1.500000 7.500000 6.500000
1178  4 1.500000 7.500000 7.500000
1179  4 1.500000 7.500000 8.500000
1180  4 1.500000 7.500000 9.500000
1181  4 1.500000 8.500000 0.500000
1182  4 1.500000 8.500000 1.500000
1183  4 1.500000 8.500000 2.500000
1184  4 1.500000 8.500000 3.500000
1185  4 1.500000 8.500000 4.500000
1186  4 1.500000 8.500000 5.500000
1187  4 1.500000 8.500000 6.500000
1188  4 1.500000 8.500000 7.500000
1189  4 1.500000 8.500000 8.500000
1190  4 1.500000 8.500000 9.500000
1191  4 1.500000 9.500000 0.500000
1192  4 1.500000 9.500000 1.500000
1193  4 1.500000 9.500000 2.500000
1194  4 1.500000 9.500000 3.500000
1195  4 1.500000 9.500000 4.500000
1196  4 1.500000 9.500000 5.500000
1197  4 1.500000 9.500000 6.500000
1198  4 1.500000 9.500000 7.500000
1199  4 1.500000 9.500000 8.500000
1200  4 1.500000 9.500000 9.500000
1201  4 2.500000 0.500000 0.500000
1202  4 2.500000 0.500000 1.500000
1203  4 2.500000 0.500000 2.500000
1204  4 2.500000 0.500000 3.500000
1205  4 2.500000 0.500000 4.500000
1206  4 2.500000 0.500000 5.500000
1207  4 2.500000 0.500000 6.500000
1208  4 2.500000 0.500000 7.500000
1209  4 2.500000 0.500000 8.500000
1210  4 2.500000 0.500000 9.500000
1211  4 2.500000 1.500000 0.500000
1212  4 2.500000 1.500000 1.500000
1213  4 2.500000 1.500000 2.500000
1214  4 2.500000 1.500000 3.500000
1215  4 2.500000 1.500000 4.500000
1216  4 2.500000 1.500000 5.500000
1217  4 2.500000 1.500000 6.500000
1218  4 2.500000 1.500000 7.500000
1219  4 2.500000 1.500000 8.500000
1220  4 2.500000 1.500000 9.500000
1221  4 2.500000 2.500000 0.500000
1222  4 2.500000 2.500000 1.500000
1223  4 2.500000 2.500000 2.500000
1224  4 2.500000 2.500000 3.500000
1225  4 2.500000 2.500000 4.500000
1226  4 2.500000 2.500000 5.500000
1227  4 2.500000 2.500000 6.500000
1228  4 2.500000 2.500000 7.500000
1229  4 2.500000 2.500000 8.500000
1230  4 2.500000 2.500000 9.500000
1231  4 2.500000 3.500000 0.500000
1232  4 2.500000 3.500000 1.500000
1233  4 2.500000 3.500000 2.500000
1234  4 2.500000 3.500000 3.500000
1235  4 2.500000 3.500000 4.500000
1236  4 2.500000 3.500000 5.500000
1237  4 2.500000 3.500000 6.500000
1238  4 2.500000 3.500000 7.500000
1239  4 2.500000 3.500000 8.500000
1240  4 2.500000 3.500000 9.500000
1241  4 2.500000 4.500000 0.500000
1242  4 2.500000 4.500000 1.500000
1243  4 2.500000 4.500000 2.500000
1244  4 2.500000 4.500000 3.500000
1245  4 2.500000 4.500000 4.500000
1246  4 2.500000 4.500000 5.500000
1247  4 2.500000 4.500000 6.500000
1248  4 2.500000 4.500000 7.500000
1249  4 2.500000 4.500000 8.500000
1250  4 2.500000 4.500000 9.500000
1251  4 2.500000 5.500000 0.500000
1252  4 2.500000 5.500000 1.500000
1253  4 2.500000 5.500000 2.500000
1254  4 2.500000 5.500000 3.500000
1255  4 2.500000 5.500000 4.500000
1256  4 2.500000 5.500000 5.500000
1257  4 2.500000 5.500000 6.500000
1258  4 2.500000 5.500000 7.500000
1259  4 2.500000 5.500000 8.500000
1260  4 2.500000 5.500000 9.500000
1261  4 2.500000 6.500000 0.500000
1262  4 2.500000 6.500000 1.500000
1263  4 2.500000 6.500000 2.500000
1264  4 2.500000 6.500000 3.500000
1265  4 2.500000 6.500000 4.500000
1266  4 2.500000 6.500000 5.500000
1267  4 2.500000 6.500000 6.500000
1268  4 2.500000 6.500000 7.500000
1269  4 2.500000 6.500000 8.500000
1270  4 2.500000 6.500000 9.500000
1271  4 2.500000 7.500000 0.500000
1272  4 2.500000 7.500000 1.500000
1273  4 2.500000 7.500000 2.500000
1274  4 2.500000 7.500000 3.500000
1275  4 2.500000 7.500000 4.500000
1276  4 2.500000 7.500000 5.500000
1277  4 2.500000 7.500000 6.500000
1278  4 2.500000 7.500000 7.500000
1279  4 2.500000 7.500000 8.500000
1280  4 2.500000 7.500000 9.500000
1281  4 2.500000 8.500000 0.500000
1282  4 2.500000 8.500000 1.500000
1283  4 2.500000 8.500000 2.500000
1284  4 2.500000 8.500000 3.500000
1285  4 2.500000 8.500000 4.500000
1286  4 2.500000 8.500000 5.500000
1287  4 2.500000 8.500000 6.500000
1288  4 2.500000 8.500000 7.500000
1289  4 2.500000 8.500000 8.500000
1290  4 2.500000 8.500000 9.500000
1291  4 2.500000 9.500000 0.500000
1292  4 2.500000 9.500000 1.500000
1293  4 2.500000 9.500000 2.500000
1294  4 2.500000 9.500000 3.500000
1295  4 2.500000 9.500000 4.500000
1296  4 2.500000 9.500000 5.500000
1297  4 2.500000 9.500000 6.500000
1298  4 2.500000 9.500000 7.500000
1299  4 2.500000 9.500000 8.500000
1300  4 2.500000 9.500000 9.500000
1301  4 3.500000 0.500000 0.500000
1302  4 3.500000 0.500000 1.500000
1303  4 3.500000 0.500000 2.500000
1304  4 3.500000 0.500000 3.500000
1305  4 3.500000 0.500000 4.500000
1306  4 3.500000 0.500000 5.500000
1307  4 3.500000 0.500000 6.500000
1308  4 3.500000 0.500000 7.500000
1309  4 3.500000 0.500000 8.500000
1310  4 3.500000 0.500000 9.500000
1311  4 3.500000 1.500000 0.500000
1312  4 3.500000 1.500000 1.500000
1313  4 3.500000 1.500000 2.500000
1314  4 3.500000 1.500000 3.500000
1315  4 3.500000 1.500000 4.500000
1316  4 3.500000 1.500000 5.500000
1317  4 3.500000 1.500000 6.500000
1318  4 3.500000 1.500000 7.500000
1319  4 3.500000 1.500000 8.500000
1320  4 3.500000 1.500000 9.500000
1321  4 3.500000 2.500000 0.500000
1322  4 3.500000 2.500000 1.500000
1323  4 3.500000 2.500000 2.500000
1324  4 3.500000 2.500000 3.500000
1325  4 3.500000 2.500000 4.500000
1326  4 3.500000 2.500000 5.500000
1327  4 3.500000 2.500000 6.500000
1328  4 3.500000 2.500000 7.500000
1329  4 3.500000 2.500000 8.500000
1330  4 3.500000 2.500000 9.500000
1331  4 3.500000 3.500000 0.500000
1332  4 3.500000 3.500000 1.500000
1333  4 3.500000 3.500000 2.500000
1334  4 3.500000 3.500000 3.500000
1335  4 3.500000 3.500000 4.500000
1336  4 3.500000 3.500000 5.500000
1337  4 3.500000 3.500000 6.500000
1338  4 3.500000 3.500000 7.500000
1339  4 3.500000 3.500000 8.500000
1340  4 3.500000 3.500000 9.500000
1341  4 3.500000 4.500000 0.500000
1342  4 3.500000 4.500000 1.500000
1343  4 3.500000 4.500000 2.500000
1344  4 3.500000 4.500000 3.500000
1345  4 3.500000 4.500000 4.500000
1346  4 3.500000 4.500000 5.500000
1347  4 3.500000 4.500000 6.500000
1348  4 3.500000 4.500000 7.500000
1349  4 3.500000 4.500000 8.500000
1350  4 3.500000 4.500000 9.500000
1351  4 3.500000 5.500000 0.500000
1352  4 3.500000 5.500000 1.500000
1353  4 3.500000 5.500000 2.500000
1354  4 3.500000 5.500000 3.500000
1355  4 3.500000 5.500000 4.500000
1356  4 3.500000 5.500000 5.500000
1357  4 3.500000 5.500000 6.500000
1358  4 3.500000 5.500000 7.500000
1359  4 3.500000 5.500000 8.500000
1360  4 3.500000 5.500000 9.500000
1361  4 3.500000 6.500000 0.500000
1362  4 3.500000 6.500000 1.500000
1363  4 3.500000 6.500000 2.500000
1364  4 3.500000 6.500000 3.500000
1365  4 3.500000 6.500000 4.500000
1366  4 3.500000 6.500000 5.500000
1367  4 3.500000 6.500000 6.500000
1368  4 3.500000 6.500000 7.500000
1369  4 3.500000 6.500000 8.500000
1370  4 3.500000 6.500000 9.500000
1371  4 3.500000 7.500000 0.500000
1372  4 3.500000 7.500000 1.500000
1373  4 3.500000 7.500000 2.500000
1374  4 3.500000 7.500000 3.500000
1375  4 3.500000 7.500000 4.500000
1376  4 3.500000 7.500000 5.500000
1377  4 3.500000 7.500000 6.500000
1378  4 3.500000 7.500000 7.500000
1379  4 3.500000 7.500000 8.500000
1380  4 3.500000 7.500000 9.500000
1381  4 3.500000 8.500000 0.500000
1382  4 3.500000 8.500000 1.500000
1383  4 3.500000 8.500000 2.500000
1384  4 3.500000 8.500000 3.500000
1385  4 3.500000 8.500000 4.500000
1386  4 3.500000 8.500000 5.500000
1387  4 3.500000 8.500000 6.500000
1388  4 3.500000 8.500000 7.500000
1389  4 3.500000 8.500000 8.500000
1390  4 3.500000 8.500000 9.500000
1391  4 3.500000 9.500000 0.500000
1392  4 3.500000 9.500000 1.500000
1393  4 3.500000 9.500000 2.500000
1394  4 3.500000 9.500000 3.500000
1395  4 3.500000 9.500000 4.500000
1396  4 3.500000 9.500000 5.500000
1397  4 3.500000 9.500000 6.500000
1398  4 3.500000 9.500000 7.500000
1399  4 3.500000 9.500000 8.500000
1400  4 3.500000 9.500000 9.500000
1401  4 4.500000 0.500000 0.500000
1402  4 4.500000 0.500000 1.500000
1403  4 4.500000 0.500000 2.500000
1404  4 4.500000 0.500000 3.500000
1405  4 4.500000 0.500000 4.500000
1406  4 4.500000 0.500000 5.500000
1407  4 4.500000 0.500000 6.500000
1408  4 4.500000 0.500000 7.500000
1409  4 4.500000 0.500000 8.500000
1410  4 4.500000 0.500000 9.500000
1411  4 4.500000 1.500000 0.500000
1412  4 4.500000 1.500000 1.500000
1413  4 4.500000 1.500000 2.500000
1414  4 4.500000 1.500000 3.500000
1415  4 4.500000 1.500000 4.500000
1416  4 4.500000 1.500000 5.500000
1417  4 4.500000 1.500000 6.500000
1418  4 4.500000 1.500000 7.500000
1419  4 4.500000 1.500000 8.500000
1420  4 4.500000 1.500000 9.500000
1421  4 4.500000 2.500000 0.500000
1422  4 4.500000 2.500000 1.500000
1423  4 4.500000 2.500000 2.500000
1424  4 4.500000 2.500000 3.500000
1425  4 4.500000 2.500000 4.500000
1426  4 4.500000 2.500000 5.500000
1427  4 4.500000 2.500000 6.500000
1428  4 4.500000 2.500000 7.500000
1429  4 4.500000 2.500000 8.500000
1430  4 4.500000 2.500000 9.500000
1431  4 4.500000 3.500000 0.500000
1432  4 4.500000 3.500000 1.500000
1433  4 4.500000 3.500000 2.500000
1434  4 4.500000 3.500000 3.500000
1435  4 4.500000 3.500000 4.500000
1436  4 4.500000 3.500000 5.500000
1437  4 4.500000 3.500000 6.500000
1438  4 4.500000 3.500000 7.500000
1439  4 4.500000 3.500000 8.500000
1440  4 4.500000 3.500000 9.500000
1441  4 4.500000 4.500000 0.500000
1442  4 4.500000 4.500000 1.500000
1443  4 4.500000 4.500000 2.500000
1444  4 4.500000 4.500000 3.500000
1445  4 4.500000 4.500000 4.500000
1446  4 4.500000 4.500000 5.500000
1447  4 4.500000 4.500000 6.500000
1448  4 4.500000 4.500000 7.500000
1449  4 4.500000 4.500000 8.500000
1450  4 4.500000 4.500000 9.500000
1451  4 4.500000 5.500000 0.500000
1452  4 4.500000 5.500000 1.500000
1453  4 4.500000 5.500000 2.500000
1454  4 4.500000 5.500000 3.500000
1455  4 4.500000 5.500000 4.500000
1456  4 4.500000 5.500000 5.500000
1457  4 4.500000 5.500000 6.500000
1458  4 4.500000 5.500000 7.500000
1459  4 4.500000 5.500000 8.500000
1460  4 4.500000 5.500000 9.500000
1461  4 4.500000 6.500000 0.500000
1462  4 4.500000 6.500000 1.500000
1463  4 4.500000 6.500000 2.500000
1464  4 4.500000 6.500000 3.500000
1465  4 4.500000 6.500000 4.500000
1466  4 4.500000 6.500000 5.500000
1467  4 4.500000 6.500000 6.500000
1468  4 4.500000 6.500000 7.500000
1469  4 4.500000 6.500000 8.500000
1470  4 4.500000 6.500000 9.500000
1471  4 4.500000 7.500000 0.500000
1472  4 4.500000 7.500000 1.500000
1473  4 4.500000 7.500000 2.500000
1474  4 4.500000 7.500000 3.500000
1475  4 4.500000 7.500000 4.500000
1476  4 4.500000 7.500000 5.500000
1477  4 4.500000 7.500000 6.500000
1478  4 4.500000 7.500000 7.500000
1479  4 4.500000 7.500000 8.500000
1480  4 4.500000 7.500000 9.500000
1481  4 4.500000 8.500000 0.500000
1482  4 4.500000 8.500000 1.500000
1483  4 4.500000 8.500000 2.500000
1484  4 4.500000 8.500000 3.500000
1485  4 4.500000 8.500000 4.500000
1486  4 4.500000 8.500000 5.500000
1487  4 4.500000 8.500000 6.500000
1488  4 4.500000 8.500000 7.500000
1489  4 4.500000 8.500000 8.500000
1490  4 4.500000 8.500000 9.500000
1491  4 4.500000 9.500000 0.500000
1492  4 4.500000 9.500000 1.500000
1493  4 4.500000 9.500000 2.500000
1494  4 4.500000 9.500000 3.500000
1495  4 4.500000 9.500000 4.500000
1496  4 4.500000 9.500000 5.500000
1497  4 4.500000 9.500000 6.500000
1498  4 4.500000 9.500000 7.500000
1499  4 4.500000 9.500000 8.500000
1500  4 4.500000 9.500000 9.500000
1501  4 5.500000 0.500000 0.500000
1502  4 5.500000 0.500000 1.500000
1503  4 5.500000 0.500000 2.500000
1504  4 5.500000 0.500000 3.500000
1505  4 5.500000 0.500000 4.500000
1506  4 5.500000 0.500000 5.500000
1507  4 5.500000 0.500000 6.500000
1508  4 5.500000 0.500000 7.500000
1509  4 5.500000 0.500000 8.500000
1510  4 5.500000 0.500000 9.500000
1511  4 5.500000 1.500000 0.500000
1512  4 5.500000 1.500000 1.500000
1513  4 5.500000 1.500000 2.500000
1514  4 5.500000 1.500000 3.500000
1515  4 5.500000 1.500000 4.500000
1516  4 5.500000 1.500000 5.500000
1517  4 5.500000 1.500000 6.500000
1518  4 5.500000 1.500000 7.500000
1519  4 5.500000 1.500000 8.500000
1520  4 5.500000 1.500000 9.500000
1521  4 5.500000 2.500000 0.500000
1522  4 5.500000 2.500000 1.500000
1523  4 5.500000 2.500000 2.500000
1524  4 5.500000 2.500000 3.500000
1525  4 5.500000 2.500000 4.500000
1526  4 5.500000 2.500000 5.500000
1527  4 5.500000 2.500000 6.500000
1528  4 5.500000 2.500000 7.500000
1529  4 5.500000 2.500000 8.500000
1530  4 5.500000 2.500000 9.500000
1531  4 5.500000 3.500000 0.500000
1532  4 5.500000 3.500000 1.500000
1533  4 5.500000 3.500000 2.500000
1534  4 5.500000 3.500000 3.500000
1535  4 5.500000 3.500000 4.500000
1536  4 5.500000 3.500000 5.500000
1537  4 5.500000 3.500000 6.500000
1538  4 5.500000 3.500000 7.500000
1539  4 5.500000 3.500000 8.500000
1540  4 5.500000 3.500000 9.500000
1541  4 5.500000 4.500000 0.500000
1542  4 5.500000 4.500000 1.500000
1543  4 5.500000 4.500000 2.500000
1544  4 5.500000 4.500000 3.500000
1545  4 5.500000 4.500000 4.500000
1546  4 5.500000 4.500000 5.500000
1547  4 5.500000 4.500000 6.500000
1548  4 5.500000 4.500000 7.500000
1549  4 5.500000 4.500000 8.500000
1550  4 5.500000 4.500000 9.500000
1551  4 5.500000 5.500000 0.500000
1552  4 5.500000 5.500000 1.500000
1553  4 5.500000 5.500000 2.500000
1554  4 5.500000 5.500000 3.500000
1555  4 5.500000 5.500000 4.500000
1556  4 5.500000 5.500000 5.500000
1557  4 5.500000 5.500000 6.500000
1558  4 5.500000 5.500000 7.500000
1559  4 5.500000 5.500000 8.500000
1560  4 5.500000 5.500000 9.500000
1561  4 5.500000 6.500000 0.500000
1562  4 5.500000 6.500000 1.500000
1563  4 5.500000 6.500000 2.500000
1564  4 5.500000 6.500000 3.500000
1565  4 5.500000 6.500000 4.500000
1566  4 5.500000 6.500000 5.500000
1567  4 5.500000 6.500000 6.500000
1568  4 5.500000 6.500000 7.500000
1569  4 5.500000 6.500000 8.500000
1570  4 5.500000 6.500000 9.500000
1571  4 5.500000 7.500000 0.500000
1572  4 5.500000 7.500000 1.500000
1573  4 5.500000 7.500000 2.500000
1574  4 5.500000 7.500000 3.500000
1575  4 5.500000 7.500000 4.500000
1576  4 5.500000 7.500000 5.500000
1577  4 5.500000 7.500000 6.500000
1578  4 5.500000 7.500000 7.500000
1579  4 5.500000 7.500000 8.500000
1580  4 5.500000 7.500000 9.500000
1581  4 5.500000 8.500000 0.500000
1582  4 5.500000 8.500000 1.500000
1583  4 5.500000 8.500000 2.500000
1584  4 5.500000 8.500000 3.500000
1585  4 5.500000 8.500000 4.500000
1586  4 5.500000 8.500000 5.500000
1587  4 5.500000 8.500000 6.500000
1588  4 5.500000 8.500000 7.500000
1589  4 5.500000 8.500000 8.500000
1590  4 5.500000 8.500000 9.500000
1591  4 5.500000 9.500000 0.500000
1592  4 5.500000 9.500000 1.500000
1593  4 5.500000 9.500000 2.500000
1594  4 5.500000 9.500000 3.500000
1595  4 5.500000 9.500000 4.500000
1596  4 5.500000 9.500000 5.500000
1597  4 5.500000 9.500000 6.500000
1598  4 5.500000 9.500000 7.500000
1599  4 5.500000 9.500000 8.500000
1600  4 5.500000 9.500000 9.500000
1601  4 6.500000 0.500000 0.500000
1602  4 6.500000 0.500000 1.500000
1603  4 6.500000 0.500000 2.500000
1604  4 6.500000 0.500000 3.500000
1605  4 6.500000 0.500000 4.500000
1606  4 6.500000 0.500000 5.500000
1607  4 6.500000 0.500000 6.500000
1608  4 6.500000 0.500000 7.500000
1609  4 6.500000 0.500000 8.500000
1610  4 6.500000 0.500000 9.500000
1611  4 6.500000 1.500000 0.500000
1612  4 6.500000 1.500000 1.500000
1613  4 6.500000 1.500000 2.500000
1614  4 6.500000 1.500000 3.500000
1615  4 6.500000 1.500000 4.500000
1616  4 6.500000 1.500000 5.500000
1617  4 6.500000 1.500000 6.500000
1618  4 6.500000 1.500000 7.500000
1619  4 6.500000 1.500000 8.500000
1620  4 6.500000 1.500000 9.500000
1621  4 6.500000 2.500000 0.500000
1622  4 6.500000 2.500000 1.500000
1623  4 6.500000 2.500000 2.500000
1624  4 6.500000 2.500000 3.500000
1625  4 6.500000 2.500000 4.500000
1626  4 6.500000 2.500000 5.500000
1627  4 6.500000 2.500000 6.500000
1628  4 6.500000 2.500000 7.500000
1629  4 6.500000 2.500000 8.500000
1630  4 6.500000 2.500000 9.500000
1631  4 6.500000 3.500000 0.500000
1632  4 6.500000 3.500000 1.500000
1633  4 6.500000 3.500000 2.500000
1634  4 6.500000 3.500000 3.500000
1635  4 6.500000 3.500000 4.500000
1636  4 6.500000 3.500000 5.500000
1637  4 6.500000 3.500000 6.500000
1638  4 6.500000 3.500000 7.500000
1639  4 6.500000 3.500000 8.500000
1640  4 6.500000 3.500000 9.500000
1641  4 6.500000 4.500000 0.500000
1642  4 6.500000 4.500000 1.500000
1643  4 6.500000 4.500000 2.500000
1644  4 6.500000 4.500000 3.500000
1645  4 6.500000 4.500000 4.500000
1646  4 6.500000 4.500000 5.500000
1647  4 6.500000 4.500000 6.500000
1648  4 6.500000 4.500000 7.500000
1649  4 6.500000 4.500000 8.500000
1650  4 6.500000 4.500000 9.500000
1651  4 6.500000 5.500000 0.500000
1652  4 6.500000 5.500000 1.500000
1653  4 6.500000 5.500000 2.500000
1654  4 6.500000 5.500000 3.500000
1655  4 6.500000 5.500000 4.500000
1656  4 6.500000 5.500000 5.500000
1657  4 6.500000 5.500000 6.500000
1658  4 6.500000 5.500000 7.500000
1659  4 6.500000 5.500000 8.500000
1660  4 6.500000 5.500000 9.500000
1661  4 6.500000 6.500000 0.500000
1662  4 6.500000 6.500000 1.500000
1663  4 6.500000 6.500000 2.500000
1664  4 6.500000 6.500000 3.500000
1665  4 6.500000 6.500000 4.500000
1666  4 6.500000 6.500000 5.500000
1667  4 6.500000 6.500000 6.500000
1668  4 6.500000 6.500000 7.500000
1669  4 6.500000 6.500000 8.500000
1670  4 6.500000 6.500000 9.500000
1671  4 6.500000 7.500000 0.500000
1672  4 6.500000 7.500000 1.500000
1673  4 6.500000 7.500000 2.500000
1674  4 6.500000 7.500000 3.500000
1675  4 6.500000 7.500000 4.500000
1676  4 6.500000 7.500000 5.500000
1677  4 6.500000 7.500000 6.500000
1678  4 6.500000 7.500000 7.500000
1679  4 6.500000 7.500000 8.500000
1680  4 6.500000 7.500000 9.500000
1681  4 6.500000 8.500000 0.500000
1682  4 6.500000 8.500000 1.500000
1683  4 6.500000 8.500000 2.500000
1684  4 6.500000 8.500000 3.500000
1685  4 6.500000 8.500000 4.500000
1686  4 6.500000 8.500000 5.500000
1687  4 6.500000 8.500000 6.500000
1688  4 6.500000 8.500000 7.500000
1689  4 6.500000 8.500000 8.500000
1690  4 6.500000 8.500000 9.500000
1691  4 6.500000 9.500000 0.500000
1692  4 6.500000 9.500000 1.500000
1693  4 6.500000 9.500000 2.500000
1694  4 6.500000 9.500000 3.500000
1695  4 6.500000 9.500000 4.500000
1696  4 6.500000 9.500000 5.500000
1697  4 6.500000 9.500000 6.500000
1698  4 6.500000 9.500000 7.500000
1699  4 6.500000 9.500000 8.500000
1700  4 6.500000 9.500000 9.500000
1701  4 7.500000 0.500000 0.500000
1702  4 7.500000 0.500000 1.500000
1703  4 7.500000 0.500000 2.500000
1704  4 7.500000 0.500000 3.500000
1705  4 7.500000 0.500000 4.500000
1706  4 7.500000 0.500000 5.500000
1707  4 7.500000 0.500000 6.500000
1708  4 7.500000 0.500000 7.500000
1709  4 7.500000 0.500000 8.500000
1710  4 7.500000 0.500000 9.500000
1711  4 7.500000 1.500000 0.500000
1712  4 7.500000 1.500000 1.500000
1713  4 7.500000 1.500000 2.500000
1714  4 7.500000 1.500000 3.500000
1715  4 7.500000 1.500000 4.500000
1716  4 7.500000 1.500000 5.500000
1717  4 7.500000 1.500000 6.500000
1718  4 7.500000 1.500000 7.500000
1719  4 7.500000 1.500000 8.500000
1720  4 7.500000 1.500000 9.500000
1721  4 7.500000 2.500000 0.500000
1722  4 7.500000 2.500000 1.500000
1723  4 7.500000 2.500000 2.500000
1724  4 7.500000 2.500000 3.500000
1725  4 7.500000 2.500000 4.500000
1726  4 7.500000 2.500000 5.500000
1727  4 7.500000 2.500000 6.500000
1728  4 7.500000 2.500000 7.500000
1729  4 7.500000 2.500000 8.500000
1730  4 7.500000 2.500000 9.500000
1731  4 7.500000 3.500000 0.500000
1732  4 7.500000 3.500000 1.500000
1733  4 7.500000 3.500000 2.500000
1734  4 7.500000 3.500000 3.500000
1735  4 7.500000 3.500000 4.500000
1736  4 7.500000 3.500000 5.500000
1737  4 7.500000 3.500000 6.500000
1738  4 7.500000 3.500000 7.500000
1739  4 7.500000 3.500000 8.500000
1740  4 7.500000 3.500000 9.500000
1741  4 7.500000 4.500000 0.500000
1742  4 7.500000 4.500000 1.500000
1743  4 7.500000 4.500000 2.500000
1744  4 7.500000 4.500000 3.500000
1745  4 7.500000 4.500000 4.500000
1746  4 7.500000 4.500000 5.500000
1747  4 7.500000 4.500000 6.500000
1748  4 7.500000 4.500000 7.500000
1749  4 7.500000 4.500000 8.500000
1750  4 7.500000 4.500000 9.500000
1751  4 7.500000 5.500000 0.500000
1752  4 7.500000 5.500000 1.500000
1753  4 7.500000 5.500000 2.500000
1754  4 7.500000 5.500000 3.500000
1755  4 7.500000 5.500000 4.500000
1756  4 7.500000 5.500000 5.500000
1757  4 7.500000 5.500000 6.500000
1758  4 7.500000 5.500000 7.500000
1759  4 7.500000 5.500000 8.500000
1760  4 7.500000 5.500000 9.500000
1761  4 7.500000 6.500000 0.500000
1762  4 7.500000 6.500000 1.500000
1763  4 7.500000 6.500000 2.500000
1764  4 7.500000 6.500000 3.500000
1765  4 7.500000 6.500000 4.500000
1766  4 7.500000 6.500000 5.500000
1767  4 7.500000 6.500000 6.500000
1768  4 7.500000 6.500000 7.500000
1769  4 7.500000 6.500000 8.500000
1770  4 7.500000 6.500000 9.500000
1771  4 7.500000 7.500000 0.500000
1772  4 7.500000 7.500000 1.500000
1773  4 7.500000 7.500000 2.500000
1774  4 7.500000 7.500000 3.500000
1775  4 7.500000 7.500000 4.500000
1776  4 7.500000 7.500000 5.500000
1777  4 7.500000 7.500000 6.500000
1778  4 7.500000 7.500000 7.500000
1779  4 7.500000 7.500000 8.500000
1780  4 7.500000 7.500000 9.500000
1781  4 7.500000 8.500000 0.500000
1782  4 7.500000 8.500000 1.500000
1783  4 7.500000 8.500000 2.500000
1784  4 7.500000 8.500000 3.500000
1785  4 7.500000 8.500000 4.500000
1786  4 7.500000 8.500000 5.500000
1787  4 7.500000 8.500000 6.500000
1788  4 7.500000 8.500000 7.500000
1789  4 7.500000 8.500000 8.500000
1790  4 7.500000 8.500000 9.500000
1791  4 7.500000 9.500000 0.500000
1792  4 7.500000 9.500000 1.500000
1793  4 7.500000 9.500000 2.500000
1794  4 7.500000 9.500000 3.500000
1795  4 7.500000 9.500000 4.500000
1796  4 7.500000 9.500000 5.500000
1797  4 7.500000 9.500000 6.500000
1798  4 7.500000 9.500000 7.500000
1799  4 7.500000 9.500000 8.500000
1800  4 7.500000 9.500000 9.500000
1801  4 8.500000 0.500000 0.500000
1802  4 8.500000 0.500000 1.500000
1803  4 8.500000 0.500000 2.500000
1804  4 8.500000 0.500000 3.500000
1805  4 8.500000 0.500000 4.500000
1806  4 8.500000 0.500000 5.500000
1807  4 8.500000 0.500000 6.500000
1808  4 8.500000 0.500000 7.500000
1809  4 8.500000 0.500000 8.500000
1810  4 8.500000 0.500000 9.500000
1811  4 8.500000 1.500000 0.500000
1812  4 8.500000 1.500000 1.500000
1813  4 8.500000 1.500000 2.500000
1814  4 8.500000 1.500000 3.500000
1815  4 8.500000 1.500000 4.500000
1816  4 8.500000 1.500000 5.500000
1817  4 8.500000 1.500000 6.500000
1818  4 8.500000 1.500000 7.500000
1819  4 8.500000 1.500000 8.500000
1820  4 8.500000 1.500000 9.500000
1821  4 8.500000 2.500000 0.500000
1822  4 8.500000 2.500000 1.500000
1823  4 8.500000 2.500000 2.500000
1824  4 8.500000 2.500000 3.500000
1825  4 8.500000 2.500000 4.500000
1826  4 8.500000 2.500000 5.500000
1827  4 8.500000 2.500000 6.500000
1828  4 8.500000 2.500000 7.500000
1829  4 8.500000 2.500000 8.500000
1830  4 8.500000 2.500000 9.500000
1831  4 8.500000 3.500000 0.500000
1832  4 8.500000 3.500000 1.500000
1833  4 8.500000 3.500000 2.500000
1834  4 8.500000 3.500000 3.500000
1835  4 8.500000 3.500000 4.500000
1836  4 8.500000 3.500000 5.500000
1837  4 8.500000 3.500000 6.500000
1838  4 8.500000 3.500000 7.500000
1839  4 8.500000 3.500000 8.500000
1840  4 8.500000 3.500000 9.500000
1841  4 8.500000 4.500000 0.500000
1842  4 8.500000 4.500000 1.500000
1843  4 8.500000 4.500000 2.500000
1844  4 8.500000 4.500000 3.500000
1845  4 8.500000 4.500000 4.500000
1846  4 8.500000 4.500000 5.500000
1847  4 8.500000 4.500000 6.500000
1848  4 8.500000 4.500000 7.500000
1849  4 8.500000 4.500000 8.500000
1850  4 8.500000 4.500000 9.500000
1851  4 8.500000 5.500000 0.500000
1852  4 8.500000 5.500000 1.500000
1853  4 8.500000 5.500000 2.500000
1854  4 8.500000 5.500000 3.500000
1855  4 8.500000 5.500000 4.500000
1856  4 8.500000 5.500000 5.500000
1857  4 8.500000 5.500000 6.500000
1858  4 8.500000 5.500000 7.500000
1859  4 8.500000 5.500000 8.500000
1860  4 8.500000 5.500000 9.500000
1861  4 8.500000 6.500000 0.500000
1862  4 8.500000 6.500000 1.500000
1863  4 8.500000 6.500000 2.500000
1864  4 8.500000 6.500000 3.500000
1865  4 8.500000 6.500000 4.500000
1866  4 8.500000 6.500000 5.500000
1867  4 8.500000 6.500000 6.500000
1868  4 8.500000 6.500000 7.500000
1869  4 8.500000 6.500000 8.500000
1870  4 8.500000 6.500000 9.500000
1871  4 8.500000 7.500000 0.500000
1872  4 8.500000 7.500000 1.500000
1873  4 8.500000 7.500000 2.500000
1874  4 8.500000 7.500000 3.500000
1875  4 8.500000 7.500000 4.500000
1876  4 8.500000 7.500000 5.500000
1877  4 8.500000 7.500000 6.500000
1878  4 8.500000 7.500000 7.500000
1879  4 8.500000 7.500000 8.500000
1880  4 8.500000 7.500000 9.500000
1881  4 8.500000 8.500000 0.500000
1882  4 8.500000 8.500000 1.500000
1883  4 8.500000 8.500000 2.500000
1884  4 8.500000 8.500000 3.500000
1885  4 8.500000 8.500000 4.500000
1886  4 8.500000 8.500000 5.500000
1887  4 8.500000 8.500000 6.500000
1888  4 8.500000 8.500000 7.500000
1889  4 8.500000 8.500000 8.500000
1890  4 8.500000 8.500000 9.500000
1891  4 8.500000 9.500000 0.500000
1892  4 8.500000 9.500000 1.500000
1893  4 8.500000 9.500000 2.500000
1894  4 8.500000 9.500000 3.500000
1895  4 8.500000 9.500000 4.500000
1896  4 8.500000 9.500000 5.500000
1897  4 8.500000 9.500000 6.500000
1898  4 8.500000 9.500000 7.500000
1899  4 8.500000 9.500000 8.500000
1900  4 8.500000 9.500000 9.500000
1901  4 9.500000 0.500000 0.500000
1902  4 9.500000 0.500000 1.500000
1903  4 9.500000 0.500000 2.500000
1904  4 9.500000 0.500000 3.500000
1905  4 9.500000 0.500000 4.500000
1906  4 9.500000 0.500000 5.500000
1907  4 9.500000 0.500000 6.500000
1908  4 9.500000 0.500000 7.500000
1909  4 9.500000 0.500000 8.500000
1910  4 9.500000 0.500000 9.500000
1911  4 9.500000 1.500000 0.500000
1912  4 9.500000 1.500000 1.500000
1913  4 9.500000 1.500000 2.500000
1914  4 9.500000 1.500000 3.500000
1915  4 9.500000 1.500000 4.500000
1916  4 9.500000 1.500000 5.500000
1917  4 9.500000 1.500000 6.500000
1918  4 9.500000 1.500000 7.500000
1919  4 9.500000 1.500000 8.500000
1920  4 9.500000 1.500000 9.500000
1921  4 9.500000 2.500000 0.500000
1922  4 9.500000 2.500000 1.500000
1923  4 9.500000 2.500000 2.500000
1924  4 9.500000 2.500000 3.500000
1925  4 9.500000 2.500000 4.500000
1926  4 9.500000 2.500000 5.500000
1927  4 9.500000 2.500000 6.500000
1928  4 9.500000 2.500000 7.500000
1929  4 9.500000 2.500000 8.500000
1930  4 9.500000 2.500000 9.500000
1931  4 9.500000 3.500000 0.500000
1932  4 9.500000 3.500000 1.500000
1933  4 9.500000 3.500000 2.500000
1934  4 9.500000 3.500000 3.500000
1935  4 9.500000 3.500000 4.500000
1936  4 9.500000 3.500000 5.500000
1937  4 9.500000 3.500000 6.500000
1938  4 9.500000 3.500000 7.500000
1939  4 9.500000 3.500000 8.500000
1940  4 9.500000 3.500000 9.500000
1941  4 9.500000 4.500000 0.500000
1942  4 9.500000 4.500000 1.500000
1943  4 9.500000 4.500000 2.500000
1944  4 9.500000 4.500000 3.500000
1945  4 9.500000 4.500000 4.500000
1946  4 9.500000 4.500000 5.500000
1947  4 9.500000 4.500000 6.500000
1948  4 9.500000 4.500000 7.500000
1949  4 9.500000 4.500000 8.500000
1950  4 9.500000 4.500000 9.500000
1951  4 9.500000 5.500000 0.500000
1952  4 9.500000 5.500000 1.500000
1953  4 9.500000 5.500000 2.500000
1954  4 9.500000 5.500000 3.500000
1955  4 9.500000 5.500000 4.500000
1956  4 9.500000 5.500000 5.500000
1957  4 9.500000 5.500000 6.500000
1958  4 9.500000 5.500000 7.500000
1959  4 9.500000 5.500000 8.500000
1960  4 9.500000 5.500000 9.500000
1961  4 9.500000 6.500000 0.500000
1962  4 9.500000 6.500000 1.500000
1963  4 9.500000 6.500000 2.500000
1964  4 9.500000 6.500000 3.500000
1965  4 9.500000 6.500000 4.500000
1966  4 9.500000 6.500000 5.500000
1967  4 9.500000 6.500000 6.500000
1968  4 9.500000 6.500000 7.500000
1969  4 9.500000 6.500000 8.500000
1970  4 9.500000 6.500000 9.500000
1971  4 9.500000 7.500000 0.500000
1972  4 9.500000 7.500000 1.500000
1973  4 9.500000 7.500000 2.500000
1974  4 9.500000 7.500000 3.500000
1975  4 9.500000 7.500000 4.500000
1976  4 9.500000 7.500000 5.500000
1977  4 9.500000 7.500000 6.500000
1978  4 9.500000 7.500000 7.500000
1979  4 9.500000 7.500000 8.500000
1980  4 9.500000 7.500000 9.500000
1981  4 9.500000 8.500000 0.500000
1982  4 9.500000 8.500000 1.500000
1983  4 9.500000 8.500000 2.500000
1984  4 9.500000 8.500000 3.500000
1985  4 9.500000 8.500000 4.500000
1986  4 9.500000 8.500000 5.500000
1987  4 9.500000 8.500000 6.500000
1988  4 9.500000 8.500000 7.500000
1989  4 9.500000 8.500000 8.500000
1990  4 9.500000 8.500000 9.500000
1991  4 9.500000 9.500000 0.500000
1992  4 9.500000 9.500000 1.500000
1993  4 9.500000 9.500000 2.500000
1994  4 9.500000 9.500000 3.500000
1995  4 9.500000 9.500000 4.500000
1996  4 9.500000 9.500000 5.500000
1997  4 9.500000 9.500000 6.500000
1998  4 9.500000 9.500000 7.500000
1999  4 9.500000 9.500000 8.500000
2000  4 9.500000 9.500000 9.500000

