Generated by pymatgen.io.lammps.data.LammpsData

2000  atoms

   4  atom types

0.000000 10.000000  xlo xhi
0.000000 10.000000  ylo yhi
0.000000 10.000000  zlo zhi
0.000000 0.000000 0.000000  xy xz yz

Masses

1  55.845
2   1.008
3   4.003
4  51.996

Atoms

1     2 0.000000 0.000000 0.000000
2     2 0.000000 0.000000 1.000000
3     2 0.000000 0.000000 2.000000
4     2 0.000000 0.000000 3.000000
5     2 0.000000 0.000000 4.000000
6     2 0.000000 0.000000 5.000000
7     2 0.000000 0.000000 6.000000
8     2 0.000000 0.000000 7.000000
9     2 0.000000 0.000000 8.000000
10    2 0.000000 0.000000 9.000000
11    2 0.000000 1.000000 0.000000
12    2 0.000000 1.000000 1.000000
13    2 0.000000 1.000000 2.000000
14    2 0.000000 1.000000 3.000000
15    2 0.000000 1.000000 4.000000
16    2 0.000000 1.000000 5.000000
17    2 0.000000 1.000000 6.000000
18    2 0.000000 1.000000 7.000000
19    2 0.000000 1.000000 8.000000
20    2 0.000000 1.000000 9.000000
21    2 0.000000 2.000000 0.000000
22    2 0.000000 2.000000 1.000000
23    2 0.000000 2.000000 2.000000
24    2 0.000000 2.000000 3.000000
25    2 0.000000 2.000000 4.000000
26    2 0.000000 2.000000 5.000000
27    2 0.000000 2.000000 6.000000
28    2 0.000000 2.000000 7.000000
29    2 0.000000 2.000000 8.000000
30    2 0.000000 2.000000 9.000000
31    2 0.000000 3.000000 0.000000
32    2 0.000000 3.000000 1.000000
33    2 0.000000 3.000000 2.000000
34    2 0.000000 3.000000 3.000000
35    2 0.000000 3.000000 4.000000
36    2 0.000000 3.000000 5.000000
37    2 0.000000 3.000000 6.000000
38    2 0.000000 3.000000 7.000000
39    2 0.000000 3.000000 8.000000
40    2 0.000000 3.000000 9.000000
41    2 0.000000 4.000000 0.000000
42    2 0.000000 4.000000 1.000000
43    2 0.000000 4.000000 2.000000
44    2 0.000000 4.000000 3.000000
45    2 0.000000 4.000000 4.000000
46    2 0.000000 4.000000 5.000000
47    2 0.000000 4.000000 6.000000
48    2 0.000000 4.000000 7.000000
49    2 0.000000 4.000000 8.000000
50    2 0.000000 4.000000 9.000000
51    2 0.000000 5.000000 0.000000
52    2 0.000000 5.000000 1.000000
53    2 0.000000 5.000000 2.000000
54    2 0.000000 5.000000 3.000000
55    2 0.000000 5.000000 4.000000
56    2 0.000000 5.000000 5.000000
57    2 0.000000 5.000000 6.000000
58    2 0.000000 5.000000 7.000000
59    2 0.000000 5.000000 8.000000
60    2 0.000000 5.000000 9.000000
61    2 0.000000 6.000000 0.000000
62    2 0.000000 6.000000 1.000000
63    2 0.000000 6.000000 2.000000
64    2 0.000000 6.000000 3.000000
65    2 0.000000 6.000000 4.000000
66    2 0.000000 6.000000 5.000000
67    2 0.000000 6.000000 6.000000
68    2 0.000000 6.000000 7.000000
69    2 0.000000 6.000000 8.000000
70    2 0.000000 6.000000 9.000000
71    2 0.000000 7.000000 0.000000
72    2 0.000000 7.000000 1.000000
73    2 0.000000 7.000000 2.000000
74    2 0.000000 7.000000 3.000000
75    2 0.000000 7.000000 4.000000
76    2 0.000000 7.000000 5.000000
77    2 0.000000 7.000000 6.000000
78    2 0.000000 7.000000 7.000000
79    2 0.000000 7.000000 8.000000
80    2 0.000000 7.000000 9.000000
81    2 0.000000 8.000000 0.000000
82    2 0.000000 8.000000 1.000000
83    2 0.000000 8.000000 2.000000
84    2 0.000000 8.000000 3.000000
85    2 0.000000 8.000000 4.000000
86    2 0.000000 8.000000 5.000000
87    2 0.000000 8.000000 6.000000
88    2 0.000000 8.000000 7.000000
89    2 0.000000 8.000000 8.000000
90    2 0.000000 8.000000 9.000000
91    2 0.000000 9.000000 0.000000
92    2 0.000000 9.000000 1.000000
93    2 0.000000 9.000000 2.000000
94    2 0.000000 9.000000 3.000000
95    2 0.000000 9.000000 4.000000
96    2 0.000000 9.000000 5.000000
97    2 0.000000 9.000000 6.000000
98    2 0.000000 9.000000 7.000000
99    2 0.000000 9.000000 8.000000
100   2 0.000000 9.000000 9.000000
101   2 1.000000 0.000000 0.000000
102   2 1.000000 0.000000 1.000000
103   2 1.000000 0.000000 2.000000
104   2 1.000000 0.000000 3.000000
105   2 1.000000 0.000000 4.000000
106   2 1.000000 0.000000 5.000000
107   2 1.000000 0.000000 6.000000
108   2 1.000000 0.000000 7.000000
109   2 1.000000 0.000000 8.000000
110   2 1.000000 0.000000 9.000000
111   2 1.000000 1.000000 0.000000
112   2 1.000000 1.000000 1.000000
113   2 1.000000 1.000000 2.000000
114   2 1.000000 1.000000 3.000000
115   2 1.000000 1.000000 4.000000
116   2 1.000000 1.000000 5.000000
117   2 1.000000 1.000000 6.000000
118   2 1.000000 1.000000 7.000000
119   2 1.000000 1.000000 8.000000
120   2 1.000000 1.000000 9.000000
121   2 1.000000 2.000000 0.000000
122   2 1.000000 2.000000 1.000000
123   2 1.000000 2.000000 2.000000
124   2 1.000000 2.000000 3.000000
125   2 1.000000 2.000000 4.000000
126   2 1.000000 2.000000 5.000000
127   2 1.000000 2.000000 6.000000
128   2 1.000000 2.000000 7.000000
129   2 1.000000 2.000000 8.000000
130   2 1.000000 2.000000 9.000000
131   2 1.000000 3.000000 0.000000
132   2 1.000000 3.000000 1.000000
133   2 1.000000 3.000000 2.000000
134   2 1.000000 3.000000 3.000000
135   2 1.000000 3.000000 4.000000
136   2 1.000000 3.000000 5.000000
137   2 1.000000 3.000000 6.000000
138   2 1.000000 3.000000 7.000000
139   2 1.000000 3.000000 8.000000
140   2 1.000000 3.000000 9.000000
141   2 1.000000 4.000000 0.000000
142   2 1.000000 4.000000 1.000000
143   2 1.000000 4.000000 2.000000
144   2 1.000000 4.000000 3.000000
145   2 1.000000 4.000000 4.000000
146   2 1.000000 4.000000 5.000000
147   2 1.000000 4.000000 6.000000
148   2 1.000000 4.000000 7.000000
149   2 1.000000 4.000000 8.000000
150   2 1.000000 4.000000 9.000000
151   2 1.000000 5.000000 0.000000
152   2 1.000000 5.000000 1.000000
153   2 1.000000 5.000000 2.000000
154   2 1.000000 5.000000 3.000000
155   2 1.000000 5.000000 4.000000
156   2 1.000000 5.000000 5.000000
157   2 1.000000 5.000000 6.000000
158   2 1.000000 5.000000 7.000000
159   2 1.000000 5.000000 8.000000
160   2 1.000000 5.000000 9.000000
161   2 1.000000 6.000000 0.000000
162   2 1.000000 6.000000 1.000000
163   2 1.000000 6.000000 2.000000
164   2 1.000000 6.000000 3.000000
165   2 1.000000 6.000000 4.000000
166   2 1.000000 6.000000 5.000000
167   2 1.000000 6.000000 6.000000
168   2 1.000000 6.000000 7.000000
169   2 1.000000 6.000000 8.000000
170   2 1.000000 6.000000 9.000000
171   2 1.000000 7.000000 0.000000
172   2 1.000000 7.000000 1.000000
173   2 1.000000 7.000000 2.000000
174   2 1.000000 7.000000 3.000000
175   2 1.000000 7.000000 4.000000
176   2 1.000000 7.000000 5.000000
177   2 1.000000 7.000000 6.000000
178   2 1.000000 7.000000 7.000000
179   2 1.000000 7.000000 8.000000
180   2 1.000000 7.000000 9.000000
181   2 1.000000 8.000000 0.000000
182   2 1.000000 8.000000 1.000000
183   2 1.000000 8.000000 2.000000
184   2 1.000000 8.000000 3.000000
185   2 1.000000 8.000000 4.000000
186   2 1.000000 8.000000 5.000000
187   2 1.000000 8.000000 6.000000
188   2 1.000000 8.000000 7.000000
189   2 1.000000 8.000000 8.000000
190   2 1.000000 8.000000 9.000000
191   2 1.000000 9.000000 0.000000
192   2 1.000000 9.000000 1.000000
193   2 1.000000 9.000000 2.000000
194   2 1.000000 9.000000 3.000000
195   2 1.000000 9.000000 4.000000
196   2 1.000000 9.000000 5.000000
197   2 1.000000 9.000000 6.000000
198   2 1.000000 9.000000 7.000000
199   2 1.000000 9.000000 8.000000
200   2 1.000000 9.000000 9.000000
201   2 2.000000 0.000000 0.000000
202   2 2.000000 0.000000 1.000000
203   2 2.000000 0.000000 2.000000
204   2 2.000000 0.000000 3.000000
205   2 2.000000 0.000000 4.000000
206   2 2.000000 0.000000 5.000000
207   2 2.000000 0.000000 6.000000
208   2 2.000000 0.000000 7.000000
209   2 2.000000 0.000000 8.000000
210   2 2.000000 0.000000 9.000000
211   2 2.000000 1.000000 0.000000
212   2 2.000000 1.000000 1.000000
213   2 2.000000 1.000000 2.000000
214   2 2.000000 1.000000 3.000000
215   2 2.000000 1.000000 4.000000
216   2 2.000000 1.000000 5.000000
217   2 2.000000 1.000000 6.000000
218   2 2.000000 1.000000 7.000000
219   2 2.000000 1.000000 8.000000
220   2 2.000000 1.000000 9.000000
221   2 2.000000 2.000000 0.000000
222   2 2.000000 2.000000 1.000000
223   2 2.000000 2.000000 2.000000
224   2 2.000000 2.000000 3.000000
225   2 2.000000 2.000000 4.000000
226   2 2.000000 2.000000 5.000000
227   2 2.000000 2.000000 6.000000
228   2 2.000000 2.000000 7.000000
229   2 2.000000 2.000000 8.000000
230   2 2.000000 2.000000 9.000000
231   2 2.000000 3.000000 0.000000
232   2 2.000000 3.000000 1.000000
233   2 2.000000 3.000000 2.000000
234   2 2.000000 3.000000 3.000000
235   2 2.000000 3.000000 4.000000
236   2 2.000000 3.000000 5.000000
237   2 2.000000 3.000000 6.000000
238   2 2.000000 3.000000 7.000000
239   2 2.000000 3.000000 8.000000
240   2 2.000000 3.000000 9.000000
241   2 2.000000 4.000000 0.000000
242   2 2.000000 4.000000 1.000000
243   2 2.000000 4.000000 2.000000
244   2 2.000000 4.000000 3.000000
245   2 2.000000 4.000000 4.000000
246   2 2.000000 4.000000 5.000000
247   2 2.000000 4.000000 6.000000
248   2 2.000000 4.000000 7.000000
249   2 2.000000 4.000000 8.000000
250   2 2.000000 4.000000 9.000000
251   2 2.000000 5.000000 0.000000
252   2 2.000000 5.000000 1.000000
253   2 2.000000 5.000000 2.000000
254   2 2.000000 5.000000 3.000000
255   2 2.000000 5.000000 4.000000
256   2 2.000000 5.000000 5.000000
257   2 2.000000 5.000000 6.000000
258   2 2.000000 5.000000 7.000000
259   2 2.000000 5.000000 8.000000
260   2 2.000000 5.000000 9.000000
261   2 2.000000 6.000000 0.000000
262   2 2.000000 6.000000 1.000000
263   2 2.000000 6.000000 2.000000
264   2 2.000000 6.000000 3.000000
265   2 2.000000 6.000000 4.000000
266   2 2.000000 6.000000 5.000000
267   2 2.000000 6.000000 6.000000
268   2 2.000000 6.000000 7.000000
269   2 2.000000 6.000000 8.000000
270   2 2.000000 6.000000 9.000000
271   2 2.000000 7.000000 0.000000
272   2 2.000000 7.000000 1.000000
273   2 2.000000 7.000000 2.000000
274   2 2.000000 7.000000 3.000000
275   2 2.000000 7.000000 4.000000
276   2 2.000000 7.000000 5.000000
277   2 2.000000 7.000000 6.000000
278   2 2.000000 7.000000 7.000000
279   2 2.000000 7.000000 8.000000
280   2 2.000000 7.000000 9.000000
281   2 2.000000 8.000000 0.000000
282   2 2.000000 8.000000 1.000000
283   2 2.000000 8.000000 2.000000
284   2 2.000000 8.000000 3.000000
285   2 2.000000 8.000000 4.000000
286   2 2.000000 8.000000 5.000000
287   2 2.000000 8.000000 6.000000
288   2 2.000000 8.000000 7.000000
289   2 2.000000 8.000000 8.000000
290   2 2.000000 8.000000 9.000000
291   2 2.000000 9.000000 0.000000
292   2 2.000000 9.000000 1.000000
293   2 2.000000 9.000000 2.000000
294   2 2.000000 9.000000 3.000000
295   2 2.000000 9.000000 4.000000
296   2 2.000000 9.000000 5.000000
297   2 2.000000 9.000000 6.000000
298   2 2.000000 9.000000 7.000000
299   2 2.000000 9.000000 8.000000
300   2 2.000000 9.000000 9.000000
301   2 3.000000 0.000000 0.000000
302   2 3.000000 0.000000 1.000000
303   2 3.000000 0.000000 2.000000
304   2 3.000000 0.000000 3.000000
305   2 3.000000 0.000000 4.000000
306   2 3.000000 0.000000 5.000000
307   2 3.000000 0.000000 6.000000
308   2 3.000000 0.000000 7.000000
309   2 3.000000 0.000000 8.000000
310   2 3.000000 0.000000 9.000000
311   2 3.000000 1.000000 0.000000
312   2 3.000000 1.000000 1.000000
313   2 3.000000 1.000000 2.000000
314   2 3.000000 1.000000 3.000000
315   2 3.000000 1.000000 4.000000
316   2 3.000000 1.000000 5.000000
317   2 3.000000 1.000000 6.000000
318   2 3.000000 1.000000 7.000000
319   2 3.000000 1.000000 8.000000
320   2 3.000000 1.000000 9.000000
321   2 3.000000 2.000000 0.000000
322   2 3.000000 2.000000 1.000000
323   2 3.000000 2.000000 2.000000
324   2 3.000000 2.000000 3.000000
325   2 3.000000 2.000000 4.000000
326   2 3.000000 2.000000 5.000000
327   2 3.000000 2.000000 6.000000
328   2 3.000000 2.000000 7.000000
329   2 3.000000 2.000000 8.000000
330   2 3.000000 2.000000 9.000000
331   2 3.000000 3.000000 0.000000
332   2 3.000000 3.000000 1.000000
333   2 3.000000 3.000000 2.000000
334   2 3.000000 3.000000 3.000000
335   2 3.000000 3.000000 4.000000
336   2 3.000000 3.000000 5.000000
337   2 3.000000 3.000000 6.000000
338   2 3.000000 3.000000 7.000000
339   2 3.000000 3.000000 8.000000
340   2 3.000000 3.000000 9.000000
341   2 3.000000 4.000000 0.000000
342   2 3.000000 4.000000 1.000000
343   2 3.000000 4.000000 2.000000
344   2 3.000000 4.000000 3.000000
345   2 3.000000 4.000000 4.000000
346   2 3.000000 4.000000 5.000000
347   2 3.000000 4.000000 6.000000
348   2 3.000000 4.000000 7.000000
349   2 3.000000 4.000000 8.000000
350   2 3.000000 4.000000 9.000000
351   2 3.000000 5.000000 0.000000
352   2 3.000000 5.000000 1.000000
353   2 3.000000 5.000000 2.000000
354   2 3.000000 5.000000 3.000000
355   2 3.000000 5.000000 4.000000
356   2 3.000000 5.000000 5.000000
357   2 3.000000 5.000000 6.000000
358   2 3.000000 5.000000 7.000000
359   2 3.000000 5.000000 8.000000
360   2 3.000000 5.000000 9.000000
361   2 3.000000 6.000000 0.000000
362   2 3.000000 6.000000 1.000000
363   2 3.000000 6.000000 2.000000
364   2 3.000000 6.000000 3.000000
365   2 3.000000 6.000000 4.000000
366   2 3.000000 6.000000 5.000000
367   2 3.000000 6.000000 6.000000
368   2 3.000000 6.000000 7.000000
369   2 3.000000 6.000000 8.000000
370   2 3.000000 6.000000 9.000000
371   2 3.000000 7.000000 0.000000
372   2 3.000000 7.000000 1.000000
373   2 3.000000 7.000000 2.000000
374   2 3.000000 7.000000 3.000000
375   2 3.000000 7.000000 4.000000
376   2 3.000000 7.000000 5.000000
377   2 3.000000 7.000000 6.000000
378   2 3.000000 7.000000 7.000000
379   2 3.000000 7.000000 8.000000
380   2 3.000000 7.000000 9.000000
381   2 3.000000 8.000000 0.000000
382   2 3.000000 8.000000 1.000000
383   2 3.000000 8.000000 2.000000
384   2 3.000000 8.000000 3.000000
385   2 3.000000 8.000000 4.000000
386   2 3.000000 8.000000 5.000000
387   2 3.000000 8.000000 6.000000
388   2 3.000000 8.000000 7.000000
389   2 3.000000 8.000000 8.000000
390   2 3.000000 8.000000 9.000000
391   2 3.000000 9.000000 0.000000
392   2 3.000000 9.000000 1.000000
393   2 3.000000 9.000000 2.000000
394   2 3.000000 9.000000 3.000000
395   2 3.000000 9.000000 4.000000
396   2 3.000000 9.000000 5.000000
397   2 3.000000 9.000000 6.000000
398   2 3.000000 9.000000 7.000000
399   2 3.000000 9.000000 8.000000
400   2 3.000000 9.000000 9.000000
401   2 4.000000 0.000000 0.000000
402   2 4.000000 0.000000 1.000000
403   2 4.000000 0.000000 2.000000
404   2 4.000000 0.000000 3.000000
405   2 4.000000 0.000000 4.000000
406   2 4.000000 0.000000 5.000000
407   2 4.000000 0.000000 6.000000
408   2 4.000000 0.000000 7.000000
409   2 4.000000 0.000000 8.000000
410   2 4.000000 0.000000 9.000000
411   2 4.000000 1.000000 0.000000
412   2 4.000000 1.000000 1.000000
413   2 4.000000 1.000000 2.000000
414   2 4.000000 1.000000 3.000000
415   2 4.000000 1.000000 4.000000
416   2 4.000000 1.000000 5.000000
417   2 4.000000 1.000000 6.000000
418   2 4.000000 1.000000 7.000000
419   2 4.000000 1.000000 8.000000
420   2 4.000000 1.000000 9.000000
421   2 4.000000 2.000000 0.000000
422   2 4.000000 2.000000 1.000000
423   2 4.000000 2.000000 2.000000
424   2 4.000000 2.000000 3.000000
425   2 4.000000 2.000000 4.000000
426   2 4.000000 2.000000 5.000000
427   2 4.000000 2.000000 6.000000
428   2 4.000000 2.000000 7.000000
429   2 4.000000 2.000000 8.000000
430   2 4.000000 2.000000 9.000000
431   2 4.000000 3.000000 0.000000
432   2 4.000000 3.000000 1.000000
433   2 4.000000 3.000000 2.000000
434   2 4.000000 3.000000 3.000000
435   2 4.000000 3.000000 4.000000
436   2 4.000000 3.000000 5.000000
437   2 4.000000 3.000000 6.000000
438   2 4.000000 3.000000 7.000000
439   2 4.000000 3.000000 8.000000
440   2 4.000000 3.000000 9.000000
441   2 4.000000 4.000000 0.000000
442   2 4.000000 4.000000 1.000000
443   2 4.000000 4.000000 2.000000
444   2 4.000000 4.000000 3.000000
445   2 4.000000 4.000000 4.000000
446   2 4.000000 4.000000 5.000000
447   2 4.000000 4.000000 6.000000
448   2 4.000000 4.000000 7.000000
449   2 4.000000 4.000000 8.000000
450   2 4.000000 4.000000 9.000000
451   2 4.000000 5.000000 0.000000
452   2 4.000000 5.000000 1.000000
453   2 4.000000 5.000000 2.000000
454   2 4.000000 5.000000 3.000000
455   2 4.000000 5.000000 4.000000
456   2 4.000000 5.000000 5.000000
457   2 4.000000 5.000000 6.000000
458   2 4.000000 5.000000 7.000000
459   2 4.000000 5.000000 8.000000
460   2 4.000000 5.000000 9.000000
461   2 4.000000 6.000000 0.000000
462   2 4.000000 6.000000 1.000000
463   2 4.000000 6.000000 2.000000
464   2 4.000000 6.000000 3.000000
465   2 4.000000 6.000000 4.000000
466   2 4.000000 6.000000 5.000000
467   2 4.000000 6.000000 6.000000
468   2 4.000000 6.000000 7.000000
469   2 4.000000 6.000000 8.000000
470   2 4.000000 6.000000 9.000000
471   2 4.000000 7.000000 0.000000
472   2 4.000000 7.000000 1.000000
473   2 4.000000 7.000000 2.000000
474   2 4.000000 7.000000 3.000000
475   2 4.000000 7.000000 4.000000
476   2 4.000000 7.000000 5.000000
477   2 4.000000 7.000000 6.000000
478   2 4.000000 7.000000 7.000000
479   2 4.000000 7.000000 8.000000
480   2 4.000000 7.000000 9.000000
481   2 4.000000 8.000000 0.000000
482   2 4.000000 8.000000 1.000000
483   2 4.000000 8.000000 2.000000
484   2 4.000000 8.000000 3.000000
485   2 4.000000 8.000000 4.000000
486   2 4.000000 8.000000 5.000000
487   2 4.000000 8.000000 6.000000
488   2 4.000000 8.000000 7.000000
489   2 4.000000 8.000000 8.000000
490   2 4.000000 8.000000 9.000000
491   2 4.000000 9.000000 0.000000
492   2 4.000000 9.000000 1.000000
493   2 4.000000 9.000000 2.000000
494   2 4.000000 9.000000 3.000000
495   2 4.000000 9.000000 4.000000
496   2 4.000000 9.000000 5.000000
497   2 4.000000 9.000000 6.000000
498   2 4.000000 9.000000 7.000000
499   2 4.000000 9.000000 8.000000
500   2 4.000000 9.000000 9.000000
501   2 5.000000 0.000000 0.000000
502   2 5.000000 0.000000 1.000000
503   2 5.000000 0.000000 2.000000
504   2 5.000000 0.000000 3.000000
505   2 5.000000 0.000000 4.000000
506   2 5.000000 0.000000 5.000000
507   2 5.000000 0.000000 6.000000
508   2 5.000000 0.000000 7.000000
509   2 5.000000 0.000000 8.000000
510   2 5.000000 0.000000 9.000000
511   2 5.000000 1.000000 0.000000
512   2 5.000000 1.000000 1.000000
513   2 5.000000 1.000000 2.000000
514   2 5.000000 1.000000 3.000000
515   2 5.000000 1.000000 4.000000
516   2 5.000000 1.000000 5.000000
517   2 5.000000 1.000000 6.000000
518   2 5.000000 1.000000 7.000000
519   2 5.000000 1.000000 8.000000
520   2 5.000000 1.000000 9.000000
521   2 5.000000 2.000000 0.000000
522   2 5.000000 2.000000 1.000000
523   2 5.000000 2.000000 2.000000
524   2 5.000000 2.000000 3.000000
525   2 5.000000 2.000000 4.000000
526   2 5.000000 2.000000 5.000000
527   2 5.000000 2.000000 6.000000
528   2 5.000000 2.000000 7.000000
529   2 5.000000 2.000000 8.000000
530   2 5.000000 2.000000 9.000000
531   2 5.000000 3.000000 0.000000
532   2 5.000000 3.000000 1.000000
533   2 5.000000 3.000000 2.000000
534   2 5.000000 3.000000 3.000000
535   2 5.000000 3.000000 4.000000
536   2 5.000000 3.000000 5.000000
537   2 5.000000 3.000000 6.000000
538   2 5.000000 3.000000 7.000000
539   2 5.000000 3.000000 8.000000
540   2 5.000000 3.000000 9.000000
541   2 5.000000 4.000000 0.000000
542   2 5.000000 4.000000 1.000000
543   2 5.000000 4.000000 2.000000
544   2 5.000000 4.000000 3.000000
545   2 5.000000 4.000000 4.000000
546   2 5.000000 4.000000 5.000000
547   2 5.000000 4.000000 6.000000
548   2 5.000000 4.000000 7.000000
549   2 5.000000 4.000000 8.000000
550   2 5.000000 4.000000 9.000000
551   2 5.000000 5.000000 0.000000
552   2 5.000000 5.000000 1.000000
553   2 5.000000 5.000000 2.000000
554   2 5.000000 5.000000 3.000000
555   2 5.000000 5.000000 4.000000
556   2 5.000000 5.000000 5.000000
557   2 5.000000 5.000000 6.000000
558   2 5.000000 5.000000 7.000000
559   2 5.000000 5.000000 8.000000
560   2 5.000000 5.000000 9.000000
561   2 5.000000 6.000000 0.000000
562   2 5.000000 6.000000 1.000000
563   2 5.000000 6.000000 2.000000
564   2 5.000000 6.000000 3.000000
565   2 5.000000 6.000000 4.000000
566   2 5.000000 6.000000 5.000000
567   2 5.000000 6.000000 6.000000
568   2 5.000000 6.000000 7.000000
569   2 5.000000 6.000000 8.000000
570   2 5.000000 6.000000 9.000000
571   2 5.000000 7.000000 0.000000
572   2 5.000000 7.000000 1.000000
573   2 5.000000 7.000000 2.000000
574   2 5.000000 7.000000 3.000000
575   2 5.000000 7.000000 4.000000
576   2 5.000000 7.000000 5.000000
577   2 5.000000 7.000000 6.000000
578   2 5.000000 7.000000 7.000000
579   2 5.000000 7.000000 8.000000
580   2 5.000000 7.000000 9.000000
581   2 5.000000 8.000000 0.000000
582   2 5.000000 8.000000 1.000000
583   2 5.000000 8.000000 2.000000
584   2 5.000000 8.000000 3.000000
585   2 5.000000 8.000000 4.000000
586   2 5.000000 8.000000 5.000000
587   2 5.000000 8.000000 6.000000
588   2 5.000000 8.000000 7.000000
589   2 5.000000 8.000000 8.000000
590   2 5.000000 8.000000 9.000000
591   2 5.000000 9.000000 0.000000
592   2 5.000000 9.000000 1.000000
593   2 5.000000 9.000000 2.000000
594   2 5.000000 9.000000 3.000000
595   2 5.000000 9.000000 4.000000
596   2 5.000000 9.000000 5.000000
597   2 5.000000 9.000000 6.000000
598   2 5.000000 9.000000 7.000000
599   2 5.000000 9.000000 8.000000
600   2 5.000000 9.000000 9.000000
601   2 6.000000 0.000000 0.000000
602   2 6.000000 0.000000 1.000000
603   2 6.000000 0.000000 2.000000
604   2 6.000000 0.000000 3.000000
605   2 6.000000 0.000000 4.000000
606   2 6.000000 0.000000 5.000000
607   2 6.000000 0.000000 6.000000
608   2 6.000000 0.000000 7.000000
609   2 6.000000 0.000000 8.000000
610   2 6.000000 0.000000 9.000000
611   2 6.000000 1.000000 0.000000
612   2 6.000000 1.000000 1.000000
613   2 6.000000 1.000000 2.000000
614   2 6.000000 1.000000 3.000000
615   2 6.000000 1.000000 4.000000
616   2 6.000000 1.000000 5.000000
617   2 6.000000 1.000000 6.000000
618   2 6.000000 1.000000 7.000000
619   2 6.000000 1.000000 8.000000
620   2 6.000000 1.000000 9.000000
621   2 6.000000 2.000000 0.000000
622   2 6.000000 2.000000 1.000000
623   2 6.000000 2.000000 2.000000
624   2 6.000000 2.000000 3.000000
625   2 6.000000 2.000000 4.000000
626   2 6.000000 2.000000 5.000000
627   2 6.000000 2.000000 6.000000
628   2 6.000000 2.000000 7.000000
629   2 6.000000 2.000000 8.000000
630   2 6.000000 2.000000 9.000000
631   2 6.000000 3.000000 0.000000
632   2 6.000000 3.000000 1.000000
633   2 6.000000 3.000000 2.000000
634   2 6.000000 3.000000 3.000000
635   2 6.000000 3.000000 4.000000
636   2 6.000000 3.000000 5.000000
637   2 6.000000 3.000000 6.000000
638   2 6.000000 3.000000 7.000000
639   2 6.000000 3.000000 8.000000
640   2 6.000000 3.000000 9.000000
641   2 6.000000 4.000000 0.000000
642   2 6.000000 4.000000 1.000000
643   2 6.000000 4.000000 2.000000
644   2 6.000000 4.000000 3.000000
645   2 6.000000 4.000000 4.000000
646   2 6.000000 4.000000 5.000000
647   2 6.000000 4.000000 6.000000
648   2 6.000000 4.000000 7.000000
649   2 6.000000 4.000000 8.000000
650   2 6.000000 4.000000 9.000000
651   2 6.000000 5.000000 0.000000
652   2 6.000000 5.000000 1.000000
653   2 6.000000 5.000000 2.000000
654   2 6.000000 5.000000 3.000000
655   2 6.000000 5.000000 4.000000
656   2 6.000000 5.000000 5.000000
657   2 6.000000 5.000000 6.000000
658   2 6.000000 5.000000 7.000000
659   2 6.000000 5.000000 8.000000
660   2 6.000000 5.000000 9.000000
661   2 6.000000 6.000000 0.000000
662   2 6.000000 6.000000 1.000000
663   2 6.000000 6.000000 2.000000
664   2 6.000000 6.000000 3.000000
665   2 6.000000 6.000000 4.000000
666   2 6.000000 6.000000 5.000000
667   2 6.000000 6.000000 6.000000
668   2 6.000000 6.000000 7.000000
669   2 6.000000 6.000000 8.000000
670   2 6.000000 6.000000 9.000000
671   2 6.000000 7.000000 0.000000
672   2 6.000000 7.000000 1.000000
673   2 6.000000 7.000000 2.000000
674   2 6.000000 7.000000 3.000000
675   2 6.000000 7.000000 4.000000
676   2 6.000000 7.000000 5.000000
677   2 6.000000 7.000000 6.000000
678   2 6.000000 7.000000 7.000000
679   2 6.000000 7.000000 8.000000
680   2 6.000000 7.000000 9.000000
681   2 6.000000 8.000000 0.000000
682   2 6.000000 8.000000 1.000000
683   2 6.000000 8.000000 2.000000
684   2 6.000000 8.000000 3.000000
685   2 6.000000 8.000000 4.000000
686   2 6.000000 8.000000 5.000000
687   2 6.000000 8.000000 6.000000
688   2 6.000000 8.000000 7.000000
689   2 6.000000 8.000000 8.000000
690   2 6.000000 8.000000 9.000000
691   2 6.000000 9.000000 0.000000
692   2 6.000000 9.000000 1.000000
693   2 6.000000 9.000000 2.000000
694   2 6.000000 9.000000 3.000000
695   2 6.000000 9.000000 4.000000
696   2 6.000000 9.000000 5.000000
697   2 6.000000 9.000000 6.000000
698   2 6.000000 9.000000 7.000000
699   2 6.000000 9.000000 8.000000
700   2 6.000000 9.000000 9.000000
701   2 7.000000 0.000000 0.000000
702   2 7.000000 0.000000 1.000000
703   2 7.000000 0.000000 2.000000
704   2 7.000000 0.000000 3.000000
705   2 7.000000 0.000000 4.000000
706   2 7.000000 0.000000 5.000000
707   2 7.000000 0.000000 6.000000
708   2 7.000000 0.000000 7.000000
709   2 7.000000 0.000000 8.000000
710   2 7.000000 0.000000 9.000000
711   2 7.000000 1.000000 0.000000
712   2 7.000000 1.000000 1.000000
713   2 7.000000 1.000000 2.000000
714   2 7.000000 1.000000 3.000000
715   2 7.000000 1.000000 4.000000
716   2 7.000000 1.000000 5.000000
717   2 7.000000 1.000000 6.000000
718   2 7.000000 1.000000 7.000000
719   2 7.000000 1.000000 8.000000
720   2 7.000000 1.000000 9.000000
721   2 7.000000 2.000000 0.000000
722   2 7.000000 2.000000 1.000000
723   2 7.000000 2.000000 2.000000
724   2 7.000000 2.000000 3.000000
725   2 7.000000 2.000000 4.000000
726   2 7.000000 2.000000 5.000000
727   2 7.000000 2.000000 6.000000
728   2 7.000000 2.000000 7.000000
729   2 7.000000 2.000000 8.000000
730   2 7.000000 2.000000 9.000000
731   2 7.000000 3.000000 0.000000
732   2 7.000000 3.000000 1.000000
733   2 7.000000 3.000000 2.000000
734   2 7.000000 3.000000 3.000000
735   2 7.000000 3.000000 4.000000
736   2 7.000000 3.000000 5.000000
737   2 7.000000 3.000000 6.000000
738   2 7.000000 3.000000 7.000000
739   2 7.000000 3.000000 8.000000
740   2 7.000000 3.000000 9.000000
741   2 7.000000 4.000000 0.000000
742   2 7.000000 4.000000 1.000000
743   2 7.000000 4.000000 2.000000
744   2 7.000000 4.000000 3.000000
745   2 7.000000 4.000000 4.000000
746   2 7.000000 4.000000 5.000000
747   2 7.000000 4.000000 6.000000
748   2 7.000000 4.000000 7.000000
749   2 7.000000 4.000000 8.000000
750   2 7.000000 4.000000 9.000000
751   2 7.000000 5.000000 0.000000
752   2 7.000000 5.000000 1.000000
753   2 7.000000 5.000000 2.000000
754   2 7.000000 5.000000 3.000000
755   2 7.000000 5.000000 4.000000
756   2 7.000000 5.000000 5.000000
757   2 7.000000 5.000000 6.000000
758   2 7.000000 5.000000 7.000000
759   2 7.000000 5.000000 8.000000
760   2 7.000000 5.000000 9.000000
761   2 7.000000 6.000000 0.000000
762   2 7.000000 6.000000 1.000000
763   2 7.000000 6.000000 2.000000
764   2 7.000000 6.000000 3.000000
765   2 7.000000 6.000000 4.000000
766   2 7.000000 6.000000 5.000000
767   2 7.000000 6.000000 6.000000
768   2 7.000000 6.000000 7.000000
769   2 7.000000 6.000000 8.000000
770   2 7.000000 6.000000 9.000000
771   2 7.000000 7.000000 0.000000
772   2 7.000000 7.000000 1.000000
773   2 7.000000 7.000000 2.000000
774   2 7.000000 7.000000 3.000000
775   2 7.000000 7.000000 4.000000
776   2 7.000000 7.000000 5.000000
777   2 7.000000 7.000000 6.000000
778   2 7.000000 7.000000 7.000000
779   2 7.000000 7.000000 8.000000
780   2 7.000000 7.000000 9.000000
781   2 7.000000 8.000000 0.000000
782   2 7.000000 8.000000 1.000000
783   2 7.000000 8.000000 2.000000
784   2 7.000000 8.000000 3.000000
785   2 7.000000 8.000000 4.000000
786   2 7.000000 8.000000 5.000000
787   2 7.000000 8.000000 6.000000
788   2 7.000000 8.000000 7.000000
789   2 7.000000 8.000000 8.000000
790   2 7.000000 8.000000 9.000000
791   2 7.000000 9.000000 0.000000
792   2 7.000000 9.000000 1.000000
793   2 7.000000 9.000000 2.000000
794   2 7.000000 9.000000 3.000000
795   2 7.000000 9.000000 4.000000
796   2 7.000000 9.000000 5.000000
797   2 7.000000 9.000000 6.000000
798   2 7.000000 9.000000 7.000000
799   2 7.000000 9.000000 8.000000
800   2 7.000000 9.000000 9.000000
801   2 8.000000 0.000000 0.000000
802   2 8.000000 0.000000 1.000000
803   2 8.000000 0.000000 2.000000
804   2 8.000000 0.000000 3.000000
805   2 8.000000 0.000000 4.000000
806   2 8.000000 0.000000 5.000000
807   2 8.000000 0.000000 6.000000
808   2 8.000000 0.000000 7.000000
809   2 8.000000 0.000000 8.000000
810   2 8.000000 0.000000 9.000000
811   2 8.000000 1.000000 0.000000
812   2 8.000000 1.000000 1.000000
813   2 8.000000 1.000000 2.000000
814   2 8.000000 1.000000 3.000000
815   2 8.000000 1.000000 4.000000
816   2 8.000000 1.000000 5.000000
817   2 8.000000 1.000000 6.000000
818   2 8.000000 1.000000 7.000000
819   2 8.000000 1.000000 8.000000
820   2 8.000000 1.000000 9.000000
821   2 8.000000 2.000000 0.000000
822   2 8.000000 2.000000 1.000000
823   2 8.000000 2.000000 2.000000
824   2 8.000000 2.000000 3.000000
825   2 8.000000 2.000000 4.000000
826   2 8.000000 2.000000 5.000000
827   2 8.000000 2.000000 6.000000
828   2 8.000000 2.000000 7.000000
829   2 8.000000 2.000000 8.000000
830   2 8.000000 2.000000 9.000000
831   2 8.000000 3.000000 0.000000
832   2 8.000000 3.000000 1.000000
833   2 8.000000 3.000000 2.000000
834   2 8.000000 3.000000 3.000000
835   2 8.000000 3.000000 4.000000
836   2 8.000000 3.000000 5.000000
837   2 8.000000 3.000000 6.000000
838   2 8.000000 3.000000 7.000000
839   2 8.000000 3.000000 8.000000
840   2 8.000000 3.000000 9.000000
841   2 8.000000 4.000000 0.000000
842   2 8.000000 4.000000 1.000000
843   2 8.000000 4.000000 2.000000
844   2 8.000000 4.000000 3.000000
845   2 8.000000 4.000000 4.000000
846   2 8.000000 4.000000 5.000000
847   2 8.000000 4.000000 6.000000
848   2 8.000000 4.000000 7.000000
849   2 8.000000 4.000000 8.000000
850   2 8.000000 4.000000 9.000000
851   2 8.000000 5.000000 0.000000
852   2 8.000000 5.000000 1.000000
853   2 8.000000 5.000000 2.000000
854   2 8.000000 5.000000 3.000000
855   2 8.000000 5.000000 4.000000
856   2 8.000000 5.000000 5.000000
857   2 8.000000 5.000000 6.000000
858   2 8.000000 5.000000 7.000000
859   2 8.000000 5.000000 8.000000
860   2 8.000000 5.000000 9.000000
861   2 8.000000 6.000000 0.000000
862   2 8.000000 6.000000 1.000000
863   2 8.000000 6.000000 2.000000
864   2 8.000000 6.000000 3.000000
865   2 8.000000 6.000000 4.000000
866   2 8.000000 6.000000 5.000000
867   2 8.000000 6.000000 6.000000
868   2 8.000000 6.000000 7.000000
869   2 8.000000 6.000000 8.000000
870   2 8.000000 6.000000 9.000000
871   2 8.000000 7.000000 0.000000
872   2 8.000000 7.000000 1.000000
873   2 8.000000 7.000000 2.000000
874   2 8.000000 7.000000 3.000000
875   2 8.000000 7.000000 4.000000
876   2 8.000000 7.000000 5.000000
877   2 8.000000 7.000000 6.000000
878   2 8.000000 7.000000 7.000000
879   2 8.000000 7.000000 8.000000
880   2 8.000000 7.000000 9.000000
881   2 8.000000 8.000000 0.000000
882   2 8.000000 8.000000 1.000000
883   2 8.000000 8.000000 2.000000
884   2 8.000000 8.000000 3.000000
885   2 8.000000 8.000000 4.000000
886   2 8.000000 8.000000 5.000000
887   2 8.000000 8.000000 6.000000
888   2 8.000000 8.000000 7.000000
889   2 8.000000 8.000000 8.000000
890   2 8.000000 8.000000 9.000000
891   2 8.000000 9.000000 0.000000
892   2 8.000000 9.000000 1.000000
893   2 8.000000 9.000000 2.000000
894   2 8.000000 9.000000 3.000000
895   2 8.000000 9.000000 4.000000
896   2 8.000000 9.000000 5.000000
897   2 8.000000 9.000000 6.000000
898   2 8.000000 9.000000 7.000000
899   2 8.000000 9.000000 8.000000
900   2 8.000000 9.000000 9.000000
901   2 9.000000 0.000000 0.000000
902   2 9.000000 0.000000 1.000000
903   2 9.000000 0.000000 2.000000
904   2 9.000000 0.000000 3.000000
905   2 9.000000 0.000000 4.000000
906   2 9.000000 0.000000 5.000000
907   2 9.000000 0.000000 6.000000
908   2 9.000000 0.000000 7.000000
909   2 9.000000 0.000000 8.000000
910   2 9.000000 0.000000 9.000000
911   2 9.000000 1.000000 0.000000
912   2 9.000000 1.000000 1.000000
913   2 9.000000 1.000000 2.000000
914   2 9.000000 1.000000 3.000000
915   2 9.000000 1.000000 4.000000
916   2 9.000000 1.000000 5.000000
917   2 9.000000 1.000000 6.000000
918   2 9.000000 1.000000 7.000000
919   2 9.000000 1.000000 8.000000
920   2 9.000000 1.000000 9.000000
921   2 9.000000 2.000000 0.000000
922   2 9.000000 2.000000 1.000000
923   2 9.000000 2.000000 2.000000
924   2 9.000000 2.000000 3.000000
925   2 9.000000 2.000000 4.000000
926   2 9.000000 2.000000 5.000000
927   2 9.000000 2.000000 6.000000
928   2 9.000000 2.000000 7.000000
929   2 9.000000 2.000000 8.000000
930   2 9.000000 2.000000 9.000000
931   2 9.000000 3.000000 0.000000
932   2 9.000000 3.000000 1.000000
933   2 9.000000 3.000000 2.000000
934   2 9.000000 3.000000 3.000000
935   2 9.000000 3.000000 4.000000
936   2 9.000000 3.000000 5.000000
937   2 9.000000 3.000000 6.000000
938   2 9.000000 3.000000 7.000000
939   2 9.000000 3.000000 8.000000
940   2 9.000000 3.000000 9.000000
941   2 9.000000 4.000000 0.000000
942   2 9.000000 4.000000 1.000000
943   2 9.000000 4.000000 2.000000
944   2 9.000000 4.000000 3.000000
945   2 9.000000 4.000000 4.000000
946   2 9.000000 4.000000 5.000000
947   2 9.000000 4.000000 6.000000
948   2 9.000000 4.000000 7.000000
949   2 9.000000 4.000000 8.000000
950   2 9.000000 4.000000 9.000000
951   2 9.000000 5.000000 0.000000
952   2 9.000000 5.000000 1.000000
953   2 9.000000 5.000000 2.000000
954   2 9.000000 5.000000 3.000000
955   2 9.000000 5.000000 4.000000
956   2 9.000000 5.000000 5.000000
957   2 9.000000 5.000000 6.000000
958   2 9.000000 5.000000 7.000000
959   2 9.000000 5.000000 8.000000
960   2 9.000000 5.000000 9.000000
961   2 9.000000 6.000000 0.000000
962   2 9.000000 6.000000 1.000000
963   2 9.000000 6.000000 2.000000
964   2 9.000000 6.000000 3.000000
965   2 9.000000 6.000000 4.000000
966   2 9.000000 6.000000 5.000000
967   2 9.000000 6.000000 6.000000
968   2 9.000000 6.000000 7.000000
969   2 9.000000 6.000000 8.000000
970   2 9.000000 6.000000 9.000000
971   2 9.000000 7.000000 0.000000
972   2 9.000000 7.000000 1.000000
973   2 9.000000 7.000000 2.000000
974   2 9.000000 7.000000 3.000000
975   2 9.000000 7.000000 4.000000
976   2 9.000000 7.000000 5.000000
977   2 9.000000 7.000000 6.000000
978   2 9.000000 7.000000 7.000000
979   2 9.000000 7.000000 8.000000
980   2 9.000000 7.000000 9.000000
981   2 9.000000 8.000000 0.000000
982   2 9.000000 8.000000 1.000000
983   2 9.000000 8.000000 2.000000
984   2 9.000000 8.000000 3.000000
985   2 9.000000 8.000000 4.000000
986   2 9.000000 8.000000 5.000000
987   2 9.000000 8.000000 6.000000
988   2 9.000000 8.000000 7.000000
989   2 9.000000 8.000000 8.000000
990   2 9.000000 8.000000 9.000000
991   2 9.000000 9.000000 0.000000
992   2 9.000000 9.000000 1.000000
993   2 9.000000 9.000000 2.000000
994   2 9.000000 9.000000 3.000000
995   2 9.000000 9.000000 4.000000
996   2 9.000000 9.000000 5.000000
997   2 9.000000 9.000000 6.000000
998   2 9.000000 9.000000 7.000000
999   2 9.000000 9.000000 8.000000
1000  2 9.000000 9.000000 9.000000
1001  2 0.500000 0.500000 0.500000
1002  2 0.500000 0.500000 1.500000
1003  2 0.500000 0.500000 2.500000
1004  2 0.500000 0.500000 3.500000
1005  2 0.500000 0.500000 4.500000
1006  2 0.500000 0.500000 5.500000
1007  2 0.500000 0.500000 6.500000
1008  2 0.500000 0.500000 7.500000
1009  2 0.500000 0.500000 8.500000
1010  2 0.500000 0.500000 9.500000
1011  2 0.500000 1.500000 0.500000
1012  2 0.500000 1.500000 1.500000
1013  2 0.500000 1.500000 2.500000
1014  2 0.500000 1.500000 3.500000
1015  2 0.500000 1.500000 4.500000
1016  2 0.500000 1.500000 5.500000
1017  2 0.500000 1.500000 6.500000
1018  2 0.500000 1.500000 7.500000
1019  2 0.500000 1.500000 8.500000
1020  2 0.500000 1.500000 9.500000
1021  2 0.500000 2.500000 0.500000
1022  2 0.500000 2.500000 1.500000
1023  2 0.500000 2.500000 2.500000
1024  2 0.500000 2.500000 3.500000
1025  2 0.500000 2.500000 4.500000
1026  2 0.500000 2.500000 5.500000
1027  2 0.500000 2.500000 6.500000
1028  2 0.500000 2.500000 7.500000
1029  2 0.500000 2.500000 8.500000
1030  2 0.500000 2.500000 9.500000
1031  2 0.500000 3.500000 0.500000
1032  2 0.500000 3.500000 1.500000
1033  2 0.500000 3.500000 2.500000
1034  2 0.500000 3.500000 3.500000
1035  2 0.500000 3.500000 4.500000
1036  2 0.500000 3.500000 5.500000
1037  2 0.500000 3.500000 6.500000
1038  2 0.500000 3.500000 7.500000
1039  2 0.500000 3.500000 8.500000
1040  2 0.500000 3.500000 9.500000
1041  2 0.500000 4.500000 0.500000
1042  2 0.500000 4.500000 1.500000
1043  2 0.500000 4.500000 2.500000
1044  2 0.500000 4.500000 3.500000
1045  2 0.500000 4.500000 4.500000
1046  2 0.500000 4.500000 5.500000
1047  2 0.500000 4.500000 6.500000
1048  2 0.500000 4.500000 7.500000
1049  2 0.500000 4.500000 8.500000
1050  2 0.500000 4.500000 9.500000
1051  2 0.500000 5.500000 0.500000
1052  2 0.500000 5.500000 1.500000
1053  2 0.500000 5.500000 2.500000
1054  2 0.500000 5.500000 3.500000
1055  2 0.500000 5.500000 4.500000
1056  2 0.500000 5.500000 5.500000
1057  2 0.500000 5.500000 6.500000
1058  2 0.500000 5.500000 7.500000
1059  2 0.500000 5.500000 8.500000
1060  2 0.500000 5.500000 9.500000
1061  2 0.500000 6.500000 0.500000
1062  2 0.500000 6.500000 1.500000
1063  2 0.500000 6.500000 2.500000
1064  2 0.500000 6.500000 3.500000
1065  2 0.500000 6.500000 4.500000
1066  2 0.500000 6.500000 5.500000
1067  2 0.500000 6.500000 6.500000
1068  2 0.500000 6.500000 7.500000
1069  2 0.500000 6.500000 8.500000
1070  2 0.500000 6.500000 9.500000
1071  2 0.500000 7.500000 0.500000
1072  2 0.500000 7.500000 1.500000
1073  2 0.500000 7.500000 2.500000
1074  2 0.500000 7.500000 3.500000
1075  2 0.500000 7.500000 4.500000
1076  2 0.500000 7.500000 5.500000
1077  2 0.500000 7.500000 6.500000
1078  2 0.500000 7.500000 7.500000
1079  2 0.500000 7.500000 8.500000
1080  2 0.500000 7.500000 9.500000
1081  2 0.500000 8.500000 0.500000
1082  2 0.500000 8.500000 1.500000
1083  2 0.500000 8.500000 2.500000
1084  2 0.500000 8.500000 3.500000
1085  2 0.500000 8.500000 4.500000
1086  2 0.500000 8.500000 5.500000
1087  2 0.500000 8.500000 6.500000
1088  2 0.500000 8.500000 7.500000
1089  2 0.500000 8.500000 8.500000
1090  2 0.500000 8.500000 9.500000
1091  2 0.500000 9.500000 0.500000
1092  2 0.500000 9.500000 1.500000
1093  2 0.500000 9.500000 2.500000
1094  2 0.500000 9.500000 3.500000
1095  2 0.500000 9.500000 4.500000
1096  2 0.500000 9.500000 5.500000
1097  2 0.500000 9.500000 6.500000
1098  2 0.500000 9.500000 7.500000
1099  2 0.500000 9.500000 8.500000
1100  2 0.500000 9.500000 9.500000
1101  2 1.500000 0.500000 0.500000
1102  2 1.500000 0.500000 1.500000
1103  2 1.500000 0.500000 2.500000
1104  2 1.500000 0.500000 3.500000
1105  2 1.500000 0.500000 4.500000
1106  2 1.500000 0.500000 5.500000
1107  2 1.500000 0.500000 6.500000
1108  2 1.500000 0.500000 7.500000
1109  2 1.500000 0.500000 8.500000
1110  2 1.500000 0.500000 9.500000
1111  2 1.500000 1.500000 0.500000
1112  2 1.500000 1.500000 1.500000
1113  2 1.500000 1.500000 2.500000
1114  2 1.500000 1.500000 3.500000
1115  2 1.500000 1.500000 4.500000
1116  2 1.500000 1.500000 5.500000
1117  2 1.500000 1.500000 6.500000
1118  2 1.500000 1.500000 7.500000
1119  2 1.500000 1.500000 8.500000
1120  2 1.500000 1.500000 9.500000
1121  2 1.500000 2.500000 0.500000
1122  2 1.500000 2.500000 1.500000
1123  2 1.500000 2.500000 2.500000
1124  2 1.500000 2.500000 3.500000
1125  2 1.500000 2.500000 4.500000
1126  2 1.500000 2.500000 5.500000
1127  2 1.500000 2.500000 6.500000
1128  2 1.500000 2.500000 7.500000
1129  2 1.500000 2.500000 8.500000
1130  2 1.500000 2.500000 9.500000
1131  2 1.500000 3.500000 0.500000
1132  2 1.500000 3.500000 1.500000
1133  2 1.500000 3.500000 2.500000
1134  2 1.500000 3.500000 3.500000
1135  2 1.500000 3.500000 4.500000
1136  2 1.500000 3.500000 5.500000
1137  2 1.500000 3.500000 6.500000
1138  2 1.500000 3.500000 7.500000
1139  2 1.500000 3.500000 8.500000
1140  2 1.500000 3.500000 9.500000
1141  2 1.500000 4.500000 0.500000
1142  2 1.500000 4.500000 1.500000
1143  2 1.500000 4.500000 2.500000
1144  2 1.500000 4.500000 3.500000
1145  2 1.500000 4.500000 4.500000
1146  2 1.500000 4.500000 5.500000
1147  2 1.500000 4.500000 6.500000
1148  2 1.500000 4.500000 7.500000
1149  2 1.500000 4.500000 8.500000
1150  2 1.500000 4.500000 9.500000
1151  2 1.500000 5.500000 0.500000
1152  2 1.500000 5.500000 1.500000
1153  2 1.500000 5.500000 2.500000
1154  2 1.500000 5.500000 3.500000
1155  2 1.500000 5.500000 4.500000
1156  2 1.500000 5.500000 5.500000
1157  2 1.500000 5.500000 6.500000
1158  2 1.500000 5.500000 7.500000
1159  2 1.500000 5.500000 8.500000
1160  2 1.500000 5.500000 9.500000
1161  2 1.500000 6.500000 0.500000
1162  2 1.500000 6.500000 1.500000
1163  2 1.500000 6.500000 2.500000
1164  2 1.500000 6.500000 3.500000
1165  2 1.500000 6.500000 4.500000
1166  2 1.500000 6.500000 5.500000
1167  2 1.500000 6.500000 6.500000
1168  2 1.500000 6.500000 7.500000
1169  2 1.500000 6.500000 8.500000
1170  2 1.500000 6.500000 9.500000
1171  2 1.500000 7.500000 0.500000
1172  2 1.500000 7.500000 1.500000
1173  2 1.500000 7.500000 2.500000
1174  2 1.500000 7.500000 3.500000
1175  2 1.500000 7.500000 4.500000
1176  2 1.500000 7.500000 5.500000
1177  2 1.500000 7.500000 6.500000
1178  2 1.500000 7.500000 7.500000
1179  2 1.500000 7.500000 8.500000
1180  2 1.500000 7.500000 9.500000
1181  2 1.500000 8.500000 0.500000
1182  2 1.500000 8.500000 1.500000
1183  2 1.500000 8.500000 2.500000
1184  2 1.500000 8.500000 3.500000
1185  2 1.500000 8.500000 4.500000
1186  2 1.500000 8.500000 5.500000
1187  2 1.500000 8.500000 6.500000
1188  2 1.500000 8.500000 7.500000
1189  2 1.500000 8.500000 8.500000
1190  2 1.500000 8.500000 9.500000
1191  2 1.500000 9.500000 0.500000
1192  2 1.500000 9.500000 1.500000
1193  2 1.500000 9.500000 2.500000
1194  2 1.500000 9.500000 3.500000
1195  2 1.500000 9.500000 4.500000
1196  2 1.500000 9.500000 5.500000
1197  2 1.500000 9.500000 6.500000
1198  2 1.500000 9.500000 7.500000
1199  2 1.500000 9.500000 8.500000
1200  2 1.500000 9.500000 9.500000
1201  2 2.500000 0.500000 0.500000
1202  2 2.500000 0.500000 1.500000
1203  2 2.500000 0.500000 2.500000
1204  2 2.500000 0.500000 3.500000
1205  2 2.500000 0.500000 4.500000
1206  2 2.500000 0.500000 5.500000
1207  2 2.500000 0.500000 6.500000
1208  2 2.500000 0.500000 7.500000
1209  2 2.500000 0.500000 8.500000
1210  2 2.500000 0.500000 9.500000
1211  2 2.500000 1.500000 0.500000
1212  2 2.500000 1.500000 1.500000
1213  2 2.500000 1.500000 2.500000
1214  2 2.500000 1.500000 3.500000
1215  2 2.500000 1.500000 4.500000
1216  2 2.500000 1.500000 5.500000
1217  2 2.500000 1.500000 6.500000
1218  2 2.500000 1.500000 7.500000
1219  2 2.500000 1.500000 8.500000
1220  2 2.500000 1.500000 9.500000
1221  2 2.500000 2.500000 0.500000
1222  2 2.500000 2.500000 1.500000
1223  2 2.500000 2.500000 2.500000
1224  2 2.500000 2.500000 3.500000
1225  2 2.500000 2.500000 4.500000
1226  2 2.500000 2.500000 5.500000
1227  2 2.500000 2.500000 6.500000
1228  2 2.500000 2.500000 7.500000
1229  2 2.500000 2.500000 8.500000
1230  2 2.500000 2.500000 9.500000
1231  2 2.500000 3.500000 0.500000
1232  2 2.500000 3.500000 1.500000
1233  2 2.500000 3.500000 2.500000
1234  2 2.500000 3.500000 3.500000
1235  2 2.500000 3.500000 4.500000
1236  2 2.500000 3.500000 5.500000
1237  2 2.500000 3.500000 6.500000
1238  2 2.500000 3.500000 7.500000
1239  2 2.500000 3.500000 8.500000
1240  2 2.500000 3.500000 9.500000
1241  2 2.500000 4.500000 0.500000
1242  2 2.500000 4.500000 1.500000
1243  2 2.500000 4.500000 2.500000
1244  2 2.500000 4.500000 3.500000
1245  2 2.500000 4.500000 4.500000
1246  2 2.500000 4.500000 5.500000
1247  2 2.500000 4.500000 6.500000
1248  2 2.500000 4.500000 7.500000
1249  2 2.500000 4.500000 8.500000
1250  2 2.500000 4.500000 9.500000
1251  2 2.500000 5.500000 0.500000
1252  2 2.500000 5.500000 1.500000
1253  2 2.500000 5.500000 2.500000
1254  2 2.500000 5.500000 3.500000
1255  2 2.500000 5.500000 4.500000
1256  2 2.500000 5.500000 5.500000
1257  2 2.500000 5.500000 6.500000
1258  2 2.500000 5.500000 7.500000
1259  2 2.500000 5.500000 8.500000
1260  2 2.500000 5.500000 9.500000
1261  2 2.500000 6.500000 0.500000
1262  2 2.500000 6.500000 1.500000
1263  2 2.500000 6.500000 2.500000
1264  2 2.500000 6.500000 3.500000
1265  2 2.500000 6.500000 4.500000
1266  2 2.500000 6.500000 5.500000
1267  2 2.500000 6.500000 6.500000
1268  2 2.500000 6.500000 7.500000
1269  2 2.500000 6.500000 8.500000
1270  2 2.500000 6.500000 9.500000
1271  2 2.500000 7.500000 0.500000
1272  2 2.500000 7.500000 1.500000
1273  2 2.500000 7.500000 2.500000
1274  2 2.500000 7.500000 3.500000
1275  2 2.500000 7.500000 4.500000
1276  2 2.500000 7.500000 5.500000
1277  2 2.500000 7.500000 6.500000
1278  2 2.500000 7.500000 7.500000
1279  2 2.500000 7.500000 8.500000
1280  2 2.500000 7.500000 9.500000
1281  2 2.500000 8.500000 0.500000
1282  2 2.500000 8.500000 1.500000
1283  2 2.500000 8.500000 2.500000
1284  2 2.500000 8.500000 3.500000
1285  2 2.500000 8.500000 4.500000
1286  2 2.500000 8.500000 5.500000
1287  2 2.500000 8.500000 6.500000
1288  2 2.500000 8.500000 7.500000
1289  2 2.500000 8.500000 8.500000
1290  2 2.500000 8.500000 9.500000
1291  2 2.500000 9.500000 0.500000
1292  2 2.500000 9.500000 1.500000
1293  2 2.500000 9.500000 2.500000
1294  2 2.500000 9.500000 3.500000
1295  2 2.500000 9.500000 4.500000
1296  2 2.500000 9.500000 5.500000
1297  2 2.500000 9.500000 6.500000
1298  2 2.500000 9.500000 7.500000
1299  2 2.500000 9.500000 8.500000
1300  2 2.500000 9.500000 9.500000
1301  2 3.500000 0.500000 0.500000
1302  2 3.500000 0.500000 1.500000
1303  2 3.500000 0.500000 2.500000
1304  2 3.500000 0.500000 3.500000
1305  2 3.500000 0.500000 4.500000
1306  2 3.500000 0.500000 5.500000
1307  2 3.500000 0.500000 6.500000
1308  2 3.500000 0.500000 7.500000
1309  2 3.500000 0.500000 8.500000
1310  2 3.500000 0.500000 9.500000
1311  2 3.500000 1.500000 0.500000
1312  2 3.500000 1.500000 1.500000
1313  2 3.500000 1.500000 2.500000
1314  2 3.500000 1.500000 3.500000
1315  2 3.500000 1.500000 4.500000
1316  2 3.500000 1.500000 5.500000
1317  2 3.500000 1.500000 6.500000
1318  2 3.500000 1.500000 7.500000
1319  2 3.500000 1.500000 8.500000
1320  2 3.500000 1.500000 9.500000
1321  2 3.500000 2.500000 0.500000
1322  2 3.500000 2.500000 1.500000
1323  2 3.500000 2.500000 2.500000
1324  2 3.500000 2.500000 3.500000
1325  2 3.500000 2.500000 4.500000
1326  2 3.500000 2.500000 5.500000
1327  2 3.500000 2.500000 6.500000
1328  2 3.500000 2.500000 7.500000
1329  2 3.500000 2.500000 8.500000
1330  2 3.500000 2.500000 9.500000
1331  2 3.500000 3.500000 0.500000
1332  2 3.500000 3.500000 1.500000
1333  2 3.500000 3.500000 2.500000
1334  2 3.500000 3.500000 3.500000
1335  2 3.500000 3.500000 4.500000
1336  2 3.500000 3.500000 5.500000
1337  2 3.500000 3.500000 6.500000
1338  2 3.500000 3.500000 7.500000
1339  2 3.500000 3.500000 8.500000
1340  2 3.500000 3.500000 9.500000
1341  2 3.500000 4.500000 0.500000
1342  2 3.500000 4.500000 1.500000
1343  2 3.500000 4.500000 2.500000
1344  2 3.500000 4.500000 3.500000
1345  2 3.500000 4.500000 4.500000
1346  2 3.500000 4.500000 5.500000
1347  2 3.500000 4.500000 6.500000
1348  2 3.500000 4.500000 7.500000
1349  2 3.500000 4.500000 8.500000
1350  2 3.500000 4.500000 9.500000
1351  2 3.500000 5.500000 0.500000
1352  2 3.500000 5.500000 1.500000
1353  2 3.500000 5.500000 2.500000
1354  2 3.500000 5.500000 3.500000
1355  2 3.500000 5.500000 4.500000
1356  2 3.500000 5.500000 5.500000
1357  2 3.500000 5.500000 6.500000
1358  2 3.500000 5.500000 7.500000
1359  2 3.500000 5.500000 8.500000
1360  2 3.500000 5.500000 9.500000
1361  2 3.500000 6.500000 0.500000
1362  2 3.500000 6.500000 1.500000
1363  2 3.500000 6.500000 2.500000
1364  2 3.500000 6.500000 3.500000
1365  2 3.500000 6.500000 4.500000
1366  2 3.500000 6.500000 5.500000
1367  2 3.500000 6.500000 6.500000
1368  2 3.500000 6.500000 7.500000
1369  2 3.500000 6.500000 8.500000
1370  2 3.500000 6.500000 9.500000
1371  2 3.500000 7.500000 0.500000
1372  2 3.500000 7.500000 1.500000
1373  2 3.500000 7.500000 2.500000
1374  2 3.500000 7.500000 3.500000
1375  2 3.500000 7.500000 4.500000
1376  2 3.500000 7.500000 5.500000
1377  2 3.500000 7.500000 6.500000
1378  2 3.500000 7.500000 7.500000
1379  2 3.500000 7.500000 8.500000
1380  2 3.500000 7.500000 9.500000
1381  2 3.500000 8.500000 0.500000
1382  2 3.500000 8.500000 1.500000
1383  2 3.500000 8.500000 2.500000
1384  2 3.500000 8.500000 3.500000
1385  2 3.500000 8.500000 4.500000
1386  2 3.500000 8.500000 5.500000
1387  2 3.500000 8.500000 6.500000
1388  2 3.500000 8.500000 7.500000
1389  2 3.500000 8.500000 8.500000
1390  2 3.500000 8.500000 9.500000
1391  2 3.500000 9.500000 0.500000
1392  2 3.500000 9.500000 1.500000
1393  2 3.500000 9.500000 2.500000
1394  2 3.500000 9.500000 3.500000
1395  2 3.500000 9.500000 4.500000
1396  2 3.500000 9.500000 5.500000
1397  2 3.500000 9.500000 6.500000
1398  2 3.500000 9.500000 7.500000
1399  2 3.500000 9.500000 8.500000
1400  2 3.500000 9.500000 9.500000
1401  2 4.500000 0.500000 0.500000
1402  2 4.500000 0.500000 1.500000
1403  2 4.500000 0.500000 2.500000
1404  2 4.500000 0.500000 3.500000
1405  2 4.500000 0.500000 4.500000
1406  2 4.500000 0.500000 5.500000
1407  2 4.500000 0.500000 6.500000
1408  2 4.500000 0.500000 7.500000
1409  2 4.500000 0.500000 8.500000
1410  2 4.500000 0.500000 9.500000
1411  2 4.500000 1.500000 0.500000
1412  2 4.500000 1.500000 1.500000
1413  2 4.500000 1.500000 2.500000
1414  2 4.500000 1.500000 3.500000
1415  2 4.500000 1.500000 4.500000
1416  2 4.500000 1.500000 5.500000
1417  2 4.500000 1.500000 6.500000
1418  2 4.500000 1.500000 7.500000
1419  2 4.500000 1.500000 8.500000
1420  2 4.500000 1.500000 9.500000
1421  2 4.500000 2.500000 0.500000
1422  2 4.500000 2.500000 1.500000
1423  2 4.500000 2.500000 2.500000
1424  2 4.500000 2.500000 3.500000
1425  2 4.500000 2.500000 4.500000
1426  2 4.500000 2.500000 5.500000
1427  2 4.500000 2.500000 6.500000
1428  2 4.500000 2.500000 7.500000
1429  2 4.500000 2.500000 8.500000
1430  2 4.500000 2.500000 9.500000
1431  2 4.500000 3.500000 0.500000
1432  2 4.500000 3.500000 1.500000
1433  2 4.500000 3.500000 2.500000
1434  2 4.500000 3.500000 3.500000
1435  2 4.500000 3.500000 4.500000
1436  2 4.500000 3.500000 5.500000
1437  2 4.500000 3.500000 6.500000
1438  2 4.500000 3.500000 7.500000
1439  2 4.500000 3.500000 8.500000
1440  2 4.500000 3.500000 9.500000
1441  2 4.500000 4.500000 0.500000
1442  2 4.500000 4.500000 1.500000
1443  2 4.500000 4.500000 2.500000
1444  2 4.500000 4.500000 3.500000
1445  2 4.500000 4.500000 4.500000
1446  2 4.500000 4.500000 5.500000
1447  2 4.500000 4.500000 6.500000
1448  2 4.500000 4.500000 7.500000
1449  2 4.500000 4.500000 8.500000
1450  2 4.500000 4.500000 9.500000
1451  2 4.500000 5.500000 0.500000
1452  2 4.500000 5.500000 1.500000
1453  2 4.500000 5.500000 2.500000
1454  2 4.500000 5.500000 3.500000
1455  2 4.500000 5.500000 4.500000
1456  2 4.500000 5.500000 5.500000
1457  2 4.500000 5.500000 6.500000
1458  2 4.500000 5.500000 7.500000
1459  2 4.500000 5.500000 8.500000
1460  2 4.500000 5.500000 9.500000
1461  2 4.500000 6.500000 0.500000
1462  2 4.500000 6.500000 1.500000
1463  2 4.500000 6.500000 2.500000
1464  2 4.500000 6.500000 3.500000
1465  2 4.500000 6.500000 4.500000
1466  2 4.500000 6.500000 5.500000
1467  2 4.500000 6.500000 6.500000
1468  2 4.500000 6.500000 7.500000
1469  2 4.500000 6.500000 8.500000
1470  2 4.500000 6.500000 9.500000
1471  2 4.500000 7.500000 0.500000
1472  2 4.500000 7.500000 1.500000
1473  2 4.500000 7.500000 2.500000
1474  2 4.500000 7.500000 3.500000
1475  2 4.500000 7.500000 4.500000
1476  2 4.500000 7.500000 5.500000
1477  2 4.500000 7.500000 6.500000
1478  2 4.500000 7.500000 7.500000
1479  2 4.500000 7.500000 8.500000
1480  2 4.500000 7.500000 9.500000
1481  2 4.500000 8.500000 0.500000
1482  2 4.500000 8.500000 1.500000
1483  2 4.500000 8.500000 2.500000
1484  2 4.500000 8.500000 3.500000
1485  2 4.500000 8.500000 4.500000
1486  2 4.500000 8.500000 5.500000
1487  2 4.500000 8.500000 6.500000
1488  2 4.500000 8.500000 7.500000
1489  2 4.500000 8.500000 8.500000
1490  2 4.500000 8.500000 9.500000
1491  2 4.500000 9.500000 0.500000
1492  2 4.500000 9.500000 1.500000
1493  2 4.500000 9.500000 2.500000
1494  2 4.500000 9.500000 3.500000
1495  2 4.500000 9.500000 4.500000
1496  2 4.500000 9.500000 5.500000
1497  2 4.500000 9.500000 6.500000
1498  2 4.500000 9.500000 7.500000
1499  2 4.500000 9.500000 8.500000
1500  2 4.500000 9.500000 9.500000
1501  2 5.500000 0.500000 0.500000
1502  2 5.500000 0.500000 1.500000
1503  2 5.500000 0.500000 2.500000
1504  2 5.500000 0.500000 3.500000
1505  2 5.500000 0.500000 4.500000
1506  2 5.500000 0.500000 5.500000
1507  2 5.500000 0.500000 6.500000
1508  2 5.500000 0.500000 7.500000
1509  2 5.500000 0.500000 8.500000
1510  2 5.500000 0.500000 9.500000
1511  2 5.500000 1.500000 0.500000
1512  2 5.500000 1.500000 1.500000
1513  2 5.500000 1.500000 2.500000
1514  2 5.500000 1.500000 3.500000
1515  2 5.500000 1.500000 4.500000
1516  2 5.500000 1.500000 5.500000
1517  2 5.500000 1.500000 6.500000
1518  2 5.500000 1.500000 7.500000
1519  2 5.500000 1.500000 8.500000
1520  2 5.500000 1.500000 9.500000
1521  2 5.500000 2.500000 0.500000
1522  2 5.500000 2.500000 1.500000
1523  2 5.500000 2.500000 2.500000
1524  2 5.500000 2.500000 3.500000
1525  2 5.500000 2.500000 4.500000
1526  2 5.500000 2.500000 5.500000
1527  2 5.500000 2.500000 6.500000
1528  2 5.500000 2.500000 7.500000
1529  2 5.500000 2.500000 8.500000
1530  2 5.500000 2.500000 9.500000
1531  2 5.500000 3.500000 0.500000
1532  2 5.500000 3.500000 1.500000
1533  2 5.500000 3.500000 2.500000
1534  2 5.500000 3.500000 3.500000
1535  2 5.500000 3.500000 4.500000
1536  2 5.500000 3.500000 5.500000
1537  2 5.500000 3.500000 6.500000
1538  2 5.500000 3.500000 7.500000
1539  2 5.500000 3.500000 8.500000
1540  2 5.500000 3.500000 9.500000
1541  2 5.500000 4.500000 0.500000
1542  2 5.500000 4.500000 1.500000
1543  2 5.500000 4.500000 2.500000
1544  2 5.500000 4.500000 3.500000
1545  2 5.500000 4.500000 4.500000
1546  2 5.500000 4.500000 5.500000
1547  2 5.500000 4.500000 6.500000
1548  2 5.500000 4.500000 7.500000
1549  2 5.500000 4.500000 8.500000
1550  2 5.500000 4.500000 9.500000
1551  2 5.500000 5.500000 0.500000
1552  2 5.500000 5.500000 1.500000
1553  2 5.500000 5.500000 2.500000
1554  2 5.500000 5.500000 3.500000
1555  2 5.500000 5.500000 4.500000
1556  2 5.500000 5.500000 5.500000
1557  2 5.500000 5.500000 6.500000
1558  2 5.500000 5.500000 7.500000
1559  2 5.500000 5.500000 8.500000
1560  2 5.500000 5.500000 9.500000
1561  2 5.500000 6.500000 0.500000
1562  2 5.500000 6.500000 1.500000
1563  2 5.500000 6.500000 2.500000
1564  2 5.500000 6.500000 3.500000
1565  2 5.500000 6.500000 4.500000
1566  2 5.500000 6.500000 5.500000
1567  2 5.500000 6.500000 6.500000
1568  2 5.500000 6.500000 7.500000
1569  2 5.500000 6.500000 8.500000
1570  2 5.500000 6.500000 9.500000
1571  2 5.500000 7.500000 0.500000
1572  2 5.500000 7.500000 1.500000
1573  2 5.500000 7.500000 2.500000
1574  2 5.500000 7.500000 3.500000
1575  2 5.500000 7.500000 4.500000
1576  2 5.500000 7.500000 5.500000
1577  2 5.500000 7.500000 6.500000
1578  2 5.500000 7.500000 7.500000
1579  2 5.500000 7.500000 8.500000
1580  2 5.500000 7.500000 9.500000
1581  2 5.500000 8.500000 0.500000
1582  2 5.500000 8.500000 1.500000
1583  2 5.500000 8.500000 2.500000
1584  2 5.500000 8.500000 3.500000
1585  2 5.500000 8.500000 4.500000
1586  2 5.500000 8.500000 5.500000
1587  2 5.500000 8.500000 6.500000
1588  2 5.500000 8.500000 7.500000
1589  2 5.500000 8.500000 8.500000
1590  2 5.500000 8.500000 9.500000
1591  2 5.500000 9.500000 0.500000
1592  2 5.500000 9.500000 1.500000
1593  2 5.500000 9.500000 2.500000
1594  2 5.500000 9.500000 3.500000
1595  2 5.500000 9.500000 4.500000
1596  2 5.500000 9.500000 5.500000
1597  2 5.500000 9.500000 6.500000
1598  2 5.500000 9.500000 7.500000
1599  2 5.500000 9.500000 8.500000
1600  2 5.500000 9.500000 9.500000
1601  2 6.500000 0.500000 0.500000
1602  2 6.500000 0.500000 1.500000
1603  2 6.500000 0.500000 2.500000
1604  2 6.500000 0.500000 3.500000
1605  2 6.500000 0.500000 4.500000
1606  2 6.500000 0.500000 5.500000
1607  2 6.500000 0.500000 6.500000
1608  2 6.500000 0.500000 7.500000
1609  2 6.500000 0.500000 8.500000
1610  2 6.500000 0.500000 9.500000
1611  2 6.500000 1.500000 0.500000
1612  2 6.500000 1.500000 1.500000
1613  2 6.500000 1.500000 2.500000
1614  2 6.500000 1.500000 3.500000
1615  2 6.500000 1.500000 4.500000
1616  2 6.500000 1.500000 5.500000
1617  2 6.500000 1.500000 6.500000
1618  2 6.500000 1.500000 7.500000
1619  2 6.500000 1.500000 8.500000
1620  2 6.500000 1.500000 9.500000
1621  2 6.500000 2.500000 0.500000
1622  2 6.500000 2.500000 1.500000
1623  2 6.500000 2.500000 2.500000
1624  2 6.500000 2.500000 3.500000
1625  2 6.500000 2.500000 4.500000
1626  2 6.500000 2.500000 5.500000
1627  2 6.500000 2.500000 6.500000
1628  2 6.500000 2.500000 7.500000
1629  2 6.500000 2.500000 8.500000
1630  2 6.500000 2.500000 9.500000
1631  2 6.500000 3.500000 0.500000
1632  2 6.500000 3.500000 1.500000
1633  2 6.500000 3.500000 2.500000
1634  2 6.500000 3.500000 3.500000
1635  2 6.500000 3.500000 4.500000
1636  2 6.500000 3.500000 5.500000
1637  2 6.500000 3.500000 6.500000
1638  2 6.500000 3.500000 7.500000
1639  2 6.500000 3.500000 8.500000
1640  2 6.500000 3.500000 9.500000
1641  2 6.500000 4.500000 0.500000
1642  2 6.500000 4.500000 1.500000
1643  2 6.500000 4.500000 2.500000
1644  2 6.500000 4.500000 3.500000
1645  2 6.500000 4.500000 4.500000
1646  2 6.500000 4.500000 5.500000
1647  2 6.500000 4.500000 6.500000
1648  2 6.500000 4.500000 7.500000
1649  2 6.500000 4.500000 8.500000
1650  2 6.500000 4.500000 9.500000
1651  2 6.500000 5.500000 0.500000
1652  2 6.500000 5.500000 1.500000
1653  2 6.500000 5.500000 2.500000
1654  2 6.500000 5.500000 3.500000
1655  2 6.500000 5.500000 4.500000
1656  2 6.500000 5.500000 5.500000
1657  2 6.500000 5.500000 6.500000
1658  2 6.500000 5.500000 7.500000
1659  2 6.500000 5.500000 8.500000
1660  2 6.500000 5.500000 9.500000
1661  2 6.500000 6.500000 0.500000
1662  2 6.500000 6.500000 1.500000
1663  2 6.500000 6.500000 2.500000
1664  2 6.500000 6.500000 3.500000
1665  2 6.500000 6.500000 4.500000
1666  2 6.500000 6.500000 5.500000
1667  2 6.500000 6.500000 6.500000
1668  2 6.500000 6.500000 7.500000
1669  2 6.500000 6.500000 8.500000
1670  2 6.500000 6.500000 9.500000
1671  2 6.500000 7.500000 0.500000
1672  2 6.500000 7.500000 1.500000
1673  2 6.500000 7.500000 2.500000
1674  2 6.500000 7.500000 3.500000
1675  2 6.500000 7.500000 4.500000
1676  2 6.500000 7.500000 5.500000
1677  2 6.500000 7.500000 6.500000
1678  2 6.500000 7.500000 7.500000
1679  2 6.500000 7.500000 8.500000
1680  2 6.500000 7.500000 9.500000
1681  2 6.500000 8.500000 0.500000
1682  2 6.500000 8.500000 1.500000
1683  2 6.500000 8.500000 2.500000
1684  2 6.500000 8.500000 3.500000
1685  2 6.500000 8.500000 4.500000
1686  2 6.500000 8.500000 5.500000
1687  2 6.500000 8.500000 6.500000
1688  2 6.500000 8.500000 7.500000
1689  2 6.500000 8.500000 8.500000
1690  2 6.500000 8.500000 9.500000
1691  2 6.500000 9.500000 0.500000
1692  2 6.500000 9.500000 1.500000
1693  2 6.500000 9.500000 2.500000
1694  2 6.500000 9.500000 3.500000
1695  2 6.500000 9.500000 4.500000
1696  2 6.500000 9.500000 5.500000
1697  2 6.500000 9.500000 6.500000
1698  2 6.500000 9.500000 7.500000
1699  2 6.500000 9.500000 8.500000
1700  2 6.500000 9.500000 9.500000
1701  2 7.500000 0.500000 0.500000
1702  2 7.500000 0.500000 1.500000
1703  2 7.500000 0.500000 2.500000
1704  2 7.500000 0.500000 3.500000
1705  2 7.500000 0.500000 4.500000
1706  2 7.500000 0.500000 5.500000
1707  2 7.500000 0.500000 6.500000
1708  2 7.500000 0.500000 7.500000
1709  2 7.500000 0.500000 8.500000
1710  2 7.500000 0.500000 9.500000
1711  2 7.500000 1.500000 0.500000
1712  2 7.500000 1.500000 1.500000
1713  2 7.500000 1.500000 2.500000
1714  2 7.500000 1.500000 3.500000
1715  2 7.500000 1.500000 4.500000
1716  2 7.500000 1.500000 5.500000
1717  2 7.500000 1.500000 6.500000
1718  2 7.500000 1.500000 7.500000
1719  2 7.500000 1.500000 8.500000
1720  2 7.500000 1.500000 9.500000
1721  2 7.500000 2.500000 0.500000
1722  2 7.500000 2.500000 1.500000
1723  2 7.500000 2.500000 2.500000
1724  2 7.500000 2.500000 3.500000
1725  2 7.500000 2.500000 4.500000
1726  2 7.500000 2.500000 5.500000
1727  2 7.500000 2.500000 6.500000
1728  2 7.500000 2.500000 7.500000
1729  2 7.500000 2.500000 8.500000
1730  2 7.500000 2.500000 9.500000
1731  2 7.500000 3.500000 0.500000
1732  2 7.500000 3.500000 1.500000
1733  2 7.500000 3.500000 2.500000
1734  2 7.500000 3.500000 3.500000
1735  2 7.500000 3.500000 4.500000
1736  2 7.500000 3.500000 5.500000
1737  2 7.500000 3.500000 6.500000
1738  2 7.500000 3.500000 7.500000
1739  2 7.500000 3.500000 8.500000
1740  2 7.500000 3.500000 9.500000
1741  2 7.500000 4.500000 0.500000
1742  2 7.500000 4.500000 1.500000
1743  2 7.500000 4.500000 2.500000
1744  2 7.500000 4.500000 3.500000
1745  2 7.500000 4.500000 4.500000
1746  2 7.500000 4.500000 5.500000
1747  2 7.500000 4.500000 6.500000
1748  2 7.500000 4.500000 7.500000
1749  2 7.500000 4.500000 8.500000
1750  2 7.500000 4.500000 9.500000
1751  2 7.500000 5.500000 0.500000
1752  2 7.500000 5.500000 1.500000
1753  2 7.500000 5.500000 2.500000
1754  2 7.500000 5.500000 3.500000
1755  2 7.500000 5.500000 4.500000
1756  2 7.500000 5.500000 5.500000
1757  2 7.500000 5.500000 6.500000
1758  2 7.500000 5.500000 7.500000
1759  2 7.500000 5.500000 8.500000
1760  2 7.500000 5.500000 9.500000
1761  2 7.500000 6.500000 0.500000
1762  2 7.500000 6.500000 1.500000
1763  2 7.500000 6.500000 2.500000
1764  2 7.500000 6.500000 3.500000
1765  2 7.500000 6.500000 4.500000
1766  2 7.500000 6.500000 5.500000
1767  2 7.500000 6.500000 6.500000
1768  2 7.500000 6.500000 7.500000
1769  2 7.500000 6.500000 8.500000
1770  2 7.500000 6.500000 9.500000
1771  2 7.500000 7.500000 0.500000
1772  2 7.500000 7.500000 1.500000
1773  2 7.500000 7.500000 2.500000
1774  2 7.500000 7.500000 3.500000
1775  2 7.500000 7.500000 4.500000
1776  2 7.500000 7.500000 5.500000
1777  2 7.500000 7.500000 6.500000
1778  2 7.500000 7.500000 7.500000
1779  2 7.500000 7.500000 8.500000
1780  2 7.500000 7.500000 9.500000
1781  2 7.500000 8.500000 0.500000
1782  2 7.500000 8.500000 1.500000
1783  2 7.500000 8.500000 2.500000
1784  2 7.500000 8.500000 3.500000
1785  2 7.500000 8.500000 4.500000
1786  2 7.500000 8.500000 5.500000
1787  2 7.500000 8.500000 6.500000
1788  2 7.500000 8.500000 7.500000
1789  2 7.500000 8.500000 8.500000
1790  2 7.500000 8.500000 9.500000
1791  2 7.500000 9.500000 0.500000
1792  2 7.500000 9.500000 1.500000
1793  2 7.500000 9.500000 2.500000
1794  2 7.500000 9.500000 3.500000
1795  2 7.500000 9.500000 4.500000
1796  2 7.500000 9.500000 5.500000
1797  2 7.500000 9.500000 6.500000
1798  2 7.500000 9.500000 7.500000
1799  2 7.500000 9.500000 8.500000
1800  2 7.500000 9.500000 9.500000
1801  2 8.500000 0.500000 0.500000
1802  2 8.500000 0.500000 1.500000
1803  2 8.500000 0.500000 2.500000
1804  2 8.500000 0.500000 3.500000
1805  2 8.500000 0.500000 4.500000
1806  2 8.500000 0.500000 5.500000
1807  2 8.500000 0.500000 6.500000
1808  2 8.500000 0.500000 7.500000
1809  2 8.500000 0.500000 8.500000
1810  2 8.500000 0.500000 9.500000
1811  2 8.500000 1.500000 0.500000
1812  2 8.500000 1.500000 1.500000
1813  2 8.500000 1.500000 2.500000
1814  2 8.500000 1.500000 3.500000
1815  2 8.500000 1.500000 4.500000
1816  2 8.500000 1.500000 5.500000
1817  2 8.500000 1.500000 6.500000
1818  2 8.500000 1.500000 7.500000
1819  2 8.500000 1.500000 8.500000
1820  2 8.500000 1.500000 9.500000
1821  2 8.500000 2.500000 0.500000
1822  2 8.500000 2.500000 1.500000
1823  2 8.500000 2.500000 2.500000
1824  2 8.500000 2.500000 3.500000
1825  2 8.500000 2.500000 4.500000
1826  2 8.500000 2.500000 5.500000
1827  2 8.500000 2.500000 6.500000
1828  2 8.500000 2.500000 7.500000
1829  2 8.500000 2.500000 8.500000
1830  2 8.500000 2.500000 9.500000
1831  2 8.500000 3.500000 0.500000
1832  2 8.500000 3.500000 1.500000
1833  2 8.500000 3.500000 2.500000
1834  2 8.500000 3.500000 3.500000
1835  2 8.500000 3.500000 4.500000
1836  2 8.500000 3.500000 5.500000
1837  2 8.500000 3.500000 6.500000
1838  2 8.500000 3.500000 7.500000
1839  2 8.500000 3.500000 8.500000
1840  2 8.500000 3.500000 9.500000
1841  2 8.500000 4.500000 0.500000
1842  2 8.500000 4.500000 1.500000
1843  2 8.500000 4.500000 2.500000
1844  2 8.500000 4.500000 3.500000
1845  2 8.500000 4.500000 4.500000
1846  2 8.500000 4.500000 5.500000
1847  2 8.500000 4.500000 6.500000
1848  2 8.500000 4.500000 7.500000
1849  2 8.500000 4.500000 8.500000
1850  2 8.500000 4.500000 9.500000
1851  2 8.500000 5.500000 0.500000
1852  2 8.500000 5.500000 1.500000
1853  2 8.500000 5.500000 2.500000
1854  2 8.500000 5.500000 3.500000
1855  2 8.500000 5.500000 4.500000
1856  2 8.500000 5.500000 5.500000
1857  2 8.500000 5.500000 6.500000
1858  2 8.500000 5.500000 7.500000
1859  2 8.500000 5.500000 8.500000
1860  2 8.500000 5.500000 9.500000
1861  2 8.500000 6.500000 0.500000
1862  2 8.500000 6.500000 1.500000
1863  2 8.500000 6.500000 2.500000
1864  2 8.500000 6.500000 3.500000
1865  2 8.500000 6.500000 4.500000
1866  2 8.500000 6.500000 5.500000
1867  2 8.500000 6.500000 6.500000
1868  2 8.500000 6.500000 7.500000
1869  2 8.500000 6.500000 8.500000
1870  2 8.500000 6.500000 9.500000
1871  2 8.500000 7.500000 0.500000
1872  2 8.500000 7.500000 1.500000
1873  2 8.500000 7.500000 2.500000
1874  2 8.500000 7.500000 3.500000
1875  2 8.500000 7.500000 4.500000
1876  2 8.500000 7.500000 5.500000
1877  2 8.500000 7.500000 6.500000
1878  2 8.500000 7.500000 7.500000
1879  2 8.500000 7.500000 8.500000
1880  2 8.500000 7.500000 9.500000
1881  2 8.500000 8.500000 0.500000
1882  2 8.500000 8.500000 1.500000
1883  2 8.500000 8.500000 2.500000
1884  2 8.500000 8.500000 3.500000
1885  2 8.500000 8.500000 4.500000
1886  2 8.500000 8.500000 5.500000
1887  2 8.500000 8.500000 6.500000
1888  2 8.500000 8.500000 7.500000
1889  2 8.500000 8.500000 8.500000
1890  2 8.500000 8.500000 9.500000
1891  2 8.500000 9.500000 0.500000
1892  2 8.500000 9.500000 1.500000
1893  2 8.500000 9.500000 2.500000
1894  2 8.500000 9.500000 3.500000
1895  2 8.500000 9.500000 4.500000
1896  2 8.500000 9.500000 5.500000
1897  2 8.500000 9.500000 6.500000
1898  2 8.500000 9.500000 7.500000
1899  2 8.500000 9.500000 8.500000
1900  2 8.500000 9.500000 9.500000
1901  2 9.500000 0.500000 0.500000
1902  2 9.500000 0.500000 1.500000
1903  2 9.500000 0.500000 2.500000
1904  2 9.500000 0.500000 3.500000
1905  2 9.500000 0.500000 4.500000
1906  2 9.500000 0.500000 5.500000
1907  2 9.500000 0.500000 6.500000
1908  2 9.500000 0.500000 7.500000
1909  2 9.500000 0.500000 8.500000
1910  2 9.500000 0.500000 9.500000
1911  2 9.500000 1.500000 0.500000
1912  2 9.500000 1.500000 1.500000
1913  2 9.500000 1.500000 2.500000
1914  2 9.500000 1.500000 3.500000
1915  2 9.500000 1.500000 4.500000
1916  2 9.500000 1.500000 5.500000
1917  2 9.500000 1.500000 6.500000
1918  2 9.500000 1.500000 7.500000
1919  2 9.500000 1.500000 8.500000
1920  2 9.500000 1.500000 9.500000
1921  2 9.500000 2.500000 0.500000
1922  2 9.500000 2.500000 1.500000
1923  2 9.500000 2.500000 2.500000
1924  2 9.500000 2.500000 3.500000
1925  2 9.500000 2.500000 4.500000
1926  2 9.500000 2.500000 5.500000
1927  2 9.500000 2.500000 6.500000
1928  2 9.500000 2.500000 7.500000
1929  2 9.500000 2.500000 8.500000
1930  2 9.500000 2.500000 9.500000
1931  2 9.500000 3.500000 0.500000
1932  2 9.500000 3.500000 1.500000
1933  2 9.500000 3.500000 2.500000
1934  2 9.500000 3.500000 3.500000
1935  2 9.500000 3.500000 4.500000
1936  2 9.500000 3.500000 5.500000
1937  2 9.500000 3.500000 6.500000
1938  2 9.500000 3.500000 7.500000
1939  2 9.500000 3.500000 8.500000
1940  2 9.500000 3.500000 9.500000
1941  2 9.500000 4.500000 0.500000
1942  2 9.500000 4.500000 1.500000
1943  2 9.500000 4.500000 2.500000
1944  2 9.500000 4.500000 3.500000
1945  2 9.500000 4.500000 4.500000
1946  2 9.500000 4.500000 5.500000
1947  2 9.500000 4.500000 6.500000
1948  2 9.500000 4.500000 7.500000
1949  2 9.500000 4.500000 8.500000
1950  2 9.500000 4.500000 9.500000
1951  2 9.500000 5.500000 0.500000
1952  2 9.500000 5.500000 1.500000
1953  2 9.500000 5.500000 2.500000
1954  2 9.500000 5.500000 3.500000
1955  2 9.500000 5.500000 4.500000
1956  2 9.500000 5.500000 5.500000
1957  2 9.500000 5.500000 6.500000
1958  2 9.500000 5.500000 7.500000
1959  2 9.500000 5.500000 8.500000
1960  2 9.500000 5.500000 9.500000
1961  2 9.500000 6.500000 0.500000
1962  2 9.500000 6.500000 1.500000
1963  2 9.500000 6.500000 2.500000
1964  2 9.500000 6.500000 3.500000
1965  2 9.500000 6.500000 4.500000
1966  2 9.500000 6.500000 5.500000
1967  2 9.500000 6.500000 6.500000
1968  2 9.500000 6.500000 7.500000
1969  2 9.500000 6.500000 8.500000
1970  2 9.500000 6.500000 9.500000
1971  2 9.500000 7.500000 0.500000
1972  2 9.500000 7.500000 1.500000
1973  2 9.500000 7.500000 2.500000
1974  2 9.500000 7.500000 3.500000
1975  2 9.500000 7.500000 4.500000
1976  2 9.500000 7.500000 5.500000
1977  2 9.500000 7.500000 6.500000
1978  2 9.500000 7.500000 7.500000
1979  2 9.500000 7.500000 8.500000
1980  2 9.500000 7.500000 9.500000
1981  2 9.500000 8.500000 0.500000
1982  2 9.500000 8.500000 1.500000
1983  2 9.500000 8.500000 2.500000
1984  2 9.500000 8.500000 3.500000
1985  2 9.500000 8.500000 4.500000
1986  2 9.500000 8.500000 5.500000
1987  2 9.500000 8.500000 6.500000
1988  2 9.500000 8.500000 7.500000
1989  2 9.500000 8.500000 8.500000
1990  2 9.500000 8.500000 9.500000
1991  2 9.500000 9.500000 0.500000
1992  2 9.500000 9.500000 1.500000
1993  2 9.500000 9.500000 2.500000
1994  2 9.500000 9.500000 3.500000
1995  2 9.500000 9.500000 4.500000
1996  2 9.500000 9.500000 5.500000
1997  2 9.500000 9.500000 6.500000
1998  2 9.500000 9.500000 7.500000
1999  2 9.500000 9.500000 8.500000
2000  2 9.500000 9.500000 9.500000

