Generated by pymatgen.io.lammps.data.LammpsData

2000  atoms

   4  atom types

0.000000 28.553120  xlo xhi
0.000000 28.553120  ylo yhi
0.000000 28.553120  zlo zhi
0.000000 0.000000 0.000000  xy xz yz

Masses

1  55.845
2   1.008
3   4.003
4  51.996

Atoms

1     1  0.000000  0.000000  0.000000
2     1  0.000000  0.000000  2.855312
3     1  0.000000  0.000000  5.710624
4     1  0.000000  0.000000  8.565936
5     1  0.000000  0.000000 11.421248
6     1  0.000000  0.000000 14.276560
7     1  0.000000  0.000000 17.131872
8     1  0.000000  0.000000 19.987184
9     1  0.000000  0.000000 22.842496
10    1  0.000000  0.000000 25.697808
11    1  0.000000  2.855312  0.000000
12    1  0.000000  2.855312  2.855312
13    1  0.000000  2.855312  5.710624
14    1  0.000000  2.855312  8.565936
15    1  0.000000  2.855312 11.421248
16    1  0.000000  2.855312 14.276560
17    1  0.000000  2.855312 17.131872
18    1  0.000000  2.855312 19.987184
19    1  0.000000  2.855312 22.842496
20    1  0.000000  2.855312 25.697808
21    1  0.000000  5.710624  0.000000
22    1  0.000000  5.710624  2.855312
23    1  0.000000  5.710624  5.710624
24    1  0.000000  5.710624  8.565936
25    1  0.000000  5.710624 11.421248
26    1  0.000000  5.710624 14.276560
27    1  0.000000  5.710624 17.131872
28    1  0.000000  5.710624 19.987184
29    1  0.000000  5.710624 22.842496
30    1  0.000000  5.710624 25.697808
31    1  0.000000  8.565936  0.000000
32    1  0.000000  8.565936  2.855312
33    1  0.000000  8.565936  5.710624
34    1  0.000000  8.565936  8.565936
35    1  0.000000  8.565936 11.421248
36    1  0.000000  8.565936 14.276560
37    1  0.000000  8.565936 17.131872
38    1  0.000000  8.565936 19.987184
39    1  0.000000  8.565936 22.842496
40    1  0.000000  8.565936 25.697808
41    1  0.000000 11.421248  0.000000
42    1  0.000000 11.421248  2.855312
43    1  0.000000 11.421248  5.710624
44    1  0.000000 11.421248  8.565936
45    1  0.000000 11.421248 11.421248
46    1  0.000000 11.421248 14.276560
47    1  0.000000 11.421248 17.131872
48    1  0.000000 11.421248 19.987184
49    1  0.000000 11.421248 22.842496
50    1  0.000000 11.421248 25.697808
51    1  0.000000 14.276560  0.000000
52    1  0.000000 14.276560  2.855312
53    1  0.000000 14.276560  5.710624
54    1  0.000000 14.276560  8.565936
55    1  0.000000 14.276560 11.421248
56    1  0.000000 14.276560 14.276560
57    1  0.000000 14.276560 17.131872
58    1  0.000000 14.276560 19.987184
59    1  0.000000 14.276560 22.842496
60    1  0.000000 14.276560 25.697808
61    1  0.000000 17.131872  0.000000
62    1  0.000000 17.131872  2.855312
63    1  0.000000 17.131872  5.710624
64    1  0.000000 17.131872  8.565936
65    1  0.000000 17.131872 11.421248
66    1  0.000000 17.131872 14.276560
67    1  0.000000 17.131872 17.131872
68    1  0.000000 17.131872 19.987184
69    1  0.000000 17.131872 22.842496
70    1  0.000000 17.131872 25.697808
71    1  0.000000 19.987184  0.000000
72    1  0.000000 19.987184  2.855312
73    1  0.000000 19.987184  5.710624
74    1  0.000000 19.987184  8.565936
75    1  0.000000 19.987184 11.421248
76    1  0.000000 19.987184 14.276560
77    1  0.000000 19.987184 17.131872
78    1  0.000000 19.987184 19.987184
79    1  0.000000 19.987184 22.842496
80    1  0.000000 19.987184 25.697808
81    1  0.000000 22.842496  0.000000
82    1  0.000000 22.842496  2.855312
83    1  0.000000 22.842496  5.710624
84    1  0.000000 22.842496  8.565936
85    1  0.000000 22.842496 11.421248
86    1  0.000000 22.842496 14.276560
87    1  0.000000 22.842496 17.131872
88    1  0.000000 22.842496 19.987184
89    1  0.000000 22.842496 22.842496
90    1  0.000000 22.842496 25.697808
91    1  0.000000 25.697808  0.000000
92    1  0.000000 25.697808  2.855312
93    1  0.000000 25.697808  5.710624
94    1  0.000000 25.697808  8.565936
95    1  0.000000 25.697808 11.421248
96    1  0.000000 25.697808 14.276560
97    1  0.000000 25.697808 17.131872
98    1  0.000000 25.697808 19.987184
99    1  0.000000 25.697808 22.842496
100   1  0.000000 25.697808 25.697808
101   1  2.855312  0.000000  0.000000
102   1  2.855312  0.000000  2.855312
103   1  2.855312  0.000000  5.710624
104   1  2.855312  0.000000  8.565936
105   1  2.855312  0.000000 11.421248
106   1  2.855312  0.000000 14.276560
107   1  2.855312  0.000000 17.131872
108   1  2.855312  0.000000 19.987184
109   1  2.855312  0.000000 22.842496
110   1  2.855312  0.000000 25.697808
111   1  2.855312  2.855312  0.000000
112   1  2.855312  2.855312  2.855312
113   1  2.855312  2.855312  5.710624
114   1  2.855312  2.855312  8.565936
115   1  2.855312  2.855312 11.421248
116   1  2.855312  2.855312 14.276560
117   1  2.855312  2.855312 17.131872
118   1  2.855312  2.855312 19.987184
119   1  2.855312  2.855312 22.842496
120   1  2.855312  2.855312 25.697808
121   1  2.855312  5.710624  0.000000
122   1  2.855312  5.710624  2.855312
123   1  2.855312  5.710624  5.710624
124   1  2.855312  5.710624  8.565936
125   1  2.855312  5.710624 11.421248
126   1  2.855312  5.710624 14.276560
127   1  2.855312  5.710624 17.131872
128   1  2.855312  5.710624 19.987184
129   1  2.855312  5.710624 22.842496
130   1  2.855312  5.710624 25.697808
131   1  2.855312  8.565936  0.000000
132   1  2.855312  8.565936  2.855312
133   1  2.855312  8.565936  5.710624
134   1  2.855312  8.565936  8.565936
135   1  2.855312  8.565936 11.421248
136   1  2.855312  8.565936 14.276560
137   1  2.855312  8.565936 17.131872
138   1  2.855312  8.565936 19.987184
139   1  2.855312  8.565936 22.842496
140   1  2.855312  8.565936 25.697808
141   1  2.855312 11.421248  0.000000
142   1  2.855312 11.421248  2.855312
143   1  2.855312 11.421248  5.710624
144   1  2.855312 11.421248  8.565936
145   1  2.855312 11.421248 11.421248
146   1  2.855312 11.421248 14.276560
147   1  2.855312 11.421248 17.131872
148   1  2.855312 11.421248 19.987184
149   1  2.855312 11.421248 22.842496
150   1  2.855312 11.421248 25.697808
151   1  2.855312 14.276560  0.000000
152   1  2.855312 14.276560  2.855312
153   1  2.855312 14.276560  5.710624
154   1  2.855312 14.276560  8.565936
155   1  2.855312 14.276560 11.421248
156   1  2.855312 14.276560 14.276560
157   1  2.855312 14.276560 17.131872
158   1  2.855312 14.276560 19.987184
159   1  2.855312 14.276560 22.842496
160   1  2.855312 14.276560 25.697808
161   1  2.855312 17.131872  0.000000
162   1  2.855312 17.131872  2.855312
163   1  2.855312 17.131872  5.710624
164   1  2.855312 17.131872  8.565936
165   1  2.855312 17.131872 11.421248
166   1  2.855312 17.131872 14.276560
167   1  2.855312 17.131872 17.131872
168   1  2.855312 17.131872 19.987184
169   1  2.855312 17.131872 22.842496
170   1  2.855312 17.131872 25.697808
171   1  2.855312 19.987184  0.000000
172   1  2.855312 19.987184  2.855312
173   1  2.855312 19.987184  5.710624
174   1  2.855312 19.987184  8.565936
175   1  2.855312 19.987184 11.421248
176   1  2.855312 19.987184 14.276560
177   1  2.855312 19.987184 17.131872
178   1  2.855312 19.987184 19.987184
179   1  2.855312 19.987184 22.842496
180   1  2.855312 19.987184 25.697808
181   1  2.855312 22.842496  0.000000
182   1  2.855312 22.842496  2.855312
183   1  2.855312 22.842496  5.710624
184   1  2.855312 22.842496  8.565936
185   1  2.855312 22.842496 11.421248
186   1  2.855312 22.842496 14.276560
187   1  2.855312 22.842496 17.131872
188   1  2.855312 22.842496 19.987184
189   1  2.855312 22.842496 22.842496
190   1  2.855312 22.842496 25.697808
191   1  2.855312 25.697808  0.000000
192   1  2.855312 25.697808  2.855312
193   1  2.855312 25.697808  5.710624
194   1  2.855312 25.697808  8.565936
195   1  2.855312 25.697808 11.421248
196   1  2.855312 25.697808 14.276560
197   1  2.855312 25.697808 17.131872
198   1  2.855312 25.697808 19.987184
199   1  2.855312 25.697808 22.842496
200   1  2.855312 25.697808 25.697808
201   1  5.710624  0.000000  0.000000
202   1  5.710624  0.000000  2.855312
203   1  5.710624  0.000000  5.710624
204   1  5.710624  0.000000  8.565936
205   1  5.710624  0.000000 11.421248
206   1  5.710624  0.000000 14.276560
207   1  5.710624  0.000000 17.131872
208   1  5.710624  0.000000 19.987184
209   1  5.710624  0.000000 22.842496
210   1  5.710624  0.000000 25.697808
211   1  5.710624  2.855312  0.000000
212   1  5.710624  2.855312  2.855312
213   1  5.710624  2.855312  5.710624
214   1  5.710624  2.855312  8.565936
215   1  5.710624  2.855312 11.421248
216   1  5.710624  2.855312 14.276560
217   1  5.710624  2.855312 17.131872
218   1  5.710624  2.855312 19.987184
219   1  5.710624  2.855312 22.842496
220   1  5.710624  2.855312 25.697808
221   1  5.710624  5.710624  0.000000
222   1  5.710624  5.710624  2.855312
223   1  5.710624  5.710624  5.710624
224   1  5.710624  5.710624  8.565936
225   1  5.710624  5.710624 11.421248
226   1  5.710624  5.710624 14.276560
227   1  5.710624  5.710624 17.131872
228   1  5.710624  5.710624 19.987184
229   1  5.710624  5.710624 22.842496
230   1  5.710624  5.710624 25.697808
231   1  5.710624  8.565936  0.000000
232   1  5.710624  8.565936  2.855312
233   1  5.710624  8.565936  5.710624
234   1  5.710624  8.565936  8.565936
235   1  5.710624  8.565936 11.421248
236   1  5.710624  8.565936 14.276560
237   1  5.710624  8.565936 17.131872
238   1  5.710624  8.565936 19.987184
239   1  5.710624  8.565936 22.842496
240   1  5.710624  8.565936 25.697808
241   1  5.710624 11.421248  0.000000
242   1  5.710624 11.421248  2.855312
243   1  5.710624 11.421248  5.710624
244   1  5.710624 11.421248  8.565936
245   1  5.710624 11.421248 11.421248
246   1  5.710624 11.421248 14.276560
247   1  5.710624 11.421248 17.131872
248   1  5.710624 11.421248 19.987184
249   1  5.710624 11.421248 22.842496
250   1  5.710624 11.421248 25.697808
251   1  5.710624 14.276560  0.000000
252   1  5.710624 14.276560  2.855312
253   1  5.710624 14.276560  5.710624
254   1  5.710624 14.276560  8.565936
255   1  5.710624 14.276560 11.421248
256   1  5.710624 14.276560 14.276560
257   1  5.710624 14.276560 17.131872
258   1  5.710624 14.276560 19.987184
259   1  5.710624 14.276560 22.842496
260   1  5.710624 14.276560 25.697808
261   1  5.710624 17.131872  0.000000
262   1  5.710624 17.131872  2.855312
263   1  5.710624 17.131872  5.710624
264   1  5.710624 17.131872  8.565936
265   1  5.710624 17.131872 11.421248
266   1  5.710624 17.131872 14.276560
267   1  5.710624 17.131872 17.131872
268   1  5.710624 17.131872 19.987184
269   1  5.710624 17.131872 22.842496
270   1  5.710624 17.131872 25.697808
271   1  5.710624 19.987184  0.000000
272   1  5.710624 19.987184  2.855312
273   1  5.710624 19.987184  5.710624
274   1  5.710624 19.987184  8.565936
275   1  5.710624 19.987184 11.421248
276   1  5.710624 19.987184 14.276560
277   1  5.710624 19.987184 17.131872
278   1  5.710624 19.987184 19.987184
279   1  5.710624 19.987184 22.842496
280   1  5.710624 19.987184 25.697808
281   1  5.710624 22.842496  0.000000
282   1  5.710624 22.842496  2.855312
283   1  5.710624 22.842496  5.710624
284   1  5.710624 22.842496  8.565936
285   1  5.710624 22.842496 11.421248
286   1  5.710624 22.842496 14.276560
287   1  5.710624 22.842496 17.131872
288   1  5.710624 22.842496 19.987184
289   1  5.710624 22.842496 22.842496
290   1  5.710624 22.842496 25.697808
291   1  5.710624 25.697808  0.000000
292   1  5.710624 25.697808  2.855312
293   1  5.710624 25.697808  5.710624
294   1  5.710624 25.697808  8.565936
295   1  5.710624 25.697808 11.421248
296   1  5.710624 25.697808 14.276560
297   1  5.710624 25.697808 17.131872
298   1  5.710624 25.697808 19.987184
299   1  5.710624 25.697808 22.842496
300   1  5.710624 25.697808 25.697808
301   1  8.565936  0.000000  0.000000
302   1  8.565936  0.000000  2.855312
303   1  8.565936  0.000000  5.710624
304   1  8.565936  0.000000  8.565936
305   1  8.565936  0.000000 11.421248
306   1  8.565936  0.000000 14.276560
307   1  8.565936  0.000000 17.131872
308   1  8.565936  0.000000 19.987184
309   1  8.565936  0.000000 22.842496
310   1  8.565936  0.000000 25.697808
311   1  8.565936  2.855312  0.000000
312   1  8.565936  2.855312  2.855312
313   1  8.565936  2.855312  5.710624
314   1  8.565936  2.855312  8.565936
315   1  8.565936  2.855312 11.421248
316   1  8.565936  2.855312 14.276560
317   1  8.565936  2.855312 17.131872
318   1  8.565936  2.855312 19.987184
319   1  8.565936  2.855312 22.842496
320   1  8.565936  2.855312 25.697808
321   1  8.565936  5.710624  0.000000
322   1  8.565936  5.710624  2.855312
323   1  8.565936  5.710624  5.710624
324   1  8.565936  5.710624  8.565936
325   1  8.565936  5.710624 11.421248
326   1  8.565936  5.710624 14.276560
327   1  8.565936  5.710624 17.131872
328   1  8.565936  5.710624 19.987184
329   1  8.565936  5.710624 22.842496
330   1  8.565936  5.710624 25.697808
331   1  8.565936  8.565936  0.000000
332   1  8.565936  8.565936  2.855312
333   1  8.565936  8.565936  5.710624
334   1  8.565936  8.565936  8.565936
335   1  8.565936  8.565936 11.421248
336   1  8.565936  8.565936 14.276560
337   1  8.565936  8.565936 17.131872
338   1  8.565936  8.565936 19.987184
339   1  8.565936  8.565936 22.842496
340   1  8.565936  8.565936 25.697808
341   1  8.565936 11.421248  0.000000
342   1  8.565936 11.421248  2.855312
343   1  8.565936 11.421248  5.710624
344   1  8.565936 11.421248  8.565936
345   1  8.565936 11.421248 11.421248
346   1  8.565936 11.421248 14.276560
347   1  8.565936 11.421248 17.131872
348   1  8.565936 11.421248 19.987184
349   1  8.565936 11.421248 22.842496
350   1  8.565936 11.421248 25.697808
351   1  8.565936 14.276560  0.000000
352   1  8.565936 14.276560  2.855312
353   1  8.565936 14.276560  5.710624
354   1  8.565936 14.276560  8.565936
355   1  8.565936 14.276560 11.421248
356   1  8.565936 14.276560 14.276560
357   1  8.565936 14.276560 17.131872
358   1  8.565936 14.276560 19.987184
359   1  8.565936 14.276560 22.842496
360   1  8.565936 14.276560 25.697808
361   1  8.565936 17.131872  0.000000
362   1  8.565936 17.131872  2.855312
363   1  8.565936 17.131872  5.710624
364   1  8.565936 17.131872  8.565936
365   1  8.565936 17.131872 11.421248
366   1  8.565936 17.131872 14.276560
367   1  8.565936 17.131872 17.131872
368   1  8.565936 17.131872 19.987184
369   1  8.565936 17.131872 22.842496
370   1  8.565936 17.131872 25.697808
371   1  8.565936 19.987184  0.000000
372   1  8.565936 19.987184  2.855312
373   1  8.565936 19.987184  5.710624
374   1  8.565936 19.987184  8.565936
375   1  8.565936 19.987184 11.421248
376   1  8.565936 19.987184 14.276560
377   1  8.565936 19.987184 17.131872
378   1  8.565936 19.987184 19.987184
379   1  8.565936 19.987184 22.842496
380   1  8.565936 19.987184 25.697808
381   1  8.565936 22.842496  0.000000
382   1  8.565936 22.842496  2.855312
383   1  8.565936 22.842496  5.710624
384   1  8.565936 22.842496  8.565936
385   1  8.565936 22.842496 11.421248
386   1  8.565936 22.842496 14.276560
387   1  8.565936 22.842496 17.131872
388   1  8.565936 22.842496 19.987184
389   1  8.565936 22.842496 22.842496
390   1  8.565936 22.842496 25.697808
391   1  8.565936 25.697808  0.000000
392   1  8.565936 25.697808  2.855312
393   1  8.565936 25.697808  5.710624
394   1  8.565936 25.697808  8.565936
395   1  8.565936 25.697808 11.421248
396   1  8.565936 25.697808 14.276560
397   1  8.565936 25.697808 17.131872
398   1  8.565936 25.697808 19.987184
399   1  8.565936 25.697808 22.842496
400   1  8.565936 25.697808 25.697808
401   1 11.421248  0.000000  0.000000
402   1 11.421248  0.000000  2.855312
403   1 11.421248  0.000000  5.710624
404   1 11.421248  0.000000  8.565936
405   1 11.421248  0.000000 11.421248
406   1 11.421248  0.000000 14.276560
407   1 11.421248  0.000000 17.131872
408   1 11.421248  0.000000 19.987184
409   1 11.421248  0.000000 22.842496
410   1 11.421248  0.000000 25.697808
411   1 11.421248  2.855312  0.000000
412   1 11.421248  2.855312  2.855312
413   1 11.421248  2.855312  5.710624
414   1 11.421248  2.855312  8.565936
415   1 11.421248  2.855312 11.421248
416   1 11.421248  2.855312 14.276560
417   1 11.421248  2.855312 17.131872
418   1 11.421248  2.855312 19.987184
419   1 11.421248  2.855312 22.842496
420   1 11.421248  2.855312 25.697808
421   1 11.421248  5.710624  0.000000
422   1 11.421248  5.710624  2.855312
423   1 11.421248  5.710624  5.710624
424   1 11.421248  5.710624  8.565936
425   1 11.421248  5.710624 11.421248
426   1 11.421248  5.710624 14.276560
427   1 11.421248  5.710624 17.131872
428   1 11.421248  5.710624 19.987184
429   1 11.421248  5.710624 22.842496
430   1 11.421248  5.710624 25.697808
431   1 11.421248  8.565936  0.000000
432   1 11.421248  8.565936  2.855312
433   1 11.421248  8.565936  5.710624
434   1 11.421248  8.565936  8.565936
435   1 11.421248  8.565936 11.421248
436   1 11.421248  8.565936 14.276560
437   1 11.421248  8.565936 17.131872
438   1 11.421248  8.565936 19.987184
439   1 11.421248  8.565936 22.842496
440   1 11.421248  8.565936 25.697808
441   1 11.421248 11.421248  0.000000
442   1 11.421248 11.421248  2.855312
443   1 11.421248 11.421248  5.710624
444   1 11.421248 11.421248  8.565936
445   1 11.421248 11.421248 11.421248
446   1 11.421248 11.421248 14.276560
447   1 11.421248 11.421248 17.131872
448   1 11.421248 11.421248 19.987184
449   1 11.421248 11.421248 22.842496
450   1 11.421248 11.421248 25.697808
451   1 11.421248 14.276560  0.000000
452   1 11.421248 14.276560  2.855312
453   1 11.421248 14.276560  5.710624
454   1 11.421248 14.276560  8.565936
455   1 11.421248 14.276560 11.421248
456   1 11.421248 14.276560 14.276560
457   1 11.421248 14.276560 17.131872
458   1 11.421248 14.276560 19.987184
459   1 11.421248 14.276560 22.842496
460   1 11.421248 14.276560 25.697808
461   1 11.421248 17.131872  0.000000
462   1 11.421248 17.131872  2.855312
463   1 11.421248 17.131872  5.710624
464   1 11.421248 17.131872  8.565936
465   1 11.421248 17.131872 11.421248
466   1 11.421248 17.131872 14.276560
467   1 11.421248 17.131872 17.131872
468   1 11.421248 17.131872 19.987184
469   1 11.421248 17.131872 22.842496
470   1 11.421248 17.131872 25.697808
471   1 11.421248 19.987184  0.000000
472   1 11.421248 19.987184  2.855312
473   1 11.421248 19.987184  5.710624
474   1 11.421248 19.987184  8.565936
475   1 11.421248 19.987184 11.421248
476   1 11.421248 19.987184 14.276560
477   1 11.421248 19.987184 17.131872
478   1 11.421248 19.987184 19.987184
479   1 11.421248 19.987184 22.842496
480   1 11.421248 19.987184 25.697808
481   1 11.421248 22.842496  0.000000
482   1 11.421248 22.842496  2.855312
483   1 11.421248 22.842496  5.710624
484   1 11.421248 22.842496  8.565936
485   1 11.421248 22.842496 11.421248
486   1 11.421248 22.842496 14.276560
487   1 11.421248 22.842496 17.131872
488   1 11.421248 22.842496 19.987184
489   1 11.421248 22.842496 22.842496
490   1 11.421248 22.842496 25.697808
491   1 11.421248 25.697808  0.000000
492   1 11.421248 25.697808  2.855312
493   1 11.421248 25.697808  5.710624
494   1 11.421248 25.697808  8.565936
495   1 11.421248 25.697808 11.421248
496   1 11.421248 25.697808 14.276560
497   1 11.421248 25.697808 17.131872
498   1 11.421248 25.697808 19.987184
499   1 11.421248 25.697808 22.842496
500   1 11.421248 25.697808 25.697808
501   1 14.276560  0.000000  0.000000
502   1 14.276560  0.000000  2.855312
503   1 14.276560  0.000000  5.710624
504   1 14.276560  0.000000  8.565936
505   1 14.276560  0.000000 11.421248
506   1 14.276560  0.000000 14.276560
507   1 14.276560  0.000000 17.131872
508   1 14.276560  0.000000 19.987184
509   1 14.276560  0.000000 22.842496
510   1 14.276560  0.000000 25.697808
511   1 14.276560  2.855312  0.000000
512   1 14.276560  2.855312  2.855312
513   1 14.276560  2.855312  5.710624
514   1 14.276560  2.855312  8.565936
515   1 14.276560  2.855312 11.421248
516   1 14.276560  2.855312 14.276560
517   1 14.276560  2.855312 17.131872
518   1 14.276560  2.855312 19.987184
519   1 14.276560  2.855312 22.842496
520   1 14.276560  2.855312 25.697808
521   1 14.276560  5.710624  0.000000
522   1 14.276560  5.710624  2.855312
523   1 14.276560  5.710624  5.710624
524   1 14.276560  5.710624  8.565936
525   1 14.276560  5.710624 11.421248
526   1 14.276560  5.710624 14.276560
527   1 14.276560  5.710624 17.131872
528   1 14.276560  5.710624 19.987184
529   1 14.276560  5.710624 22.842496
530   1 14.276560  5.710624 25.697808
531   1 14.276560  8.565936  0.000000
532   1 14.276560  8.565936  2.855312
533   1 14.276560  8.565936  5.710624
534   1 14.276560  8.565936  8.565936
535   1 14.276560  8.565936 11.421248
536   1 14.276560  8.565936 14.276560
537   1 14.276560  8.565936 17.131872
538   1 14.276560  8.565936 19.987184
539   1 14.276560  8.565936 22.842496
540   1 14.276560  8.565936 25.697808
541   1 14.276560 11.421248  0.000000
542   1 14.276560 11.421248  2.855312
543   1 14.276560 11.421248  5.710624
544   1 14.276560 11.421248  8.565936
545   1 14.276560 11.421248 11.421248
546   1 14.276560 11.421248 14.276560
547   1 14.276560 11.421248 17.131872
548   1 14.276560 11.421248 19.987184
549   1 14.276560 11.421248 22.842496
550   1 14.276560 11.421248 25.697808
551   1 14.276560 14.276560  0.000000
552   1 14.276560 14.276560  2.855312
553   1 14.276560 14.276560  5.710624
554   1 14.276560 14.276560  8.565936
555   1 14.276560 14.276560 11.421248
556   1 14.276560 14.276560 14.276560
557   1 14.276560 14.276560 17.131872
558   1 14.276560 14.276560 19.987184
559   1 14.276560 14.276560 22.842496
560   1 14.276560 14.276560 25.697808
561   1 14.276560 17.131872  0.000000
562   1 14.276560 17.131872  2.855312
563   1 14.276560 17.131872  5.710624
564   1 14.276560 17.131872  8.565936
565   1 14.276560 17.131872 11.421248
566   1 14.276560 17.131872 14.276560
567   1 14.276560 17.131872 17.131872
568   1 14.276560 17.131872 19.987184
569   1 14.276560 17.131872 22.842496
570   1 14.276560 17.131872 25.697808
571   1 14.276560 19.987184  0.000000
572   1 14.276560 19.987184  2.855312
573   1 14.276560 19.987184  5.710624
574   1 14.276560 19.987184  8.565936
575   1 14.276560 19.987184 11.421248
576   1 14.276560 19.987184 14.276560
577   1 14.276560 19.987184 17.131872
578   1 14.276560 19.987184 19.987184
579   1 14.276560 19.987184 22.842496
580   1 14.276560 19.987184 25.697808
581   1 14.276560 22.842496  0.000000
582   1 14.276560 22.842496  2.855312
583   1 14.276560 22.842496  5.710624
584   1 14.276560 22.842496  8.565936
585   1 14.276560 22.842496 11.421248
586   1 14.276560 22.842496 14.276560
587   1 14.276560 22.842496 17.131872
588   1 14.276560 22.842496 19.987184
589   1 14.276560 22.842496 22.842496
590   1 14.276560 22.842496 25.697808
591   1 14.276560 25.697808  0.000000
592   1 14.276560 25.697808  2.855312
593   1 14.276560 25.697808  5.710624
594   1 14.276560 25.697808  8.565936
595   1 14.276560 25.697808 11.421248
596   1 14.276560 25.697808 14.276560
597   1 14.276560 25.697808 17.131872
598   1 14.276560 25.697808 19.987184
599   1 14.276560 25.697808 22.842496
600   1 14.276560 25.697808 25.697808
601   1 17.131872  0.000000  0.000000
602   1 17.131872  0.000000  2.855312
603   1 17.131872  0.000000  5.710624
604   1 17.131872  0.000000  8.565936
605   1 17.131872  0.000000 11.421248
606   1 17.131872  0.000000 14.276560
607   1 17.131872  0.000000 17.131872
608   1 17.131872  0.000000 19.987184
609   1 17.131872  0.000000 22.842496
610   1 17.131872  0.000000 25.697808
611   1 17.131872  2.855312  0.000000
612   1 17.131872  2.855312  2.855312
613   1 17.131872  2.855312  5.710624
614   1 17.131872  2.855312  8.565936
615   1 17.131872  2.855312 11.421248
616   1 17.131872  2.855312 14.276560
617   1 17.131872  2.855312 17.131872
618   1 17.131872  2.855312 19.987184
619   1 17.131872  2.855312 22.842496
620   1 17.131872  2.855312 25.697808
621   1 17.131872  5.710624  0.000000
622   1 17.131872  5.710624  2.855312
623   1 17.131872  5.710624  5.710624
624   1 17.131872  5.710624  8.565936
625   1 17.131872  5.710624 11.421248
626   1 17.131872  5.710624 14.276560
627   1 17.131872  5.710624 17.131872
628   1 17.131872  5.710624 19.987184
629   1 17.131872  5.710624 22.842496
630   1 17.131872  5.710624 25.697808
631   1 17.131872  8.565936  0.000000
632   1 17.131872  8.565936  2.855312
633   1 17.131872  8.565936  5.710624
634   1 17.131872  8.565936  8.565936
635   1 17.131872  8.565936 11.421248
636   1 17.131872  8.565936 14.276560
637   1 17.131872  8.565936 17.131872
638   1 17.131872  8.565936 19.987184
639   1 17.131872  8.565936 22.842496
640   1 17.131872  8.565936 25.697808
641   1 17.131872 11.421248  0.000000
642   1 17.131872 11.421248  2.855312
643   1 17.131872 11.421248  5.710624
644   1 17.131872 11.421248  8.565936
645   1 17.131872 11.421248 11.421248
646   1 17.131872 11.421248 14.276560
647   1 17.131872 11.421248 17.131872
648   1 17.131872 11.421248 19.987184
649   1 17.131872 11.421248 22.842496
650   1 17.131872 11.421248 25.697808
651   1 17.131872 14.276560  0.000000
652   1 17.131872 14.276560  2.855312
653   1 17.131872 14.276560  5.710624
654   1 17.131872 14.276560  8.565936
655   1 17.131872 14.276560 11.421248
656   1 17.131872 14.276560 14.276560
657   1 17.131872 14.276560 17.131872
658   1 17.131872 14.276560 19.987184
659   1 17.131872 14.276560 22.842496
660   1 17.131872 14.276560 25.697808
661   1 17.131872 17.131872  0.000000
662   1 17.131872 17.131872  2.855312
663   1 17.131872 17.131872  5.710624
664   1 17.131872 17.131872  8.565936
665   1 17.131872 17.131872 11.421248
666   1 17.131872 17.131872 14.276560
667   1 17.131872 17.131872 17.131872
668   1 17.131872 17.131872 19.987184
669   1 17.131872 17.131872 22.842496
670   1 17.131872 17.131872 25.697808
671   1 17.131872 19.987184  0.000000
672   1 17.131872 19.987184  2.855312
673   1 17.131872 19.987184  5.710624
674   1 17.131872 19.987184  8.565936
675   1 17.131872 19.987184 11.421248
676   1 17.131872 19.987184 14.276560
677   1 17.131872 19.987184 17.131872
678   1 17.131872 19.987184 19.987184
679   1 17.131872 19.987184 22.842496
680   1 17.131872 19.987184 25.697808
681   1 17.131872 22.842496  0.000000
682   1 17.131872 22.842496  2.855312
683   1 17.131872 22.842496  5.710624
684   1 17.131872 22.842496  8.565936
685   1 17.131872 22.842496 11.421248
686   1 17.131872 22.842496 14.276560
687   1 17.131872 22.842496 17.131872
688   1 17.131872 22.842496 19.987184
689   1 17.131872 22.842496 22.842496
690   1 17.131872 22.842496 25.697808
691   1 17.131872 25.697808  0.000000
692   1 17.131872 25.697808  2.855312
693   1 17.131872 25.697808  5.710624
694   1 17.131872 25.697808  8.565936
695   1 17.131872 25.697808 11.421248
696   1 17.131872 25.697808 14.276560
697   1 17.131872 25.697808 17.131872
698   1 17.131872 25.697808 19.987184
699   1 17.131872 25.697808 22.842496
700   1 17.131872 25.697808 25.697808
701   1 19.987184  0.000000  0.000000
702   1 19.987184  0.000000  2.855312
703   1 19.987184  0.000000  5.710624
704   1 19.987184  0.000000  8.565936
705   1 19.987184  0.000000 11.421248
706   1 19.987184  0.000000 14.276560
707   1 19.987184  0.000000 17.131872
708   1 19.987184  0.000000 19.987184
709   1 19.987184  0.000000 22.842496
710   1 19.987184  0.000000 25.697808
711   1 19.987184  2.855312  0.000000
712   1 19.987184  2.855312  2.855312
713   1 19.987184  2.855312  5.710624
714   1 19.987184  2.855312  8.565936
715   1 19.987184  2.855312 11.421248
716   1 19.987184  2.855312 14.276560
717   1 19.987184  2.855312 17.131872
718   1 19.987184  2.855312 19.987184
719   1 19.987184  2.855312 22.842496
720   1 19.987184  2.855312 25.697808
721   1 19.987184  5.710624  0.000000
722   1 19.987184  5.710624  2.855312
723   1 19.987184  5.710624  5.710624
724   1 19.987184  5.710624  8.565936
725   1 19.987184  5.710624 11.421248
726   1 19.987184  5.710624 14.276560
727   1 19.987184  5.710624 17.131872
728   1 19.987184  5.710624 19.987184
729   1 19.987184  5.710624 22.842496
730   1 19.987184  5.710624 25.697808
731   1 19.987184  8.565936  0.000000
732   1 19.987184  8.565936  2.855312
733   1 19.987184  8.565936  5.710624
734   1 19.987184  8.565936  8.565936
735   1 19.987184  8.565936 11.421248
736   1 19.987184  8.565936 14.276560
737   1 19.987184  8.565936 17.131872
738   1 19.987184  8.565936 19.987184
739   1 19.987184  8.565936 22.842496
740   1 19.987184  8.565936 25.697808
741   1 19.987184 11.421248  0.000000
742   1 19.987184 11.421248  2.855312
743   1 19.987184 11.421248  5.710624
744   1 19.987184 11.421248  8.565936
745   1 19.987184 11.421248 11.421248
746   1 19.987184 11.421248 14.276560
747   1 19.987184 11.421248 17.131872
748   1 19.987184 11.421248 19.987184
749   1 19.987184 11.421248 22.842496
750   1 19.987184 11.421248 25.697808
751   1 19.987184 14.276560  0.000000
752   1 19.987184 14.276560  2.855312
753   1 19.987184 14.276560  5.710624
754   1 19.987184 14.276560  8.565936
755   1 19.987184 14.276560 11.421248
756   1 19.987184 14.276560 14.276560
757   1 19.987184 14.276560 17.131872
758   1 19.987184 14.276560 19.987184
759   1 19.987184 14.276560 22.842496
760   1 19.987184 14.276560 25.697808
761   1 19.987184 17.131872  0.000000
762   1 19.987184 17.131872  2.855312
763   1 19.987184 17.131872  5.710624
764   1 19.987184 17.131872  8.565936
765   1 19.987184 17.131872 11.421248
766   1 19.987184 17.131872 14.276560
767   1 19.987184 17.131872 17.131872
768   1 19.987184 17.131872 19.987184
769   1 19.987184 17.131872 22.842496
770   1 19.987184 17.131872 25.697808
771   1 19.987184 19.987184  0.000000
772   1 19.987184 19.987184  2.855312
773   1 19.987184 19.987184  5.710624
774   1 19.987184 19.987184  8.565936
775   1 19.987184 19.987184 11.421248
776   1 19.987184 19.987184 14.276560
777   1 19.987184 19.987184 17.131872
778   1 19.987184 19.987184 19.987184
779   1 19.987184 19.987184 22.842496
780   1 19.987184 19.987184 25.697808
781   1 19.987184 22.842496  0.000000
782   1 19.987184 22.842496  2.855312
783   1 19.987184 22.842496  5.710624
784   1 19.987184 22.842496  8.565936
785   1 19.987184 22.842496 11.421248
786   1 19.987184 22.842496 14.276560
787   1 19.987184 22.842496 17.131872
788   1 19.987184 22.842496 19.987184
789   1 19.987184 22.842496 22.842496
790   1 19.987184 22.842496 25.697808
791   1 19.987184 25.697808  0.000000
792   1 19.987184 25.697808  2.855312
793   1 19.987184 25.697808  5.710624
794   1 19.987184 25.697808  8.565936
795   1 19.987184 25.697808 11.421248
796   1 19.987184 25.697808 14.276560
797   1 19.987184 25.697808 17.131872
798   1 19.987184 25.697808 19.987184
799   1 19.987184 25.697808 22.842496
800   1 19.987184 25.697808 25.697808
801   1 22.842496  0.000000  0.000000
802   1 22.842496  0.000000  2.855312
803   1 22.842496  0.000000  5.710624
804   1 22.842496  0.000000  8.565936
805   1 22.842496  0.000000 11.421248
806   1 22.842496  0.000000 14.276560
807   1 22.842496  0.000000 17.131872
808   1 22.842496  0.000000 19.987184
809   1 22.842496  0.000000 22.842496
810   1 22.842496  0.000000 25.697808
811   1 22.842496  2.855312  0.000000
812   1 22.842496  2.855312  2.855312
813   1 22.842496  2.855312  5.710624
814   1 22.842496  2.855312  8.565936
815   1 22.842496  2.855312 11.421248
816   1 22.842496  2.855312 14.276560
817   1 22.842496  2.855312 17.131872
818   1 22.842496  2.855312 19.987184
819   1 22.842496  2.855312 22.842496
820   1 22.842496  2.855312 25.697808
821   1 22.842496  5.710624  0.000000
822   1 22.842496  5.710624  2.855312
823   1 22.842496  5.710624  5.710624
824   1 22.842496  5.710624  8.565936
825   1 22.842496  5.710624 11.421248
826   1 22.842496  5.710624 14.276560
827   1 22.842496  5.710624 17.131872
828   1 22.842496  5.710624 19.987184
829   1 22.842496  5.710624 22.842496
830   1 22.842496  5.710624 25.697808
831   1 22.842496  8.565936  0.000000
832   1 22.842496  8.565936  2.855312
833   1 22.842496  8.565936  5.710624
834   1 22.842496  8.565936  8.565936
835   1 22.842496  8.565936 11.421248
836   1 22.842496  8.565936 14.276560
837   1 22.842496  8.565936 17.131872
838   1 22.842496  8.565936 19.987184
839   1 22.842496  8.565936 22.842496
840   1 22.842496  8.565936 25.697808
841   1 22.842496 11.421248  0.000000
842   1 22.842496 11.421248  2.855312
843   1 22.842496 11.421248  5.710624
844   1 22.842496 11.421248  8.565936
845   1 22.842496 11.421248 11.421248
846   1 22.842496 11.421248 14.276560
847   1 22.842496 11.421248 17.131872
848   1 22.842496 11.421248 19.987184
849   1 22.842496 11.421248 22.842496
850   1 22.842496 11.421248 25.697808
851   1 22.842496 14.276560  0.000000
852   1 22.842496 14.276560  2.855312
853   1 22.842496 14.276560  5.710624
854   1 22.842496 14.276560  8.565936
855   1 22.842496 14.276560 11.421248
856   1 22.842496 14.276560 14.276560
857   1 22.842496 14.276560 17.131872
858   1 22.842496 14.276560 19.987184
859   1 22.842496 14.276560 22.842496
860   1 22.842496 14.276560 25.697808
861   1 22.842496 17.131872  0.000000
862   1 22.842496 17.131872  2.855312
863   1 22.842496 17.131872  5.710624
864   1 22.842496 17.131872  8.565936
865   1 22.842496 17.131872 11.421248
866   1 22.842496 17.131872 14.276560
867   1 22.842496 17.131872 17.131872
868   1 22.842496 17.131872 19.987184
869   1 22.842496 17.131872 22.842496
870   1 22.842496 17.131872 25.697808
871   1 22.842496 19.987184  0.000000
872   1 22.842496 19.987184  2.855312
873   1 22.842496 19.987184  5.710624
874   1 22.842496 19.987184  8.565936
875   1 22.842496 19.987184 11.421248
876   1 22.842496 19.987184 14.276560
877   1 22.842496 19.987184 17.131872
878   1 22.842496 19.987184 19.987184
879   1 22.842496 19.987184 22.842496
880   1 22.842496 19.987184 25.697808
881   1 22.842496 22.842496  0.000000
882   1 22.842496 22.842496  2.855312
883   1 22.842496 22.842496  5.710624
884   1 22.842496 22.842496  8.565936
885   1 22.842496 22.842496 11.421248
886   1 22.842496 22.842496 14.276560
887   1 22.842496 22.842496 17.131872
888   1 22.842496 22.842496 19.987184
889   1 22.842496 22.842496 22.842496
890   1 22.842496 22.842496 25.697808
891   1 22.842496 25.697808  0.000000
892   1 22.842496 25.697808  2.855312
893   1 22.842496 25.697808  5.710624
894   1 22.842496 25.697808  8.565936
895   1 22.842496 25.697808 11.421248
896   1 22.842496 25.697808 14.276560
897   1 22.842496 25.697808 17.131872
898   1 22.842496 25.697808 19.987184
899   1 22.842496 25.697808 22.842496
900   1 22.842496 25.697808 25.697808
901   1 25.697808  0.000000  0.000000
902   1 25.697808  0.000000  2.855312
903   1 25.697808  0.000000  5.710624
904   1 25.697808  0.000000  8.565936
905   1 25.697808  0.000000 11.421248
906   1 25.697808  0.000000 14.276560
907   1 25.697808  0.000000 17.131872
908   1 25.697808  0.000000 19.987184
909   1 25.697808  0.000000 22.842496
910   1 25.697808  0.000000 25.697808
911   1 25.697808  2.855312  0.000000
912   1 25.697808  2.855312  2.855312
913   1 25.697808  2.855312  5.710624
914   1 25.697808  2.855312  8.565936
915   1 25.697808  2.855312 11.421248
916   1 25.697808  2.855312 14.276560
917   1 25.697808  2.855312 17.131872
918   1 25.697808  2.855312 19.987184
919   1 25.697808  2.855312 22.842496
920   1 25.697808  2.855312 25.697808
921   1 25.697808  5.710624  0.000000
922   1 25.697808  5.710624  2.855312
923   1 25.697808  5.710624  5.710624
924   1 25.697808  5.710624  8.565936
925   1 25.697808  5.710624 11.421248
926   1 25.697808  5.710624 14.276560
927   1 25.697808  5.710624 17.131872
928   1 25.697808  5.710624 19.987184
929   1 25.697808  5.710624 22.842496
930   1 25.697808  5.710624 25.697808
931   1 25.697808  8.565936  0.000000
932   1 25.697808  8.565936  2.855312
933   1 25.697808  8.565936  5.710624
934   1 25.697808  8.565936  8.565936
935   1 25.697808  8.565936 11.421248
936   1 25.697808  8.565936 14.276560
937   1 25.697808  8.565936 17.131872
938   1 25.697808  8.565936 19.987184
939   1 25.697808  8.565936 22.842496
940   1 25.697808  8.565936 25.697808
941   1 25.697808 11.421248  0.000000
942   1 25.697808 11.421248  2.855312
943   1 25.697808 11.421248  5.710624
944   1 25.697808 11.421248  8.565936
945   1 25.697808 11.421248 11.421248
946   1 25.697808 11.421248 14.276560
947   1 25.697808 11.421248 17.131872
948   1 25.697808 11.421248 19.987184
949   1 25.697808 11.421248 22.842496
950   1 25.697808 11.421248 25.697808
951   1 25.697808 14.276560  0.000000
952   1 25.697808 14.276560  2.855312
953   1 25.697808 14.276560  5.710624
954   1 25.697808 14.276560  8.565936
955   1 25.697808 14.276560 11.421248
956   1 25.697808 14.276560 14.276560
957   1 25.697808 14.276560 17.131872
958   1 25.697808 14.276560 19.987184
959   1 25.697808 14.276560 22.842496
960   1 25.697808 14.276560 25.697808
961   1 25.697808 17.131872  0.000000
962   1 25.697808 17.131872  2.855312
963   1 25.697808 17.131872  5.710624
964   1 25.697808 17.131872  8.565936
965   1 25.697808 17.131872 11.421248
966   1 25.697808 17.131872 14.276560
967   1 25.697808 17.131872 17.131872
968   1 25.697808 17.131872 19.987184
969   1 25.697808 17.131872 22.842496
970   1 25.697808 17.131872 25.697808
971   1 25.697808 19.987184  0.000000
972   1 25.697808 19.987184  2.855312
973   1 25.697808 19.987184  5.710624
974   1 25.697808 19.987184  8.565936
975   1 25.697808 19.987184 11.421248
976   1 25.697808 19.987184 14.276560
977   1 25.697808 19.987184 17.131872
978   1 25.697808 19.987184 19.987184
979   1 25.697808 19.987184 22.842496
980   1 25.697808 19.987184 25.697808
981   1 25.697808 22.842496  0.000000
982   1 25.697808 22.842496  2.855312
983   1 25.697808 22.842496  5.710624
984   1 25.697808 22.842496  8.565936
985   1 25.697808 22.842496 11.421248
986   1 25.697808 22.842496 14.276560
987   1 25.697808 22.842496 17.131872
988   1 25.697808 22.842496 19.987184
989   1 25.697808 22.842496 22.842496
990   1 25.697808 22.842496 25.697808
991   1 25.697808 25.697808  0.000000
992   1 25.697808 25.697808  2.855312
993   1 25.697808 25.697808  5.710624
994   1 25.697808 25.697808  8.565936
995   1 25.697808 25.697808 11.421248
996   1 25.697808 25.697808 14.276560
997   1 25.697808 25.697808 17.131872
998   1 25.697808 25.697808 19.987184
999   1 25.697808 25.697808 22.842496
1000  1 25.697808 25.697808 25.697808
1001  1  1.427656  1.427656  1.427656
1002  1  1.427656  1.427656  4.282968
1003  1  1.427656  1.427656  7.138280
1004  1  1.427656  1.427656  9.993592
1005  1  1.427656  1.427656 12.848904
1006  1  1.427656  1.427656 15.704216
1007  1  1.427656  1.427656 18.559528
1008  1  1.427656  1.427656 21.414840
1009  1  1.427656  1.427656 24.270152
1010  1  1.427656  1.427656 27.125464
1011  1  1.427656  4.282968  1.427656
1012  1  1.427656  4.282968  4.282968
1013  1  1.427656  4.282968  7.138280
1014  1  1.427656  4.282968  9.993592
1015  1  1.427656  4.282968 12.848904
1016  1  1.427656  4.282968 15.704216
1017  1  1.427656  4.282968 18.559528
1018  1  1.427656  4.282968 21.414840
1019  1  1.427656  4.282968 24.270152
1020  1  1.427656  4.282968 27.125464
1021  1  1.427656  7.138280  1.427656
1022  1  1.427656  7.138280  4.282968
1023  1  1.427656  7.138280  7.138280
1024  1  1.427656  7.138280  9.993592
1025  1  1.427656  7.138280 12.848904
1026  1  1.427656  7.138280 15.704216
1027  1  1.427656  7.138280 18.559528
1028  1  1.427656  7.138280 21.414840
1029  1  1.427656  7.138280 24.270152
1030  1  1.427656  7.138280 27.125464
1031  1  1.427656  9.993592  1.427656
1032  1  1.427656  9.993592  4.282968
1033  1  1.427656  9.993592  7.138280
1034  1  1.427656  9.993592  9.993592
1035  1  1.427656  9.993592 12.848904
1036  1  1.427656  9.993592 15.704216
1037  1  1.427656  9.993592 18.559528
1038  1  1.427656  9.993592 21.414840
1039  1  1.427656  9.993592 24.270152
1040  1  1.427656  9.993592 27.125464
1041  1  1.427656 12.848904  1.427656
1042  1  1.427656 12.848904  4.282968
1043  1  1.427656 12.848904  7.138280
1044  1  1.427656 12.848904  9.993592
1045  1  1.427656 12.848904 12.848904
1046  1  1.427656 12.848904 15.704216
1047  1  1.427656 12.848904 18.559528
1048  1  1.427656 12.848904 21.414840
1049  1  1.427656 12.848904 24.270152
1050  1  1.427656 12.848904 27.125464
1051  1  1.427656 15.704216  1.427656
1052  1  1.427656 15.704216  4.282968
1053  1  1.427656 15.704216  7.138280
1054  1  1.427656 15.704216  9.993592
1055  1  1.427656 15.704216 12.848904
1056  1  1.427656 15.704216 15.704216
1057  1  1.427656 15.704216 18.559528
1058  1  1.427656 15.704216 21.414840
1059  1  1.427656 15.704216 24.270152
1060  1  1.427656 15.704216 27.125464
1061  1  1.427656 18.559528  1.427656
1062  1  1.427656 18.559528  4.282968
1063  1  1.427656 18.559528  7.138280
1064  1  1.427656 18.559528  9.993592
1065  1  1.427656 18.559528 12.848904
1066  1  1.427656 18.559528 15.704216
1067  1  1.427656 18.559528 18.559528
1068  1  1.427656 18.559528 21.414840
1069  1  1.427656 18.559528 24.270152
1070  1  1.427656 18.559528 27.125464
1071  1  1.427656 21.414840  1.427656
1072  1  1.427656 21.414840  4.282968
1073  1  1.427656 21.414840  7.138280
1074  1  1.427656 21.414840  9.993592
1075  1  1.427656 21.414840 12.848904
1076  1  1.427656 21.414840 15.704216
1077  1  1.427656 21.414840 18.559528
1078  1  1.427656 21.414840 21.414840
1079  1  1.427656 21.414840 24.270152
1080  1  1.427656 21.414840 27.125464
1081  1  1.427656 24.270152  1.427656
1082  1  1.427656 24.270152  4.282968
1083  1  1.427656 24.270152  7.138280
1084  1  1.427656 24.270152  9.993592
1085  1  1.427656 24.270152 12.848904
1086  1  1.427656 24.270152 15.704216
1087  1  1.427656 24.270152 18.559528
1088  1  1.427656 24.270152 21.414840
1089  1  1.427656 24.270152 24.270152
1090  1  1.427656 24.270152 27.125464
1091  1  1.427656 27.125464  1.427656
1092  1  1.427656 27.125464  4.282968
1093  1  1.427656 27.125464  7.138280
1094  1  1.427656 27.125464  9.993592
1095  1  1.427656 27.125464 12.848904
1096  1  1.427656 27.125464 15.704216
1097  1  1.427656 27.125464 18.559528
1098  1  1.427656 27.125464 21.414840
1099  1  1.427656 27.125464 24.270152
1100  1  1.427656 27.125464 27.125464
1101  1  4.282968  1.427656  1.427656
1102  1  4.282968  1.427656  4.282968
1103  1  4.282968  1.427656  7.138280
1104  1  4.282968  1.427656  9.993592
1105  1  4.282968  1.427656 12.848904
1106  1  4.282968  1.427656 15.704216
1107  1  4.282968  1.427656 18.559528
1108  1  4.282968  1.427656 21.414840
1109  1  4.282968  1.427656 24.270152
1110  1  4.282968  1.427656 27.125464
1111  1  4.282968  4.282968  1.427656
1112  1  4.282968  4.282968  4.282968
1113  1  4.282968  4.282968  7.138280
1114  1  4.282968  4.282968  9.993592
1115  1  4.282968  4.282968 12.848904
1116  1  4.282968  4.282968 15.704216
1117  1  4.282968  4.282968 18.559528
1118  1  4.282968  4.282968 21.414840
1119  1  4.282968  4.282968 24.270152
1120  1  4.282968  4.282968 27.125464
1121  1  4.282968  7.138280  1.427656
1122  1  4.282968  7.138280  4.282968
1123  1  4.282968  7.138280  7.138280
1124  1  4.282968  7.138280  9.993592
1125  1  4.282968  7.138280 12.848904
1126  1  4.282968  7.138280 15.704216
1127  1  4.282968  7.138280 18.559528
1128  1  4.282968  7.138280 21.414840
1129  1  4.282968  7.138280 24.270152
1130  1  4.282968  7.138280 27.125464
1131  1  4.282968  9.993592  1.427656
1132  1  4.282968  9.993592  4.282968
1133  1  4.282968  9.993592  7.138280
1134  1  4.282968  9.993592  9.993592
1135  1  4.282968  9.993592 12.848904
1136  1  4.282968  9.993592 15.704216
1137  1  4.282968  9.993592 18.559528
1138  1  4.282968  9.993592 21.414840
1139  1  4.282968  9.993592 24.270152
1140  1  4.282968  9.993592 27.125464
1141  1  4.282968 12.848904  1.427656
1142  1  4.282968 12.848904  4.282968
1143  1  4.282968 12.848904  7.138280
1144  1  4.282968 12.848904  9.993592
1145  1  4.282968 12.848904 12.848904
1146  1  4.282968 12.848904 15.704216
1147  1  4.282968 12.848904 18.559528
1148  1  4.282968 12.848904 21.414840
1149  1  4.282968 12.848904 24.270152
1150  1  4.282968 12.848904 27.125464
1151  1  4.282968 15.704216  1.427656
1152  1  4.282968 15.704216  4.282968
1153  1  4.282968 15.704216  7.138280
1154  1  4.282968 15.704216  9.993592
1155  1  4.282968 15.704216 12.848904
1156  1  4.282968 15.704216 15.704216
1157  1  4.282968 15.704216 18.559528
1158  1  4.282968 15.704216 21.414840
1159  1  4.282968 15.704216 24.270152
1160  1  4.282968 15.704216 27.125464
1161  1  4.282968 18.559528  1.427656
1162  1  4.282968 18.559528  4.282968
1163  1  4.282968 18.559528  7.138280
1164  1  4.282968 18.559528  9.993592
1165  1  4.282968 18.559528 12.848904
1166  1  4.282968 18.559528 15.704216
1167  1  4.282968 18.559528 18.559528
1168  1  4.282968 18.559528 21.414840
1169  1  4.282968 18.559528 24.270152
1170  1  4.282968 18.559528 27.125464
1171  1  4.282968 21.414840  1.427656
1172  1  4.282968 21.414840  4.282968
1173  1  4.282968 21.414840  7.138280
1174  1  4.282968 21.414840  9.993592
1175  1  4.282968 21.414840 12.848904
1176  1  4.282968 21.414840 15.704216
1177  1  4.282968 21.414840 18.559528
1178  1  4.282968 21.414840 21.414840
1179  1  4.282968 21.414840 24.270152
1180  1  4.282968 21.414840 27.125464
1181  1  4.282968 24.270152  1.427656
1182  1  4.282968 24.270152  4.282968
1183  1  4.282968 24.270152  7.138280
1184  1  4.282968 24.270152  9.993592
1185  1  4.282968 24.270152 12.848904
1186  1  4.282968 24.270152 15.704216
1187  1  4.282968 24.270152 18.559528
1188  1  4.282968 24.270152 21.414840
1189  1  4.282968 24.270152 24.270152
1190  1  4.282968 24.270152 27.125464
1191  1  4.282968 27.125464  1.427656
1192  1  4.282968 27.125464  4.282968
1193  1  4.282968 27.125464  7.138280
1194  1  4.282968 27.125464  9.993592
1195  1  4.282968 27.125464 12.848904
1196  1  4.282968 27.125464 15.704216
1197  1  4.282968 27.125464 18.559528
1198  1  4.282968 27.125464 21.414840
1199  1  4.282968 27.125464 24.270152
1200  1  4.282968 27.125464 27.125464
1201  1  7.138280  1.427656  1.427656
1202  1  7.138280  1.427656  4.282968
1203  1  7.138280  1.427656  7.138280
1204  1  7.138280  1.427656  9.993592
1205  1  7.138280  1.427656 12.848904
1206  1  7.138280  1.427656 15.704216
1207  1  7.138280  1.427656 18.559528
1208  1  7.138280  1.427656 21.414840
1209  1  7.138280  1.427656 24.270152
1210  1  7.138280  1.427656 27.125464
1211  1  7.138280  4.282968  1.427656
1212  1  7.138280  4.282968  4.282968
1213  1  7.138280  4.282968  7.138280
1214  1  7.138280  4.282968  9.993592
1215  1  7.138280  4.282968 12.848904
1216  1  7.138280  4.282968 15.704216
1217  1  7.138280  4.282968 18.559528
1218  1  7.138280  4.282968 21.414840
1219  1  7.138280  4.282968 24.270152
1220  1  7.138280  4.282968 27.125464
1221  1  7.138280  7.138280  1.427656
1222  1  7.138280  7.138280  4.282968
1223  1  7.138280  7.138280  7.138280
1224  1  7.138280  7.138280  9.993592
1225  1  7.138280  7.138280 12.848904
1226  1  7.138280  7.138280 15.704216
1227  1  7.138280  7.138280 18.559528
1228  1  7.138280  7.138280 21.414840
1229  1  7.138280  7.138280 24.270152
1230  1  7.138280  7.138280 27.125464
1231  1  7.138280  9.993592  1.427656
1232  1  7.138280  9.993592  4.282968
1233  1  7.138280  9.993592  7.138280
1234  1  7.138280  9.993592  9.993592
1235  1  7.138280  9.993592 12.848904
1236  1  7.138280  9.993592 15.704216
1237  1  7.138280  9.993592 18.559528
1238  1  7.138280  9.993592 21.414840
1239  1  7.138280  9.993592 24.270152
1240  1  7.138280  9.993592 27.125464
1241  1  7.138280 12.848904  1.427656
1242  1  7.138280 12.848904  4.282968
1243  1  7.138280 12.848904  7.138280
1244  1  7.138280 12.848904  9.993592
1245  1  7.138280 12.848904 12.848904
1246  1  7.138280 12.848904 15.704216
1247  1  7.138280 12.848904 18.559528
1248  1  7.138280 12.848904 21.414840
1249  1  7.138280 12.848904 24.270152
1250  1  7.138280 12.848904 27.125464
1251  1  7.138280 15.704216  1.427656
1252  1  7.138280 15.704216  4.282968
1253  1  7.138280 15.704216  7.138280
1254  1  7.138280 15.704216  9.993592
1255  1  7.138280 15.704216 12.848904
1256  1  7.138280 15.704216 15.704216
1257  1  7.138280 15.704216 18.559528
1258  1  7.138280 15.704216 21.414840
1259  1  7.138280 15.704216 24.270152
1260  1  7.138280 15.704216 27.125464
1261  1  7.138280 18.559528  1.427656
1262  1  7.138280 18.559528  4.282968
1263  1  7.138280 18.559528  7.138280
1264  1  7.138280 18.559528  9.993592
1265  1  7.138280 18.559528 12.848904
1266  1  7.138280 18.559528 15.704216
1267  1  7.138280 18.559528 18.559528
1268  1  7.138280 18.559528 21.414840
1269  1  7.138280 18.559528 24.270152
1270  1  7.138280 18.559528 27.125464
1271  1  7.138280 21.414840  1.427656
1272  1  7.138280 21.414840  4.282968
1273  1  7.138280 21.414840  7.138280
1274  1  7.138280 21.414840  9.993592
1275  1  7.138280 21.414840 12.848904
1276  1  7.138280 21.414840 15.704216
1277  1  7.138280 21.414840 18.559528
1278  1  7.138280 21.414840 21.414840
1279  1  7.138280 21.414840 24.270152
1280  1  7.138280 21.414840 27.125464
1281  1  7.138280 24.270152  1.427656
1282  1  7.138280 24.270152  4.282968
1283  1  7.138280 24.270152  7.138280
1284  1  7.138280 24.270152  9.993592
1285  1  7.138280 24.270152 12.848904
1286  1  7.138280 24.270152 15.704216
1287  1  7.138280 24.270152 18.559528
1288  1  7.138280 24.270152 21.414840
1289  1  7.138280 24.270152 24.270152
1290  1  7.138280 24.270152 27.125464
1291  1  7.138280 27.125464  1.427656
1292  1  7.138280 27.125464  4.282968
1293  1  7.138280 27.125464  7.138280
1294  1  7.138280 27.125464  9.993592
1295  1  7.138280 27.125464 12.848904
1296  1  7.138280 27.125464 15.704216
1297  1  7.138280 27.125464 18.559528
1298  1  7.138280 27.125464 21.414840
1299  1  7.138280 27.125464 24.270152
1300  1  7.138280 27.125464 27.125464
1301  1  9.993592  1.427656  1.427656
1302  1  9.993592  1.427656  4.282968
1303  1  9.993592  1.427656  7.138280
1304  1  9.993592  1.427656  9.993592
1305  1  9.993592  1.427656 12.848904
1306  1  9.993592  1.427656 15.704216
1307  1  9.993592  1.427656 18.559528
1308  1  9.993592  1.427656 21.414840
1309  1  9.993592  1.427656 24.270152
1310  1  9.993592  1.427656 27.125464
1311  1  9.993592  4.282968  1.427656
1312  1  9.993592  4.282968  4.282968
1313  1  9.993592  4.282968  7.138280
1314  1  9.993592  4.282968  9.993592
1315  1  9.993592  4.282968 12.848904
1316  1  9.993592  4.282968 15.704216
1317  1  9.993592  4.282968 18.559528
1318  1  9.993592  4.282968 21.414840
1319  1  9.993592  4.282968 24.270152
1320  1  9.993592  4.282968 27.125464
1321  1  9.993592  7.138280  1.427656
1322  1  9.993592  7.138280  4.282968
1323  1  9.993592  7.138280  7.138280
1324  1  9.993592  7.138280  9.993592
1325  1  9.993592  7.138280 12.848904
1326  1  9.993592  7.138280 15.704216
1327  1  9.993592  7.138280 18.559528
1328  1  9.993592  7.138280 21.414840
1329  1  9.993592  7.138280 24.270152
1330  1  9.993592  7.138280 27.125464
1331  1  9.993592  9.993592  1.427656
1332  1  9.993592  9.993592  4.282968
1333  1  9.993592  9.993592  7.138280
1334  1  9.993592  9.993592  9.993592
1335  1  9.993592  9.993592 12.848904
1336  1  9.993592  9.993592 15.704216
1337  1  9.993592  9.993592 18.559528
1338  1  9.993592  9.993592 21.414840
1339  1  9.993592  9.993592 24.270152
1340  1  9.993592  9.993592 27.125464
1341  1  9.993592 12.848904  1.427656
1342  1  9.993592 12.848904  4.282968
1343  1  9.993592 12.848904  7.138280
1344  1  9.993592 12.848904  9.993592
1345  1  9.993592 12.848904 12.848904
1346  1  9.993592 12.848904 15.704216
1347  1  9.993592 12.848904 18.559528
1348  1  9.993592 12.848904 21.414840
1349  1  9.993592 12.848904 24.270152
1350  1  9.993592 12.848904 27.125464
1351  1  9.993592 15.704216  1.427656
1352  1  9.993592 15.704216  4.282968
1353  1  9.993592 15.704216  7.138280
1354  1  9.993592 15.704216  9.993592
1355  1  9.993592 15.704216 12.848904
1356  1  9.993592 15.704216 15.704216
1357  1  9.993592 15.704216 18.559528
1358  1  9.993592 15.704216 21.414840
1359  1  9.993592 15.704216 24.270152
1360  1  9.993592 15.704216 27.125464
1361  1  9.993592 18.559528  1.427656
1362  1  9.993592 18.559528  4.282968
1363  1  9.993592 18.559528  7.138280
1364  1  9.993592 18.559528  9.993592
1365  1  9.993592 18.559528 12.848904
1366  1  9.993592 18.559528 15.704216
1367  1  9.993592 18.559528 18.559528
1368  1  9.993592 18.559528 21.414840
1369  1  9.993592 18.559528 24.270152
1370  1  9.993592 18.559528 27.125464
1371  1  9.993592 21.414840  1.427656
1372  1  9.993592 21.414840  4.282968
1373  1  9.993592 21.414840  7.138280
1374  1  9.993592 21.414840  9.993592
1375  1  9.993592 21.414840 12.848904
1376  1  9.993592 21.414840 15.704216
1377  1  9.993592 21.414840 18.559528
1378  1  9.993592 21.414840 21.414840
1379  1  9.993592 21.414840 24.270152
1380  1  9.993592 21.414840 27.125464
1381  1  9.993592 24.270152  1.427656
1382  1  9.993592 24.270152  4.282968
1383  1  9.993592 24.270152  7.138280
1384  1  9.993592 24.270152  9.993592
1385  1  9.993592 24.270152 12.848904
1386  1  9.993592 24.270152 15.704216
1387  1  9.993592 24.270152 18.559528
1388  1  9.993592 24.270152 21.414840
1389  1  9.993592 24.270152 24.270152
1390  1  9.993592 24.270152 27.125464
1391  1  9.993592 27.125464  1.427656
1392  1  9.993592 27.125464  4.282968
1393  1  9.993592 27.125464  7.138280
1394  1  9.993592 27.125464  9.993592
1395  1  9.993592 27.125464 12.848904
1396  1  9.993592 27.125464 15.704216
1397  1  9.993592 27.125464 18.559528
1398  1  9.993592 27.125464 21.414840
1399  1  9.993592 27.125464 24.270152
1400  1  9.993592 27.125464 27.125464
1401  1 12.848904  1.427656  1.427656
1402  1 12.848904  1.427656  4.282968
1403  1 12.848904  1.427656  7.138280
1404  1 12.848904  1.427656  9.993592
1405  1 12.848904  1.427656 12.848904
1406  1 12.848904  1.427656 15.704216
1407  1 12.848904  1.427656 18.559528
1408  1 12.848904  1.427656 21.414840
1409  1 12.848904  1.427656 24.270152
1410  1 12.848904  1.427656 27.125464
1411  1 12.848904  4.282968  1.427656
1412  1 12.848904  4.282968  4.282968
1413  1 12.848904  4.282968  7.138280
1414  1 12.848904  4.282968  9.993592
1415  1 12.848904  4.282968 12.848904
1416  1 12.848904  4.282968 15.704216
1417  1 12.848904  4.282968 18.559528
1418  1 12.848904  4.282968 21.414840
1419  1 12.848904  4.282968 24.270152
1420  1 12.848904  4.282968 27.125464
1421  1 12.848904  7.138280  1.427656
1422  1 12.848904  7.138280  4.282968
1423  1 12.848904  7.138280  7.138280
1424  1 12.848904  7.138280  9.993592
1425  1 12.848904  7.138280 12.848904
1426  1 12.848904  7.138280 15.704216
1427  1 12.848904  7.138280 18.559528
1428  1 12.848904  7.138280 21.414840
1429  1 12.848904  7.138280 24.270152
1430  1 12.848904  7.138280 27.125464
1431  1 12.848904  9.993592  1.427656
1432  1 12.848904  9.993592  4.282968
1433  1 12.848904  9.993592  7.138280
1434  1 12.848904  9.993592  9.993592
1435  1 12.848904  9.993592 12.848904
1436  1 12.848904  9.993592 15.704216
1437  1 12.848904  9.993592 18.559528
1438  1 12.848904  9.993592 21.414840
1439  1 12.848904  9.993592 24.270152
1440  1 12.848904  9.993592 27.125464
1441  1 12.848904 12.848904  1.427656
1442  1 12.848904 12.848904  4.282968
1443  1 12.848904 12.848904  7.138280
1444  1 12.848904 12.848904  9.993592
1445  1 12.848904 12.848904 12.848904
1446  1 12.848904 12.848904 15.704216
1447  1 12.848904 12.848904 18.559528
1448  1 12.848904 12.848904 21.414840
1449  1 12.848904 12.848904 24.270152
1450  1 12.848904 12.848904 27.125464
1451  1 12.848904 15.704216  1.427656
1452  1 12.848904 15.704216  4.282968
1453  1 12.848904 15.704216  7.138280
1454  1 12.848904 15.704216  9.993592
1455  1 12.848904 15.704216 12.848904
1456  1 12.848904 15.704216 15.704216
1457  1 12.848904 15.704216 18.559528
1458  1 12.848904 15.704216 21.414840
1459  1 12.848904 15.704216 24.270152
1460  1 12.848904 15.704216 27.125464
1461  1 12.848904 18.559528  1.427656
1462  1 12.848904 18.559528  4.282968
1463  1 12.848904 18.559528  7.138280
1464  1 12.848904 18.559528  9.993592
1465  1 12.848904 18.559528 12.848904
1466  1 12.848904 18.559528 15.704216
1467  1 12.848904 18.559528 18.559528
1468  1 12.848904 18.559528 21.414840
1469  1 12.848904 18.559528 24.270152
1470  1 12.848904 18.559528 27.125464
1471  1 12.848904 21.414840  1.427656
1472  1 12.848904 21.414840  4.282968
1473  1 12.848904 21.414840  7.138280
1474  1 12.848904 21.414840  9.993592
1475  1 12.848904 21.414840 12.848904
1476  1 12.848904 21.414840 15.704216
1477  1 12.848904 21.414840 18.559528
1478  1 12.848904 21.414840 21.414840
1479  1 12.848904 21.414840 24.270152
1480  1 12.848904 21.414840 27.125464
1481  1 12.848904 24.270152  1.427656
1482  1 12.848904 24.270152  4.282968
1483  1 12.848904 24.270152  7.138280
1484  1 12.848904 24.270152  9.993592
1485  1 12.848904 24.270152 12.848904
1486  1 12.848904 24.270152 15.704216
1487  1 12.848904 24.270152 18.559528
1488  1 12.848904 24.270152 21.414840
1489  1 12.848904 24.270152 24.270152
1490  1 12.848904 24.270152 27.125464
1491  1 12.848904 27.125464  1.427656
1492  1 12.848904 27.125464  4.282968
1493  1 12.848904 27.125464  7.138280
1494  1 12.848904 27.125464  9.993592
1495  1 12.848904 27.125464 12.848904
1496  1 12.848904 27.125464 15.704216
1497  1 12.848904 27.125464 18.559528
1498  1 12.848904 27.125464 21.414840
1499  1 12.848904 27.125464 24.270152
1500  1 12.848904 27.125464 27.125464
1501  1 15.704216  1.427656  1.427656
1502  1 15.704216  1.427656  4.282968
1503  1 15.704216  1.427656  7.138280
1504  1 15.704216  1.427656  9.993592
1505  1 15.704216  1.427656 12.848904
1506  1 15.704216  1.427656 15.704216
1507  1 15.704216  1.427656 18.559528
1508  1 15.704216  1.427656 21.414840
1509  1 15.704216  1.427656 24.270152
1510  1 15.704216  1.427656 27.125464
1511  1 15.704216  4.282968  1.427656
1512  1 15.704216  4.282968  4.282968
1513  1 15.704216  4.282968  7.138280
1514  1 15.704216  4.282968  9.993592
1515  1 15.704216  4.282968 12.848904
1516  1 15.704216  4.282968 15.704216
1517  1 15.704216  4.282968 18.559528
1518  1 15.704216  4.282968 21.414840
1519  1 15.704216  4.282968 24.270152
1520  1 15.704216  4.282968 27.125464
1521  1 15.704216  7.138280  1.427656
1522  1 15.704216  7.138280  4.282968
1523  1 15.704216  7.138280  7.138280
1524  1 15.704216  7.138280  9.993592
1525  1 15.704216  7.138280 12.848904
1526  1 15.704216  7.138280 15.704216
1527  1 15.704216  7.138280 18.559528
1528  1 15.704216  7.138280 21.414840
1529  1 15.704216  7.138280 24.270152
1530  1 15.704216  7.138280 27.125464
1531  1 15.704216  9.993592  1.427656
1532  1 15.704216  9.993592  4.282968
1533  1 15.704216  9.993592  7.138280
1534  1 15.704216  9.993592  9.993592
1535  1 15.704216  9.993592 12.848904
1536  1 15.704216  9.993592 15.704216
1537  1 15.704216  9.993592 18.559528
1538  1 15.704216  9.993592 21.414840
1539  1 15.704216  9.993592 24.270152
1540  1 15.704216  9.993592 27.125464
1541  1 15.704216 12.848904  1.427656
1542  1 15.704216 12.848904  4.282968
1543  1 15.704216 12.848904  7.138280
1544  1 15.704216 12.848904  9.993592
1545  1 15.704216 12.848904 12.848904
1546  1 15.704216 12.848904 15.704216
1547  1 15.704216 12.848904 18.559528
1548  1 15.704216 12.848904 21.414840
1549  1 15.704216 12.848904 24.270152
1550  1 15.704216 12.848904 27.125464
1551  1 15.704216 15.704216  1.427656
1552  1 15.704216 15.704216  4.282968
1553  1 15.704216 15.704216  7.138280
1554  1 15.704216 15.704216  9.993592
1555  1 15.704216 15.704216 12.848904
1556  1 15.704216 15.704216 15.704216
1557  1 15.704216 15.704216 18.559528
1558  1 15.704216 15.704216 21.414840
1559  1 15.704216 15.704216 24.270152
1560  1 15.704216 15.704216 27.125464
1561  1 15.704216 18.559528  1.427656
1562  1 15.704216 18.559528  4.282968
1563  1 15.704216 18.559528  7.138280
1564  1 15.704216 18.559528  9.993592
1565  1 15.704216 18.559528 12.848904
1566  1 15.704216 18.559528 15.704216
1567  1 15.704216 18.559528 18.559528
1568  1 15.704216 18.559528 21.414840
1569  1 15.704216 18.559528 24.270152
1570  1 15.704216 18.559528 27.125464
1571  1 15.704216 21.414840  1.427656
1572  1 15.704216 21.414840  4.282968
1573  1 15.704216 21.414840  7.138280
1574  1 15.704216 21.414840  9.993592
1575  1 15.704216 21.414840 12.848904
1576  1 15.704216 21.414840 15.704216
1577  1 15.704216 21.414840 18.559528
1578  1 15.704216 21.414840 21.414840
1579  1 15.704216 21.414840 24.270152
1580  1 15.704216 21.414840 27.125464
1581  1 15.704216 24.270152  1.427656
1582  1 15.704216 24.270152  4.282968
1583  1 15.704216 24.270152  7.138280
1584  1 15.704216 24.270152  9.993592
1585  1 15.704216 24.270152 12.848904
1586  1 15.704216 24.270152 15.704216
1587  1 15.704216 24.270152 18.559528
1588  1 15.704216 24.270152 21.414840
1589  1 15.704216 24.270152 24.270152
1590  1 15.704216 24.270152 27.125464
1591  1 15.704216 27.125464  1.427656
1592  1 15.704216 27.125464  4.282968
1593  1 15.704216 27.125464  7.138280
1594  1 15.704216 27.125464  9.993592
1595  1 15.704216 27.125464 12.848904
1596  1 15.704216 27.125464 15.704216
1597  1 15.704216 27.125464 18.559528
1598  1 15.704216 27.125464 21.414840
1599  1 15.704216 27.125464 24.270152
1600  1 15.704216 27.125464 27.125464
1601  1 18.559528  1.427656  1.427656
1602  1 18.559528  1.427656  4.282968
1603  1 18.559528  1.427656  7.138280
1604  1 18.559528  1.427656  9.993592
1605  1 18.559528  1.427656 12.848904
1606  1 18.559528  1.427656 15.704216
1607  1 18.559528  1.427656 18.559528
1608  1 18.559528  1.427656 21.414840
1609  1 18.559528  1.427656 24.270152
1610  1 18.559528  1.427656 27.125464
1611  1 18.559528  4.282968  1.427656
1612  1 18.559528  4.282968  4.282968
1613  1 18.559528  4.282968  7.138280
1614  1 18.559528  4.282968  9.993592
1615  1 18.559528  4.282968 12.848904
1616  1 18.559528  4.282968 15.704216
1617  1 18.559528  4.282968 18.559528
1618  1 18.559528  4.282968 21.414840
1619  1 18.559528  4.282968 24.270152
1620  1 18.559528  4.282968 27.125464
1621  1 18.559528  7.138280  1.427656
1622  1 18.559528  7.138280  4.282968
1623  1 18.559528  7.138280  7.138280
1624  1 18.559528  7.138280  9.993592
1625  1 18.559528  7.138280 12.848904
1626  1 18.559528  7.138280 15.704216
1627  1 18.559528  7.138280 18.559528
1628  1 18.559528  7.138280 21.414840
1629  1 18.559528  7.138280 24.270152
1630  1 18.559528  7.138280 27.125464
1631  1 18.559528  9.993592  1.427656
1632  1 18.559528  9.993592  4.282968
1633  1 18.559528  9.993592  7.138280
1634  1 18.559528  9.993592  9.993592
1635  1 18.559528  9.993592 12.848904
1636  1 18.559528  9.993592 15.704216
1637  1 18.559528  9.993592 18.559528
1638  1 18.559528  9.993592 21.414840
1639  1 18.559528  9.993592 24.270152
1640  1 18.559528  9.993592 27.125464
1641  1 18.559528 12.848904  1.427656
1642  1 18.559528 12.848904  4.282968
1643  1 18.559528 12.848904  7.138280
1644  1 18.559528 12.848904  9.993592
1645  1 18.559528 12.848904 12.848904
1646  1 18.559528 12.848904 15.704216
1647  1 18.559528 12.848904 18.559528
1648  1 18.559528 12.848904 21.414840
1649  1 18.559528 12.848904 24.270152
1650  1 18.559528 12.848904 27.125464
1651  1 18.559528 15.704216  1.427656
1652  1 18.559528 15.704216  4.282968
1653  1 18.559528 15.704216  7.138280
1654  1 18.559528 15.704216  9.993592
1655  1 18.559528 15.704216 12.848904
1656  1 18.559528 15.704216 15.704216
1657  1 18.559528 15.704216 18.559528
1658  1 18.559528 15.704216 21.414840
1659  1 18.559528 15.704216 24.270152
1660  1 18.559528 15.704216 27.125464
1661  1 18.559528 18.559528  1.427656
1662  1 18.559528 18.559528  4.282968
1663  1 18.559528 18.559528  7.138280
1664  1 18.559528 18.559528  9.993592
1665  1 18.559528 18.559528 12.848904
1666  1 18.559528 18.559528 15.704216
1667  1 18.559528 18.559528 18.559528
1668  1 18.559528 18.559528 21.414840
1669  1 18.559528 18.559528 24.270152
1670  1 18.559528 18.559528 27.125464
1671  1 18.559528 21.414840  1.427656
1672  1 18.559528 21.414840  4.282968
1673  1 18.559528 21.414840  7.138280
1674  1 18.559528 21.414840  9.993592
1675  1 18.559528 21.414840 12.848904
1676  1 18.559528 21.414840 15.704216
1677  1 18.559528 21.414840 18.559528
1678  1 18.559528 21.414840 21.414840
1679  1 18.559528 21.414840 24.270152
1680  1 18.559528 21.414840 27.125464
1681  1 18.559528 24.270152  1.427656
1682  1 18.559528 24.270152  4.282968
1683  1 18.559528 24.270152  7.138280
1684  1 18.559528 24.270152  9.993592
1685  1 18.559528 24.270152 12.848904
1686  1 18.559528 24.270152 15.704216
1687  1 18.559528 24.270152 18.559528
1688  1 18.559528 24.270152 21.414840
1689  1 18.559528 24.270152 24.270152
1690  1 18.559528 24.270152 27.125464
1691  1 18.559528 27.125464  1.427656
1692  1 18.559528 27.125464  4.282968
1693  1 18.559528 27.125464  7.138280
1694  1 18.559528 27.125464  9.993592
1695  1 18.559528 27.125464 12.848904
1696  1 18.559528 27.125464 15.704216
1697  1 18.559528 27.125464 18.559528
1698  1 18.559528 27.125464 21.414840
1699  1 18.559528 27.125464 24.270152
1700  1 18.559528 27.125464 27.125464
1701  1 21.414840  1.427656  1.427656
1702  1 21.414840  1.427656  4.282968
1703  1 21.414840  1.427656  7.138280
1704  1 21.414840  1.427656  9.993592
1705  1 21.414840  1.427656 12.848904
1706  1 21.414840  1.427656 15.704216
1707  1 21.414840  1.427656 18.559528
1708  1 21.414840  1.427656 21.414840
1709  1 21.414840  1.427656 24.270152
1710  1 21.414840  1.427656 27.125464
1711  1 21.414840  4.282968  1.427656
1712  1 21.414840  4.282968  4.282968
1713  1 21.414840  4.282968  7.138280
1714  1 21.414840  4.282968  9.993592
1715  1 21.414840  4.282968 12.848904
1716  1 21.414840  4.282968 15.704216
1717  1 21.414840  4.282968 18.559528
1718  1 21.414840  4.282968 21.414840
1719  1 21.414840  4.282968 24.270152
1720  1 21.414840  4.282968 27.125464
1721  1 21.414840  7.138280  1.427656
1722  1 21.414840  7.138280  4.282968
1723  1 21.414840  7.138280  7.138280
1724  1 21.414840  7.138280  9.993592
1725  1 21.414840  7.138280 12.848904
1726  1 21.414840  7.138280 15.704216
1727  1 21.414840  7.138280 18.559528
1728  1 21.414840  7.138280 21.414840
1729  1 21.414840  7.138280 24.270152
1730  1 21.414840  7.138280 27.125464
1731  1 21.414840  9.993592  1.427656
1732  1 21.414840  9.993592  4.282968
1733  1 21.414840  9.993592  7.138280
1734  1 21.414840  9.993592  9.993592
1735  1 21.414840  9.993592 12.848904
1736  1 21.414840  9.993592 15.704216
1737  1 21.414840  9.993592 18.559528
1738  1 21.414840  9.993592 21.414840
1739  1 21.414840  9.993592 24.270152
1740  1 21.414840  9.993592 27.125464
1741  1 21.414840 12.848904  1.427656
1742  1 21.414840 12.848904  4.282968
1743  1 21.414840 12.848904  7.138280
1744  1 21.414840 12.848904  9.993592
1745  1 21.414840 12.848904 12.848904
1746  1 21.414840 12.848904 15.704216
1747  1 21.414840 12.848904 18.559528
1748  1 21.414840 12.848904 21.414840
1749  1 21.414840 12.848904 24.270152
1750  1 21.414840 12.848904 27.125464
1751  1 21.414840 15.704216  1.427656
1752  1 21.414840 15.704216  4.282968
1753  1 21.414840 15.704216  7.138280
1754  1 21.414840 15.704216  9.993592
1755  1 21.414840 15.704216 12.848904
1756  1 21.414840 15.704216 15.704216
1757  1 21.414840 15.704216 18.559528
1758  1 21.414840 15.704216 21.414840
1759  1 21.414840 15.704216 24.270152
1760  1 21.414840 15.704216 27.125464
1761  1 21.414840 18.559528  1.427656
1762  1 21.414840 18.559528  4.282968
1763  1 21.414840 18.559528  7.138280
1764  1 21.414840 18.559528  9.993592
1765  1 21.414840 18.559528 12.848904
1766  1 21.414840 18.559528 15.704216
1767  1 21.414840 18.559528 18.559528
1768  1 21.414840 18.559528 21.414840
1769  1 21.414840 18.559528 24.270152
1770  1 21.414840 18.559528 27.125464
1771  1 21.414840 21.414840  1.427656
1772  1 21.414840 21.414840  4.282968
1773  1 21.414840 21.414840  7.138280
1774  1 21.414840 21.414840  9.993592
1775  1 21.414840 21.414840 12.848904
1776  1 21.414840 21.414840 15.704216
1777  1 21.414840 21.414840 18.559528
1778  1 21.414840 21.414840 21.414840
1779  1 21.414840 21.414840 24.270152
1780  1 21.414840 21.414840 27.125464
1781  1 21.414840 24.270152  1.427656
1782  1 21.414840 24.270152  4.282968
1783  1 21.414840 24.270152  7.138280
1784  1 21.414840 24.270152  9.993592
1785  1 21.414840 24.270152 12.848904
1786  1 21.414840 24.270152 15.704216
1787  1 21.414840 24.270152 18.559528
1788  1 21.414840 24.270152 21.414840
1789  1 21.414840 24.270152 24.270152
1790  1 21.414840 24.270152 27.125464
1791  1 21.414840 27.125464  1.427656
1792  1 21.414840 27.125464  4.282968
1793  1 21.414840 27.125464  7.138280
1794  1 21.414840 27.125464  9.993592
1795  1 21.414840 27.125464 12.848904
1796  1 21.414840 27.125464 15.704216
1797  1 21.414840 27.125464 18.559528
1798  1 21.414840 27.125464 21.414840
1799  1 21.414840 27.125464 24.270152
1800  1 21.414840 27.125464 27.125464
1801  1 24.270152  1.427656  1.427656
1802  1 24.270152  1.427656  4.282968
1803  1 24.270152  1.427656  7.138280
1804  1 24.270152  1.427656  9.993592
1805  1 24.270152  1.427656 12.848904
1806  1 24.270152  1.427656 15.704216
1807  1 24.270152  1.427656 18.559528
1808  1 24.270152  1.427656 21.414840
1809  1 24.270152  1.427656 24.270152
1810  1 24.270152  1.427656 27.125464
1811  1 24.270152  4.282968  1.427656
1812  1 24.270152  4.282968  4.282968
1813  1 24.270152  4.282968  7.138280
1814  1 24.270152  4.282968  9.993592
1815  1 24.270152  4.282968 12.848904
1816  1 24.270152  4.282968 15.704216
1817  1 24.270152  4.282968 18.559528
1818  1 24.270152  4.282968 21.414840
1819  1 24.270152  4.282968 24.270152
1820  1 24.270152  4.282968 27.125464
1821  1 24.270152  7.138280  1.427656
1822  1 24.270152  7.138280  4.282968
1823  1 24.270152  7.138280  7.138280
1824  1 24.270152  7.138280  9.993592
1825  1 24.270152  7.138280 12.848904
1826  1 24.270152  7.138280 15.704216
1827  1 24.270152  7.138280 18.559528
1828  1 24.270152  7.138280 21.414840
1829  1 24.270152  7.138280 24.270152
1830  1 24.270152  7.138280 27.125464
1831  1 24.270152  9.993592  1.427656
1832  1 24.270152  9.993592  4.282968
1833  1 24.270152  9.993592  7.138280
1834  1 24.270152  9.993592  9.993592
1835  1 24.270152  9.993592 12.848904
1836  1 24.270152  9.993592 15.704216
1837  1 24.270152  9.993592 18.559528
1838  1 24.270152  9.993592 21.414840
1839  1 24.270152  9.993592 24.270152
1840  1 24.270152  9.993592 27.125464
1841  1 24.270152 12.848904  1.427656
1842  1 24.270152 12.848904  4.282968
1843  1 24.270152 12.848904  7.138280
1844  1 24.270152 12.848904  9.993592
1845  1 24.270152 12.848904 12.848904
1846  1 24.270152 12.848904 15.704216
1847  1 24.270152 12.848904 18.559528
1848  1 24.270152 12.848904 21.414840
1849  1 24.270152 12.848904 24.270152
1850  1 24.270152 12.848904 27.125464
1851  1 24.270152 15.704216  1.427656
1852  1 24.270152 15.704216  4.282968
1853  1 24.270152 15.704216  7.138280
1854  1 24.270152 15.704216  9.993592
1855  1 24.270152 15.704216 12.848904
1856  1 24.270152 15.704216 15.704216
1857  1 24.270152 15.704216 18.559528
1858  1 24.270152 15.704216 21.414840
1859  1 24.270152 15.704216 24.270152
1860  1 24.270152 15.704216 27.125464
1861  1 24.270152 18.559528  1.427656
1862  1 24.270152 18.559528  4.282968
1863  1 24.270152 18.559528  7.138280
1864  1 24.270152 18.559528  9.993592
1865  1 24.270152 18.559528 12.848904
1866  1 24.270152 18.559528 15.704216
1867  1 24.270152 18.559528 18.559528
1868  1 24.270152 18.559528 21.414840
1869  1 24.270152 18.559528 24.270152
1870  1 24.270152 18.559528 27.125464
1871  1 24.270152 21.414840  1.427656
1872  1 24.270152 21.414840  4.282968
1873  1 24.270152 21.414840  7.138280
1874  1 24.270152 21.414840  9.993592
1875  1 24.270152 21.414840 12.848904
1876  1 24.270152 21.414840 15.704216
1877  1 24.270152 21.414840 18.559528
1878  1 24.270152 21.414840 21.414840
1879  1 24.270152 21.414840 24.270152
1880  1 24.270152 21.414840 27.125464
1881  1 24.270152 24.270152  1.427656
1882  1 24.270152 24.270152  4.282968
1883  1 24.270152 24.270152  7.138280
1884  1 24.270152 24.270152  9.993592
1885  1 24.270152 24.270152 12.848904
1886  1 24.270152 24.270152 15.704216
1887  1 24.270152 24.270152 18.559528
1888  1 24.270152 24.270152 21.414840
1889  1 24.270152 24.270152 24.270152
1890  1 24.270152 24.270152 27.125464
1891  1 24.270152 27.125464  1.427656
1892  1 24.270152 27.125464  4.282968
1893  1 24.270152 27.125464  7.138280
1894  1 24.270152 27.125464  9.993592
1895  1 24.270152 27.125464 12.848904
1896  1 24.270152 27.125464 15.704216
1897  1 24.270152 27.125464 18.559528
1898  1 24.270152 27.125464 21.414840
1899  1 24.270152 27.125464 24.270152
1900  1 24.270152 27.125464 27.125464
1901  1 27.125464  1.427656  1.427656
1902  1 27.125464  1.427656  4.282968
1903  1 27.125464  1.427656  7.138280
1904  1 27.125464  1.427656  9.993592
1905  1 27.125464  1.427656 12.848904
1906  1 27.125464  1.427656 15.704216
1907  1 27.125464  1.427656 18.559528
1908  1 27.125464  1.427656 21.414840
1909  1 27.125464  1.427656 24.270152
1910  1 27.125464  1.427656 27.125464
1911  1 27.125464  4.282968  1.427656
1912  1 27.125464  4.282968  4.282968
1913  1 27.125464  4.282968  7.138280
1914  1 27.125464  4.282968  9.993592
1915  1 27.125464  4.282968 12.848904
1916  1 27.125464  4.282968 15.704216
1917  1 27.125464  4.282968 18.559528
1918  1 27.125464  4.282968 21.414840
1919  1 27.125464  4.282968 24.270152
1920  1 27.125464  4.282968 27.125464
1921  1 27.125464  7.138280  1.427656
1922  1 27.125464  7.138280  4.282968
1923  1 27.125464  7.138280  7.138280
1924  1 27.125464  7.138280  9.993592
1925  1 27.125464  7.138280 12.848904
1926  1 27.125464  7.138280 15.704216
1927  1 27.125464  7.138280 18.559528
1928  1 27.125464  7.138280 21.414840
1929  1 27.125464  7.138280 24.270152
1930  1 27.125464  7.138280 27.125464
1931  1 27.125464  9.993592  1.427656
1932  1 27.125464  9.993592  4.282968
1933  1 27.125464  9.993592  7.138280
1934  1 27.125464  9.993592  9.993592
1935  1 27.125464  9.993592 12.848904
1936  1 27.125464  9.993592 15.704216
1937  1 27.125464  9.993592 18.559528
1938  1 27.125464  9.993592 21.414840
1939  1 27.125464  9.993592 24.270152
1940  1 27.125464  9.993592 27.125464
1941  1 27.125464 12.848904  1.427656
1942  1 27.125464 12.848904  4.282968
1943  1 27.125464 12.848904  7.138280
1944  1 27.125464 12.848904  9.993592
1945  1 27.125464 12.848904 12.848904
1946  1 27.125464 12.848904 15.704216
1947  1 27.125464 12.848904 18.559528
1948  1 27.125464 12.848904 21.414840
1949  1 27.125464 12.848904 24.270152
1950  1 27.125464 12.848904 27.125464
1951  1 27.125464 15.704216  1.427656
1952  1 27.125464 15.704216  4.282968
1953  1 27.125464 15.704216  7.138280
1954  1 27.125464 15.704216  9.993592
1955  1 27.125464 15.704216 12.848904
1956  1 27.125464 15.704216 15.704216
1957  1 27.125464 15.704216 18.559528
1958  1 27.125464 15.704216 21.414840
1959  1 27.125464 15.704216 24.270152
1960  1 27.125464 15.704216 27.125464
1961  1 27.125464 18.559528  1.427656
1962  1 27.125464 18.559528  4.282968
1963  1 27.125464 18.559528  7.138280
1964  1 27.125464 18.559528  9.993592
1965  1 27.125464 18.559528 12.848904
1966  1 27.125464 18.559528 15.704216
1967  1 27.125464 18.559528 18.559528
1968  1 27.125464 18.559528 21.414840
1969  1 27.125464 18.559528 24.270152
1970  1 27.125464 18.559528 27.125464
1971  1 27.125464 21.414840  1.427656
1972  1 27.125464 21.414840  4.282968
1973  1 27.125464 21.414840  7.138280
1974  1 27.125464 21.414840  9.993592
1975  1 27.125464 21.414840 12.848904
1976  1 27.125464 21.414840 15.704216
1977  1 27.125464 21.414840 18.559528
1978  1 27.125464 21.414840 21.414840
1979  1 27.125464 21.414840 24.270152
1980  1 27.125464 21.414840 27.125464
1981  1 27.125464 24.270152  1.427656
1982  1 27.125464 24.270152  4.282968
1983  1 27.125464 24.270152  7.138280
1984  1 27.125464 24.270152  9.993592
1985  1 27.125464 24.270152 12.848904
1986  1 27.125464 24.270152 15.704216
1987  1 27.125464 24.270152 18.559528
1988  1 27.125464 24.270152 21.414840
1989  1 27.125464 24.270152 24.270152
1990  1 27.125464 24.270152 27.125464
1991  1 27.125464 27.125464  1.427656
1992  1 27.125464 27.125464  4.282968
1993  1 27.125464 27.125464  7.138280
1994  1 27.125464 27.125464  9.993592
1995  1 27.125464 27.125464 12.848904
1996  1 27.125464 27.125464 15.704216
1997  1 27.125464 27.125464 18.559528
1998  1 27.125464 27.125464 21.414840
1999  1 27.125464 27.125464 24.270152
2000  1 27.125464 27.125464 27.125464

