Ta32 Ti34 Nb32 W10                      
   1.00000000000000     
     9.1216997255111210    0.0000000000000000    0.0000000000000000
     0.0000000000000000    8.3788097184575001    0.0000000000000000
     0.0000000000000000   -2.3274489494153769   23.6988662189480195
   Ta   Ti   Nb   W 
    32    34    32    10
Selective dynamics
Direct
  0.4994571676000206  0.2839903673653197  0.2216686124125018   F   F   T
  0.0007011838891344  0.2838037118643157  0.2221777944591669   F   F   T
  0.2495600548973158  0.2373202268291976  0.0550316643776610   F   F   T
  0.4999658814041439  0.8083197493769205  0.1101371339831930   F   F   T
  0.0000479543384628  0.4754509635799806  0.1103326590413766   F   F   T
  0.0014814358292270  0.5682470477067909  0.4444630208002973   F   F   T
  0.2504715557544870  0.9471145492212116  0.6106636839371450   F   F   T
  0.0006088878015333  0.6666107930344651  0.0004768769563754   F   F   T
  0.7506980600066626  0.7004703889622874  0.7223380033188194   F   F   T
  0.4998717066019083  0.7593446827830235  0.3331663125020310   F   F   T
  0.2497759176542687  0.0335964456075075  0.7223959284341401   F   F   T
  0.9998461222754713  0.4944837441952998  0.7778016947804141   F   F   T
  0.0005745086022202  0.5189106892780870  0.6666713072254238   F   F   T
  0.2495106240223279  0.6206188307789091  0.8329246576421078   F   F   T
  0.7497640967820587  0.2808365933322392  0.6109669984531775   F   F   T
  0.0012324422402941  0.8515876887297651  0.6673602416786295   F   F   T
  0.2498146343417176  0.8550675836045514  0.2778387354538792   F   F   T
  0.4992161048643524  0.8521638809585355  0.6663481831537191   F   F   T
  0.5003964755988406  0.8274541751243589  0.7784859185227383   F   F   T
  0.4996118710759134  0.9988682711050600  0.0008839462847394   F   F   T
  0.5001801896752340  0.1604389942858049  0.7782345153900257   F   F   T
  0.4999855333282923  0.4257116860077872  0.3333934157943104   F   F   T
  0.0003203214657930  0.9507018701802252  0.2215928032585577   F   F   T
  0.2491167970940609  0.6638729829335688  0.3896239629400306   F   F   T
  0.4995821383535883  0.6670076935255267  0.0005907519101445   F   F   T
  0.7502763096117064  0.6149916753660492  0.6108949253285325   F   F   T
  0.7504420632422253  0.9472523659505825  0.6107492162938729   F   F   T
  0.0002089534286114  0.1418106027592572  0.1099898152573667   F   F   T
  0.2497824446881296  0.9533933401919938  0.8327650763370388   F   F   T
  0.5009183035403240  0.5251561668102624  0.8892141595488229   F   F   T
  0.9997743751242751  0.8592920466592631  0.8891790901924543   F   F   T
  0.2499611531302293  0.5212128639983149  0.2774883298973136   F   F   T
  0.4993217237138055  0.7101958954317027  0.5562292831138776   F   F   T
  0.0006181661184712  0.0433186934096952  0.5553781810313492   F   F   T
  0.5000270802090654  0.5180360431448605  0.6666269884764255   F   F   T
  0.7503350559090833  0.2373688608287239  0.0554236124172209   F   F   T
  0.5001069796275743  0.2347389603554930  0.4444397084986571   F   F   T
  0.7500853215986609  0.8549000222366061  0.2778695208565185   F   F   T
  0.7501204241673207  0.1882480315944974  0.2779726591095099   F   F   T
  0.7498964864102220  0.0461264016295786  0.1664500357268059   F   F   T
  0.9999488100767664  0.5249110280491820  0.8884009111991105   F   F   T
  0.7485847158406287  0.9979226780175949  0.3889929899715369   F   F   T
  0.5000746504558933  0.8575270968004105  0.8892366922969686   F   F   T
  0.4998462243517281  0.3339846876002994  0.0002271890618168   F   F   T
  0.5002779828903812  0.1914858762484570  0.8884981271189483   F   F   T
  0.0004289236194879  0.7596034855066023  0.3334115740668929   F   F   T
  0.7492359320902082  0.3300547770750839  0.3892017598208947   F   F   T
  0.4990507496593892  0.9023924327501547  0.4447075168789225   F   F   T
  0.7504724678271089  0.0957163905328144  0.9446599030152543   F   F   T
  0.7502944376332223  0.0345155366500052  0.7223560556976666   F   F   T
  0.2495517935165452  0.7004363181414419  0.7222533619436030   F   F   T
  0.2492706110137775  0.9973953487389409  0.3893612701063012   F   F   T
  0.0004841176504584  0.3766150384494722  0.5553572118373646   F   F   T
  0.4998581739266967  0.1416144945564781  0.1104186096220650   F   F   T
  0.7495056616346218  0.6634769404354373  0.3890125229285252   F   F   T
  0.7498974037428923  0.7622962548141174  0.9445091704286225   F   F   T
  0.7502289433568023  0.8057688083120595  0.5002749003748224   F   F   T
  0.2498951653222576  0.2869466811385593  0.8332334720925453   F   F   T
  0.0007319690377372  0.0923497969896374  0.3333500416389859   F   F   T
  0.5005552856449071  0.6170717719788144  0.2217589195119458   F   F   T
  0.7498102399859761  0.4719763049707737  0.5001849814749909   F   F   T
  0.5003063270432619  0.4936734016153252  0.7779820376660143   F   F   T
  0.0003011545578602  0.4257926422893448  0.3332583071908392   F   F   T
  0.2500659537346763  0.3796654779156583  0.1666266531796998   F   F   T
  0.0004593157160002  0.7098554365223748  0.5552065271223635   F   F   T
  0.7499589664007402  0.5217941379282607  0.2778388005600727   F   F   T
  0.0034042081272148  0.9014813665986310  0.4448841216455000   F   F   T
  0.9992044502014608  0.1891264199583915  0.8889333726784174   F   F   T
  0.4998168687279900  0.4758276788938502  0.1105500814528246   F   F   T
  0.2529331584649555  0.1369847352285660  0.4990159484804552   F   F   T
  0.4975832870308210  0.3752023854215167  0.5552873068723074   F   F   T
  0.2514682671844923  0.3675053134976807  0.7226763616201122   F   F   T
  0.7498894854668166  0.1387065610496450  0.5002689119953801   F   F   T
  0.9999800691477887  0.0000606578435622  0.0003434981939406   F   F   T
  0.7503600807643522  0.6207463688955457  0.8337421486944964   F   F   T
  0.7513694862986284  0.3660128937371141  0.7228321391215664   F   F   T
  0.2501330520519929  0.8067654164982372  0.4999130457117799   F   F   T
  0.2504580636488072  0.7616524257992765  0.9445779570347239   F   F   T
  0.2492790023416731  0.4707052621465735  0.4992536538405710   F   F   T
  0.0009289644364827  0.3332892123612936  0.0007142289984589   F   F   T
  0.9999297653457830  0.8084475212525390  0.1122490107034500   F   F   T
  0.7487214725870288  0.9054167482855036  0.0565431293824915   F   F   T
  0.5005938200933713  0.0926778242811963  0.3338272586309017   F   F   T
  0.5008810097877685  0.5695287610277759  0.4444797745254730   F   F   T
  0.7495892499497998  0.2865823746500382  0.8331122111131332   F   F   T
  0.7500503501359645  0.9509870020719902  0.8333723149491554   F   F   T
  0.0003188102599410  0.6172491846035797  0.2215662793708296   F   F   T
  0.9986838604704076  0.1843469068297736  0.6666035109761346   F   F   T
  0.7498685242076348  0.5712020929822543  0.0556296476925344   F   F   T
  0.4996707942471517  0.9503089898007673  0.2221676418434597   F   F   T
  0.7498829497651229  0.3799089560602056  0.1659641913429579   F   F   T
  0.4957225303476420  0.0442581107116595  0.5548753384667180   F   F   T
  0.2511062279074494  0.9043894371975369  0.0553094485038596   F   F   T
  0.0012608868751300  0.2342319118332554  0.4448566979787055   F   F   T
  0.2500160050277884  0.0462893955436741  0.1660125020105128   F   F   T
  0.2483608885329858  0.6171329056968844  0.6105962577717242   F   F   T
  0.2507630857270939  0.2802838756714934  0.6101270887808268   F   F   T
  0.7475495221513739  0.4294146174205409  0.9453397451103093   F   F   T
  0.2500587314067104  0.5709787030040587  0.0553986568093632   F   F   T
  0.2494184020951380  0.0956516221431229  0.9454688820367029   F   F   T
  0.2502745500970818  0.7129457837527156  0.1659699009558684   F   F   T
  0.2494411266852055  0.1891795407762018  0.2777057622844645   F   F   T
  0.9999629411264692  0.8263327411160972  0.7770270066676949   F   F   T
  0.2493584891262870  0.3295991586789029  0.3901792727928606   F   F   T
  0.9995397471666081  0.1607374958894923  0.7780171937761432   F   F   T
  0.2498069767961155  0.4293923273609010  0.9455035225075460   F   F   T
  0.7499436562060993  0.7127599458156482  0.1659186668585417   F   F   T
  0.4996546992342843  0.1861596720786167  0.6666249287244446   F   F   T
 
  0.00000000E+00  0.00000000E+00  0.00000000E+00
  0.00000000E+00  0.00000000E+00  0.00000000E+00
  0.00000000E+00  0.00000000E+00  0.00000000E+00
  0.00000000E+00  0.00000000E+00  0.00000000E+00
  0.00000000E+00  0.00000000E+00  0.00000000E+00
  0.00000000E+00  0.00000000E+00  0.00000000E+00
  0.00000000E+00  0.00000000E+00  0.00000000E+00
  0.00000000E+00  0.00000000E+00  0.00000000E+00
  0.00000000E+00  0.00000000E+00  0.00000000E+00
  0.00000000E+00  0.00000000E+00  0.00000000E+00
  0.00000000E+00  0.00000000E+00  0.00000000E+00
  0.00000000E+00  0.00000000E+00  0.00000000E+00
  0.00000000E+00  0.00000000E+00  0.00000000E+00
  0.00000000E+00  0.00000000E+00  0.00000000E+00
  0.00000000E+00  0.00000000E+00  0.00000000E+00
  0.00000000E+00  0.00000000E+00  0.00000000E+00
  0.00000000E+00  0.00000000E+00  0.00000000E+00
  0.00000000E+00  0.00000000E+00  0.00000000E+00
  0.00000000E+00  0.00000000E+00  0.00000000E+00
  0.00000000E+00  0.00000000E+00  0.00000000E+00
  0.00000000E+00  0.00000000E+00  0.00000000E+00
  0.00000000E+00  0.00000000E+00  0.00000000E+00
  0.00000000E+00  0.00000000E+00  0.00000000E+00
  0.00000000E+00  0.00000000E+00  0.00000000E+00
  0.00000000E+00  0.00000000E+00  0.00000000E+00
  0.00000000E+00  0.00000000E+00  0.00000000E+00
  0.00000000E+00  0.00000000E+00  0.00000000E+00
  0.00000000E+00  0.00000000E+00  0.00000000E+00
  0.00000000E+00  0.00000000E+00  0.00000000E+00
  0.00000000E+00  0.00000000E+00  0.00000000E+00
  0.00000000E+00  0.00000000E+00  0.00000000E+00
  0.00000000E+00  0.00000000E+00  0.00000000E+00
  0.00000000E+00  0.00000000E+00  0.00000000E+00
  0.00000000E+00  0.00000000E+00  0.00000000E+00
  0.00000000E+00  0.00000000E+00  0.00000000E+00
  0.00000000E+00  0.00000000E+00  0.00000000E+00
  0.00000000E+00  0.00000000E+00  0.00000000E+00
  0.00000000E+00  0.00000000E+00  0.00000000E+00
  0.00000000E+00  0.00000000E+00  0.00000000E+00
  0.00000000E+00  0.00000000E+00  0.00000000E+00
  0.00000000E+00  0.00000000E+00  0.00000000E+00
  0.00000000E+00  0.00000000E+00  0.00000000E+00
  0.00000000E+00  0.00000000E+00  0.00000000E+00
  0.00000000E+00  0.00000000E+00  0.00000000E+00
  0.00000000E+00  0.00000000E+00  0.00000000E+00
  0.00000000E+00  0.00000000E+00  0.00000000E+00
  0.00000000E+00  0.00000000E+00  0.00000000E+00
  0.00000000E+00  0.00000000E+00  0.00000000E+00
  0.00000000E+00  0.00000000E+00  0.00000000E+00
  0.00000000E+00  0.00000000E+00  0.00000000E+00
  0.00000000E+00  0.00000000E+00  0.00000000E+00
  0.00000000E+00  0.00000000E+00  0.00000000E+00
  0.00000000E+00  0.00000000E+00  0.00000000E+00
  0.00000000E+00  0.00000000E+00  0.00000000E+00
  0.00000000E+00  0.00000000E+00  0.00000000E+00
  0.00000000E+00  0.00000000E+00  0.00000000E+00
  0.00000000E+00  0.00000000E+00  0.00000000E+00
  0.00000000E+00  0.00000000E+00  0.00000000E+00
  0.00000000E+00  0.00000000E+00  0.00000000E+00
  0.00000000E+00  0.00000000E+00  0.00000000E+00
  0.00000000E+00  0.00000000E+00  0.00000000E+00
  0.00000000E+00  0.00000000E+00  0.00000000E+00
  0.00000000E+00  0.00000000E+00  0.00000000E+00
  0.00000000E+00  0.00000000E+00  0.00000000E+00
  0.00000000E+00  0.00000000E+00  0.00000000E+00
  0.00000000E+00  0.00000000E+00  0.00000000E+00
  0.00000000E+00  0.00000000E+00  0.00000000E+00
  0.00000000E+00  0.00000000E+00  0.00000000E+00
  0.00000000E+00  0.00000000E+00  0.00000000E+00
  0.00000000E+00  0.00000000E+00  0.00000000E+00
  0.00000000E+00  0.00000000E+00  0.00000000E+00
  0.00000000E+00  0.00000000E+00  0.00000000E+00
  0.00000000E+00  0.00000000E+00  0.00000000E+00
  0.00000000E+00  0.00000000E+00  0.00000000E+00
  0.00000000E+00  0.00000000E+00  0.00000000E+00
  0.00000000E+00  0.00000000E+00  0.00000000E+00
  0.00000000E+00  0.00000000E+00  0.00000000E+00
  0.00000000E+00  0.00000000E+00  0.00000000E+00
  0.00000000E+00  0.00000000E+00  0.00000000E+00
  0.00000000E+00  0.00000000E+00  0.00000000E+00
  0.00000000E+00  0.00000000E+00  0.00000000E+00
  0.00000000E+00  0.00000000E+00  0.00000000E+00
  0.00000000E+00  0.00000000E+00  0.00000000E+00
  0.00000000E+00  0.00000000E+00  0.00000000E+00
  0.00000000E+00  0.00000000E+00  0.00000000E+00
  0.00000000E+00  0.00000000E+00  0.00000000E+00
  0.00000000E+00  0.00000000E+00  0.00000000E+00
  0.00000000E+00  0.00000000E+00  0.00000000E+00
  0.00000000E+00  0.00000000E+00  0.00000000E+00
  0.00000000E+00  0.00000000E+00  0.00000000E+00
  0.00000000E+00  0.00000000E+00  0.00000000E+00
  0.00000000E+00  0.00000000E+00  0.00000000E+00
  0.00000000E+00  0.00000000E+00  0.00000000E+00
  0.00000000E+00  0.00000000E+00  0.00000000E+00
  0.00000000E+00  0.00000000E+00  0.00000000E+00
  0.00000000E+00  0.00000000E+00  0.00000000E+00
  0.00000000E+00  0.00000000E+00  0.00000000E+00
  0.00000000E+00  0.00000000E+00  0.00000000E+00
  0.00000000E+00  0.00000000E+00  0.00000000E+00
  0.00000000E+00  0.00000000E+00  0.00000000E+00
  0.00000000E+00  0.00000000E+00  0.00000000E+00
  0.00000000E+00  0.00000000E+00  0.00000000E+00
  0.00000000E+00  0.00000000E+00  0.00000000E+00
  0.00000000E+00  0.00000000E+00  0.00000000E+00
  0.00000000E+00  0.00000000E+00  0.00000000E+00
  0.00000000E+00  0.00000000E+00  0.00000000E+00
  0.00000000E+00  0.00000000E+00  0.00000000E+00
  0.00000000E+00  0.00000000E+00  0.00000000E+00
