       N       E                     dE             d eps       ncg     rms          rms(c)
DAV:   1    -0.396256979911E+05   -0.39626E+05   -0.91507E+05 33600   0.210E+03
DAV:   2    -0.586744574136E+05   -0.19049E+05   -0.18143E+05 37056   0.111E+03
DAV:   3    -0.615373303207E+05   -0.28629E+04   -0.27071E+04 38400   0.451E+02
DAV:   4    -0.624930564894E+05   -0.95573E+03   -0.88570E+03 38400   0.236E+02
DAV:   5    -0.630182103907E+05   -0.52515E+03   -0.49873E+03 38400   0.162E+02    0.133E+04
DAV:   6    -0.228777405137E+05    0.40140E+05   -0.23715E+05 33696   0.816E+02    0.134E+04
DAV:   7    -0.124240290435E+05    0.10454E+05   -0.21372E+05 36672   0.943E+02    0.590E+03
DAV:   8    -0.167600759709E+05   -0.43360E+04   -0.28356E+05 38400   0.108E+03    0.489E+03
DAV:   9    -0.507697860992E+04    0.11683E+05   -0.17215E+05 36720   0.693E+02    0.420E+03
DAV:  10    -0.619041075546E+04   -0.11134E+04   -0.88915E+04 34560   0.448E+02    0.394E+03
DAV:  11    -0.322672288560E+04    0.29637E+04   -0.19891E+04 32448   0.267E+02    0.410E+03
DAV:  12    -0.454305401391E+04   -0.13163E+04   -0.64233E+03 33936   0.126E+02    0.421E+03
DAV:  13    -0.707389505608E+04   -0.25308E+04   -0.10694E+04 36528   0.129E+02    0.407E+03
DAV:  14    -0.611408050407E+04    0.95981E+03   -0.14465E+04 32064   0.201E+02    0.397E+03
DAV:  15    -0.686534581541E+04   -0.75127E+03   -0.50624E+03 34272   0.101E+02    0.435E+03
DAV:  16    -0.663729579649E+04    0.22805E+03   -0.74012E+02 35616   0.360E+01    0.437E+03
DAV:  17    -0.648343785552E+04    0.15386E+03   -0.10020E+02 34368   0.157E+01    0.432E+03
DAV:  18    -0.630618578407E+04    0.17725E+03   -0.58569E+02 29856   0.540E+01    0.412E+03
DAV:  19    -0.633413615538E+04   -0.27950E+02   -0.13465E+02 30384   0.137E+01    0.419E+03
DAV:  20    -0.882248518884E+04   -0.24883E+04   -0.57815E+03 29760   0.116E+02    0.356E+03
DAV:  21    -0.863523594782E+04    0.18725E+03   -0.21808E+03 29280   0.753E+01    0.332E+03
DAV:  22    -0.869337825375E+04   -0.58142E+02   -0.50894E+02 31104   0.299E+01    0.365E+03
DAV:  23    -0.870536818636E+04   -0.11990E+02   -0.12964E+02 35424   0.119E+01    0.408E+03
DAV:  24    -0.869548167908E+04    0.98865E+01   -0.30449E+01 35232   0.536E+00    0.412E+03
DAV:  25    -0.870753504434E+04   -0.12053E+02   -0.26217E+01 31296   0.526E+00    0.413E+03
DAV:  26    -0.871018401574E+04   -0.26490E+01   -0.20072E+00 30576   0.144E+00    0.413E+03
DAV:  27    -0.872327587647E+04   -0.13092E+02   -0.82877E+01 23904   0.168E+01    0.412E+03
DAV:  28    -0.884973901077E+04   -0.12646E+03   -0.15191E+02 26688   0.153E+01    0.410E+03
DAV:  29    -0.886788670548E+04   -0.18148E+02   -0.32507E+02 27888   0.329E+01    0.406E+03
DAV:  30    -0.855059963571E+04    0.31729E+03   -0.32150E+02 25728   0.203E+01
   1 F= -.85505996E+04 E0= -.85505698E+04  d E =-.855060E+04
       N       E                     dE             d eps       ncg     rms          rms(c)
DAV:   1    -0.851429425144E+04    0.35359E+03   -0.83432E+01 28416   0.163E+01    0.387E+03
DAV:   2    -0.275069781731E+05   -0.18993E+05   -0.46382E+05 32784   0.471E+02    0.249E+03
DAV:   3    -0.731147260512E+04    0.20196E+05   -0.30664E+05 35952   0.862E+02    0.165E+03
DAV:   4    -0.813434942661E+04   -0.82288E+03   -0.19583E+05 37152   0.781E+02    0.131E+03
DAV:   5    -0.322000611065E+04    0.49143E+04   -0.10378E+05 36624   0.537E+02    0.103E+03
DAV:   6    -0.451446165495E+04   -0.12945E+04   -0.70041E+04 35808   0.300E+02    0.102E+03
DAV:   7    -0.302867853349E+04    0.14858E+04   -0.95214E+03 30816   0.183E+02    0.106E+03
DAV:   8    -0.746054697409E+04   -0.44319E+04   -0.95928E+03 35424   0.156E+02    0.126E+03
DAV:   9    -0.775835685920E+04   -0.29781E+03   -0.40257E+03 32736   0.877E+01    0.233E+03
DAV:  10    -0.775278159108E+04    0.55753E+01   -0.65773E+02 38352   0.359E+01    0.332E+03
DAV:  11    -0.773934435254E+04    0.13437E+02   -0.96118E+01 35424   0.123E+01    0.361E+03
DAV:  12    -0.774070175067E+04   -0.13574E+01   -0.14932E+01 38064   0.396E+00    0.363E+03
DAV:  13    -0.762384037007E+04    0.11686E+03   -0.98512E+00 35952   0.550E+00    0.363E+03
DAV:  14    -0.858077510624E+04   -0.95693E+03   -0.72219E+04 36624   0.259E+02    0.272E+03
DAV:  15    -0.106818002950E+05   -0.21010E+04   -0.19337E+04 36288   0.228E+02    0.260E+03
DAV:  16    -0.107188526727E+05   -0.37052E+02   -0.29583E+03 33168   0.830E+01    0.260E+03
DAV:  17    -0.107825981220E+05   -0.63745E+02   -0.69512E+02 35856   0.372E+01    0.251E+03
DAV:  18    -0.105634772739E+05    0.21912E+03   -0.16976E+02 36048   0.196E+01    0.271E+03
DAV:  19    -0.105513074031E+05    0.12170E+02   -0.85591E+01 31008   0.194E+01    0.279E+03
DAV:  20    -0.994939125448E+04    0.60192E+03   -0.52231E+02 30576   0.319E+01    0.281E+03
DAV:  21    -0.957997298808E+04    0.36942E+03   -0.48974E+02 34512   0.449E+01    0.283E+03
DAV:  22    -0.876294863013E+04    0.81702E+03   -0.25748E+04 31584   0.256E+02    0.326E+03
DAV:  23    -0.969050179277E+04   -0.92755E+03   -0.11610E+04 36432   0.162E+02    0.325E+03
DAV:  24    -0.109430126018E+05   -0.12525E+04   -0.72008E+03 34176   0.109E+02    0.313E+03
DAV:  25    -0.108206440747E+05    0.12237E+03   -0.33417E+03 37776   0.928E+01    0.344E+03
DAV:  26    -0.109704650351E+05   -0.14982E+03   -0.12784E+03 38112   0.428E+01    0.386E+03
DAV:  27    -0.111164331875E+05   -0.14597E+03   -0.37459E+02 34464   0.270E+01    0.397E+03
DAV:  28    -0.109559021909E+05    0.16053E+03   -0.65652E+01 36960   0.100E+01    0.396E+03
DAV:  29    -0.103593131878E+05    0.59659E+03   -0.92280E+01 35568   0.174E+01    0.398E+03
DAV:  30    -0.164897498818E+05   -0.61304E+04   -0.41454E+03 33312   0.109E+02
   2 F= -.16489750E+05 E0= -.16489729E+05  d E =-.793915E+04
       N       E                     dE             d eps       ncg     rms          rms(c)
DAV:   1    -0.169159880891E+05   -0.65567E+04   -0.51597E+02 36240   0.437E+01    0.453E+03
DAV:   2    -0.334098092288E+05   -0.16494E+05   -0.64364E+05 38400   0.735E+02    0.500E+03
DAV:   3    -0.670818925142E+04    0.26702E+05   -0.79749E+04 33600   0.626E+02    0.181E+03
DAV:   4    -0.157493633946E+05   -0.90412E+04   -0.31457E+05 38400   0.684E+02    0.231E+03
DAV:   5    -0.405052596283E+04    0.11699E+05   -0.48087E+04 33696   0.487E+02    0.139E+03
DAV:   6    -0.167516581171E+05   -0.12701E+05   -0.30557E+05 38400   0.680E+02    0.128E+03
DAV:   7    -0.140920727499E+05    0.26596E+04   -0.38967E+04 29376   0.603E+02    0.832E+02
DAV:   8    -0.636764684168E+04    0.77244E+04   -0.21839E+04 34800   0.307E+02    0.545E+02
DAV:   9    -0.526364955083E+04    0.11040E+04   -0.37417E+04 37104   0.367E+02    0.589E+02
DAV:  10    -0.325093545070E+04    0.20127E+04   -0.16953E+04 34752   0.219E+02    0.526E+02
DAV:  11    -0.273103264961E+04    0.51990E+03   -0.58944E+03 34320   0.108E+02    0.522E+02
DAV:  12    -0.225632594146E+04    0.47471E+03   -0.21695E+03 34992   0.640E+01    0.509E+02
DAV:  13    -0.208704327026E+04    0.16928E+03   -0.10841E+03 31344   0.574E+01    0.500E+02
DAV:  14    -0.190500011800E+04    0.18204E+03   -0.68311E+02 31104   0.552E+01    0.490E+02
DAV:  15    -0.159672165200E+04    0.30828E+03   -0.36589E+02 31344   0.273E+01    0.467E+02
DAV:  16    -0.143143867778E+04    0.16528E+03   -0.21291E+03 32448   0.774E+01    0.427E+02
DAV:  17    -0.128718900934E+04    0.14425E+03   -0.74591E+02 32688   0.458E+01    0.411E+02
DAV:  18    -0.127811188125E+04    0.90771E+01   -0.45409E+02 30768   0.372E+01    0.405E+02
DAV:  19    -0.123552628421E+04    0.42586E+02   -0.19590E+02 29664   0.193E+01    0.382E+02
DAV:  20    -0.116716320165E+04    0.68363E+02   -0.28520E+02 29184   0.282E+01    0.355E+02
DAV:  21    -0.115678343279E+04    0.10380E+02   -0.91967E+01 28128   0.142E+01    0.335E+02
DAV:  22    -0.114168885532E+04    0.15095E+02   -0.59583E+01 29904   0.118E+01    0.320E+02
DAV:  23    -0.112969064904E+04    0.11998E+02   -0.52664E+01 27072   0.125E+01    0.303E+02
DAV:  24    -0.112683999384E+04    0.28507E+01   -0.13255E+01 29184   0.594E+00    0.292E+02
DAV:  25    -0.112045709060E+04    0.63829E+01   -0.29219E+01 29040   0.963E+00    0.273E+02
DAV:  26    -0.111621296833E+04    0.42441E+01   -0.67096E+00 27456   0.446E+00    0.252E+02
DAV:  27    -0.111037787816E+04    0.58351E+01   -0.20569E+01 28992   0.703E+00    0.227E+02
DAV:  28    -0.110589549470E+04    0.44824E+01   -0.57324E+00 29136   0.356E+00    0.212E+02
DAV:  29    -0.110356292806E+04    0.23326E+01   -0.29122E+00 28272   0.264E+00    0.198E+02
DAV:  30    -0.110140437610E+04    0.21586E+01   -0.24154E+00 28656   0.212E+00
   3 F= -.11014044E+04 E0= -.11013091E+04  d E =0.744920E+04
       N       E                     dE             d eps       ncg     rms          rms(c)
DAV:   1    -0.109978445336E+04    0.37785E+01   -0.18549E+00 27888   0.205E+00    0.165E+02
DAV:   2    -0.118423051024E+04   -0.84446E+02   -0.32959E+02 30672   0.307E+01    0.118E+02
DAV:   3    -0.281939609470E+04   -0.16352E+04   -0.11932E+04 36192   0.135E+02    0.200E+02
DAV:   4    -0.118883844414E+04    0.16306E+04   -0.10784E+04 34176   0.136E+02    0.998E+01
DAV:   5    -0.128564761654E+04   -0.96809E+02   -0.41801E+03 28944   0.110E+02    0.666E+01
DAV:   6    -0.131134996174E+04   -0.25702E+02   -0.85373E+02 31056   0.454E+01    0.660E+01
DAV:   7    -0.116075856360E+04    0.15059E+03   -0.42899E+02 30864   0.432E+01    0.473E+01
DAV:   8    -0.113023047187E+04    0.30528E+02   -0.21923E+02 29568   0.200E+01    0.379E+01
DAV:   9    -0.111637864903E+04    0.13852E+02   -0.49945E+01 29088   0.100E+01    0.321E+01
DAV:  10    -0.110883372588E+04    0.75449E+01   -0.15792E+01 28752   0.584E+00    0.274E+01
DAV:  11    -0.110312812227E+04    0.57056E+01   -0.77378E+00 28416   0.409E+00    0.232E+01
DAV:  12    -0.109952057807E+04    0.36075E+01   -0.28481E+00 28752   0.279E+00    0.198E+01
DAV:  13    -0.109625934312E+04    0.32612E+01   -0.28725E+00 27600   0.250E+00    0.157E+01
DAV:  14    -0.109489625113E+04    0.13631E+01   -0.12729E+00 28752   0.168E+00    0.135E+01
DAV:  15    -0.109387784740E+04    0.10184E+01   -0.74958E-01 28128   0.133E+00    0.114E+01
DAV:  16    -0.109294899978E+04    0.92885E+00   -0.11573E+00 28080   0.168E+00    0.913E+00
DAV:  17    -0.109202199891E+04    0.92700E+00   -0.19049E+00 27264   0.207E+00    0.556E+00
DAV:  18    -0.109166331213E+04    0.35869E+00   -0.88862E-01 29760   0.137E+00    0.322E+00
DAV:  19    -0.109159427796E+04    0.69034E-01   -0.29208E-01 30768   0.806E-01    0.240E+00
DAV:  20    -0.109153983796E+04    0.54440E-01   -0.22762E-01 27600   0.706E-01    0.136E+00
DAV:  21    -0.109153548262E+04    0.43553E-02   -0.10087E-01 28896   0.502E-01    0.110E+00
DAV:  22    -0.109152138314E+04    0.14099E-01   -0.74723E-02 27648   0.430E-01    0.550E-01
DAV:  23    -0.109151844749E+04    0.29357E-02   -0.29793E-02 28512   0.265E-01    0.293E-01
DAV:  24    -0.109151839810E+04    0.49390E-04   -0.95491E-03 27936   0.162E-01    0.253E-01
DAV:  25    -0.109151789925E+04    0.49885E-03   -0.62541E-03 28224   0.115E-01    0.152E-01
DAV:  26    -0.109151774874E+04    0.15051E-03   -0.32871E-03 28800   0.936E-02    0.103E-01
DAV:  27    -0.109151764208E+04    0.10666E-03   -0.13701E-03 27072   0.617E-02    0.612E-02
DAV:  28    -0.109151759127E+04    0.50810E-04   -0.45057E-04 28368   0.355E-02    0.339E-02
DAV:  29    -0.109151758270E+04    0.85672E-05   -0.16152E-04 27120   0.204E-02    0.245E-02
DAV:  30    -0.109151757771E+04    0.49912E-05   -0.68062E-05 26976   0.135E-02
   4 F= -.10915176E+04 E0= -.10914131E+04  d E =0.745908E+04
       N       E                     dE             d eps       ncg     rms          rms(c)
DAV:   1    -0.109153512760E+04   -0.17545E-01   -0.30406E-01 24000   0.964E-01    0.136E-01
DAV:   2    -0.109153949726E+04   -0.43697E-02   -0.24455E-02 30144   0.329E-01    0.420E-01
DAV:   3    -0.109153958177E+04   -0.84503E-04   -0.18543E-02 30672   0.236E-01    0.382E-01
DAV:   4    -0.109153634625E+04    0.32355E-02   -0.94071E-03 27360   0.178E-01    0.107E-01
DAV:   5    -0.109153630938E+04    0.36866E-04   -0.13477E-03 27168   0.627E-02    0.841E-02
DAV:   6    -0.109153625934E+04    0.50041E-04   -0.74581E-04 27984   0.438E-02    0.583E-02
DAV:   7    -0.109153660969E+04   -0.35034E-03   -0.99910E-04 28656   0.597E-02    0.116E-01
DAV:   8    -0.109153630181E+04    0.30787E-03   -0.13252E-03 29232   0.631E-02    0.630E-02
DAV:   9    -0.109153624546E+04    0.56350E-04   -0.40985E-04 29232   0.354E-02    0.396E-02
DAV:  10    -0.109153622245E+04    0.23014E-04   -0.17361E-04 28272   0.233E-02    0.235E-02
DAV:  11    -0.109153621756E+04    0.48925E-05   -0.74264E-05 26352   0.137E-02    0.149E-02
DAV:  12    -0.109153621517E+04    0.23825E-05   -0.21514E-05 25680   0.819E-03    0.838E-03
DAV:  13    -0.109153621459E+04    0.58362E-06   -0.80811E-06 21600   0.474E-03
   5 F= -.10915362E+04 E0= -.10914318E+04  d E =0.745906E+04
       N       E                     dE             d eps       ncg     rms          rms(c)
DAV:   1    -0.109154489580E+04   -0.86806E-02   -0.76110E-02 23904   0.483E-01    0.682E-02
DAV:   2    -0.109154606662E+04   -0.11708E-02   -0.62726E-03 30192   0.165E-01    0.220E-01
DAV:   3    -0.109154602158E+04    0.45038E-04   -0.48284E-03 31248   0.121E-01    0.189E-01
DAV:   4    -0.109154520312E+04    0.81846E-03   -0.23249E-03 27600   0.908E-02    0.532E-02
DAV:   5    -0.109154533147E+04   -0.12835E-03   -0.60733E-04 27840   0.417E-02    0.812E-02
DAV:   6    -0.109154520200E+04    0.12947E-03   -0.55531E-04 27744   0.413E-02    0.428E-02
DAV:   7    -0.109154518297E+04    0.19032E-04   -0.17913E-04 26928   0.225E-02    0.294E-02
DAV:   8    -0.109154518571E+04   -0.27437E-05   -0.10759E-04 27552   0.200E-02    0.265E-02
DAV:   9    -0.109154517847E+04    0.72388E-05   -0.94624E-05 26928   0.172E-02    0.195E-02
DAV:  10    -0.109154517366E+04    0.48163E-05   -0.44043E-05 27552   0.117E-02    0.124E-02
DAV:  11    -0.109154517211E+04    0.15415E-05   -0.19281E-05 25008   0.714E-03    0.757E-03
DAV:  12    -0.109154517147E+04    0.64906E-06   -0.62261E-06 21456   0.442E-03
   6 F= -.10915452E+04 E0= -.10914408E+04  d E =0.745905E+04
       N       E                     dE             d eps       ncg     rms          rms(c)
DAV:   1    -0.109154948782E+04   -0.43157E-02   -0.19037E-02 23904   0.241E-01    0.343E-02
DAV:   2    -0.109154978268E+04   -0.29486E-03   -0.15751E-03 30192   0.832E-02    0.110E-01
DAV:   3    -0.109154977523E+04    0.74486E-05   -0.12315E-03 30960   0.612E-02    0.961E-02
DAV:   4    -0.109154956431E+04    0.21092E-03   -0.59846E-04 27168   0.460E-02    0.270E-02
DAV:   5    -0.109154959174E+04   -0.27433E-04   -0.14565E-04 27552   0.203E-02    0.385E-02
DAV:   6    -0.109154956498E+04    0.26760E-04   -0.13260E-04 26112   0.203E-02    0.223E-02
DAV:   7    -0.109154955918E+04    0.58034E-05   -0.47277E-05 24960   0.116E-02    0.147E-02
DAV:   8    -0.109154956009E+04   -0.91385E-06   -0.27797E-05 25728   0.100E-02    0.143E-02
DAV:   9    -0.109154955795E+04    0.21457E-05   -0.26202E-05 24960   0.849E-03    0.945E-03
DAV:  10    -0.109154955678E+04    0.11660E-05   -0.10189E-05 23328   0.579E-03    0.578E-03
DAV:  11    -0.109154955646E+04    0.32131E-06   -0.44268E-06 18624   0.365E-03
   7 F= -.10915496E+04 E0= -.10914452E+04  d E =0.745905E+04
       N       E                     dE             d eps       ncg     rms          rms(c)
DAV:   1    -0.109155171053E+04   -0.21537E-02   -0.47624E-03 23904   0.121E-01    0.173E-02
DAV:   2    -0.109155178382E+04   -0.73296E-04   -0.39442E-04 30096   0.416E-02    0.550E-02
DAV:   3    -0.109155178183E+04    0.19901E-05   -0.30727E-04 31008   0.307E-02    0.477E-02
DAV:   4    -0.109155172988E+04    0.51951E-04   -0.15004E-04 25440   0.230E-02    0.138E-02
DAV:   5    -0.109155174023E+04   -0.10351E-04   -0.45097E-05 25200   0.114E-02    0.227E-02
DAV:   6    -0.109155172933E+04    0.10901E-04   -0.39259E-05 23184   0.110E-02    0.103E-02
DAV:   7    -0.109155172837E+04    0.96540E-06   -0.10907E-05 21936   0.571E-03    0.745E-03
DAV:   8    -0.109155172846E+04   -0.97614E-07   -0.60639E-06 20928   0.520E-03    0.653E-03
DAV:   9    -0.109155172824E+04    0.22336E-06   -0.58478E-06 19872   0.472E-03    0.557E-03
DAV:  10    -0.109155172779E+04    0.45125E-06   -0.25171E-06 15648   0.356E-03
   8 F= -.10915517E+04 E0= -.10914474E+04  d E =0.745905E+04
       N       E                     dE             d eps       ncg     rms          rms(c)
DAV:   1    -0.109155280260E+04   -0.10744E-02   -0.11912E-03 23904   0.604E-02    0.875E-03
DAV:   2    -0.109155281879E+04   -0.16185E-04   -0.92679E-05 30576   0.202E-02    0.255E-02
DAV:   3    -0.109155281952E+04   -0.73357E-06   -0.68398E-05 24288   0.144E-02    0.231E-02
DAV:   4    -0.109155280761E+04    0.11910E-04   -0.35788E-05 24240   0.113E-02    0.699E-03
DAV:   5    -0.109155280964E+04   -0.20341E-05   -0.94499E-06 18384   0.549E-03    0.103E-02
DAV:   6    -0.109155280757E+04    0.20694E-05   -0.91664E-06 15216   0.576E-03    0.567E-03
DAV:   7    -0.109155280720E+04    0.37454E-06   -0.28368E-06 15552   0.364E-03    0.383E-03
DAV:   8    -0.109155280713E+04    0.74018E-07   -0.10499E-06 13296   0.281E-03    0.280E-03
DAV:   9    -0.109155280712E+04    0.11227E-07   -0.72193E-07 12912   0.213E-03    0.214E-03
DAV:  10    -0.109155280707E+04    0.43394E-07   -0.37462E-07 12480   0.155E-03
   9 F= -.10915528E+04 E0= -.10914484E+04  d E =0.745905E+04
       N       E                     dE             d eps       ncg     rms          rms(c)
DAV:   1    -0.109155334369E+04   -0.53658E-03   -0.29651E-04 23904   0.302E-02    0.434E-03
DAV:   2    -0.109155334820E+04   -0.45030E-05   -0.24152E-05 30192   0.103E-02    0.135E-02
DAV:   3    -0.109155334792E+04    0.27371E-06   -0.18000E-05 19440   0.761E-03    0.113E-02
DAV:   4    -0.109155334492E+04    0.30025E-05   -0.86477E-06 17760   0.581E-03    0.324E-03
DAV:   5    -0.109155334598E+04   -0.10593E-05   -0.35559E-06 12816   0.355E-03    0.665E-03
DAV:   6    -0.109155334490E+04    0.10823E-05   -0.31660E-06 12480   0.357E-03    0.245E-03
DAV:   7    -0.109155334487E+04    0.33542E-07   -0.50344E-07 12480   0.171E-03    0.179E-03
DAV:   8    -0.109155334487E+04   -0.24156E-08   -0.24134E-07 12432   0.132E-03    0.141E-03
DAV:   9    -0.109155334488E+04   -0.10885E-07   -0.21586E-07 12336   0.120E-03    0.134E-03
DAV:  10    -0.109155334487E+04    0.83091E-08   -0.15409E-07 12336   0.974E-04
  10 F= -.10915533E+04 E0= -.10914490E+04  d E =0.745905E+04
       N       E                     dE             d eps       ncg     rms          rms(c)
DAV:   1    -0.109155361343E+04   -0.26855E-03   -0.74203E-05 23904   0.151E-02    0.219E-03
DAV:   2    -0.109155361448E+04   -0.10480E-05   -0.54538E-06 21744   0.516E-03    0.659E-03
DAV:   3    -0.109155361447E+04    0.53988E-08   -0.41966E-06 13680   0.421E-03    0.555E-03
DAV:   4    -0.109155361372E+04    0.75457E-06   -0.19960E-06 12816   0.308E-03    0.155E-03
DAV:   5    -0.109155361397E+04   -0.25528E-06   -0.92494E-07 12480   0.179E-03    0.322E-03
DAV:   6    -0.109155361375E+04    0.22476E-06   -0.88380E-07 12480   0.191E-03    0.143E-03
DAV:   7    -0.109155361373E+04    0.17215E-07   -0.19008E-07 12336   0.993E-04    0.945E-04
DAV:   8    -0.109155361373E+04    0.59663E-09   -0.81871E-08 12336   0.679E-04    0.689E-04
DAV:   9    -0.109155361374E+04   -0.53187E-08   -0.51649E-08 12336   0.513E-04    0.547E-04
DAV:  10    -0.109155361374E+04   -0.58353E-08   -0.40591E-08 12336   0.465E-04
  11 F= -.10915536E+04 E0= -.10914492E+04  d E =0.745905E+04
       N       E                     dE             d eps       ncg     rms          rms(c)
DAV:   1    -0.109155374801E+04   -0.13427E-03   -0.18629E-05 23904   0.755E-03    0.114E-03
DAV:   2    -0.109155374825E+04   -0.24329E-06   -0.11190E-06 12480   0.260E-03    0.319E-03
DAV:   3    -0.109155374829E+04   -0.36634E-07   -0.11466E-06 12480   0.236E-03    0.285E-03
DAV:   4    -0.109155374809E+04    0.19767E-06   -0.55193E-07 12336   0.167E-03    0.801E-04
DAV:   5    -0.109155374816E+04   -0.67623E-07   -0.24475E-07 12336   0.986E-04    0.166E-03
DAV:   6    -0.109155374810E+04    0.63206E-07   -0.23507E-07 12336   0.100E-03    0.694E-04
DAV:   7    -0.109155374810E+04    0.15425E-08   -0.55250E-08 12336   0.536E-04    0.507E-04
DAV:   8    -0.109155374810E+04   -0.65484E-10   -0.26245E-08 12336   0.370E-04    0.349E-04
DAV:   9    -0.109155374810E+04   -0.27067E-08   -0.18200E-08 12336   0.282E-04    0.309E-04
DAV:  10    -0.109155374810E+04   -0.19281E-08   -0.15861E-08 12336   0.290E-04
  12 F= -.10915537E+04 E0= -.10914494E+04  d E =0.745905E+04
       N       E                     dE             d eps       ncg     rms          rms(c)
DAV:   1    -0.109155381507E+04   -0.66969E-04   -0.46039E-06 21024   0.377E-03    0.622E-04
DAV:   2    -0.109155381514E+04   -0.69995E-07   -0.34908E-07 12336   0.154E-03    0.172E-03
DAV:   3    -0.109155381516E+04   -0.16575E-07   -0.34756E-07 12336   0.131E-03    0.159E-03
DAV:   4    -0.109155381510E+04    0.60390E-07   -0.16833E-07 12336   0.932E-04    0.408E-04
DAV:   5    -0.109155381511E+04   -0.12114E-07   -0.54466E-08 12336   0.487E-04    0.732E-04
DAV:   6    -0.109155381510E+04    0.85129E-08   -0.58852E-08 12336   0.498E-04    0.425E-04
DAV:   7    -0.109155381510E+04    0.11350E-08   -0.19970E-08 12336   0.310E-04    0.271E-04
DAV:   8    -0.109155381510E+04   -0.72760E-11   -0.89704E-09 12336   0.199E-04    0.196E-04
DAV:   9    -0.109155381510E+04   -0.72032E-09   -0.71101E-09 12336   0.162E-04    0.183E-04
DAV:  10    -0.109155381510E+04   -0.14188E-08   -0.64408E-09 12336   0.156E-04
  13 F= -.10915538E+04 E0= -.10914494E+04  d E =0.745905E+04
       N       E                     dE             d eps       ncg     rms          rms(c)
DAV:   1    -0.109155384865E+04   -0.33551E-04   -0.10090E-06 12240   0.189E-03    0.664E-04
DAV:   2    -0.109155384867E+04   -0.24113E-07   -0.18755E-07 12192   0.118E-03    0.854E-04
DAV:   3    -0.109155384875E+04   -0.73582E-07   -0.27679E-07 12192   0.109E-03    0.172E-03
DAV:   4    -0.109155384868E+04    0.66473E-07   -0.19968E-07 12192   0.994E-04    0.650E-04
DAV:   5    -0.109155384868E+04   -0.14479E-08   -0.50124E-08 12192   0.474E-04    0.623E-04
DAV:   6    -0.109155384867E+04    0.10303E-07   -0.34172E-08 12192   0.375E-04    0.258E-04
DAV:   7    -0.109155384867E+04   -0.91677E-09   -0.97513E-09 12192   0.201E-04    0.253E-04
DAV:   8    -0.109155384867E+04   -0.69122E-09   -0.59592E-09 12192   0.155E-04    0.161E-04
DAV:   9    -0.109155384867E+04    0.20373E-09   -0.40593E-09 12192   0.943E-05    0.137E-04
DAV:  10    -0.109155384867E+04   -0.28376E-09   -0.35472E-09 12192   0.973E-05
  14 F= -.10915538E+04 E0= -.10914495E+04  d E =0.745905E+04
       N       E                     dE             d eps       ncg     rms          rms(c)
DAV:   1    -0.109155386545E+04   -0.16781E-04   -0.24887E-07 12192   0.936E-04    0.320E-04
DAV:   2    -0.109155386546E+04   -0.41109E-08   -0.47820E-08 12192   0.588E-04    0.427E-04
DAV:   3    -0.109155386548E+04   -0.17586E-07   -0.61800E-08 12192   0.523E-04    0.798E-04
DAV:   4    -0.109155386546E+04    0.14516E-07   -0.46942E-08 12192   0.473E-04    0.306E-04
DAV:   5    -0.109155386546E+04    0.82218E-09   -0.12592E-08 12192   0.238E-04    0.279E-04
DAV:   6    -0.109155386546E+04    0.12151E-08   -0.96070E-09 12192   0.184E-04    0.151E-04
DAV:   7    -0.109155386546E+04   -0.49477E-09   -0.44800E-09 12192   0.117E-04    0.139E-04
DAV:   8    -0.109155386546E+04   -0.73487E-09   -0.31819E-09 12192   0.870E-05    0.889E-05
DAV:   9    -0.109155386546E+04    0.12733E-08   -0.27008E-09 12192   0.577E-05    0.775E-05
DAV:  10    -0.109155386546E+04   -0.80763E-09   -0.25869E-09 12192   0.609E-05
  15 F= -.10915539E+04 E0= -.10914495E+04  d E =0.745905E+04
       N       E                     dE             d eps       ncg     rms          rms(c)
DAV:   1    -0.109155387369E+04   -0.82298E-05   -0.64124E-08 12192   0.469E-04    0.159E-04
DAV:   2    -0.109155387369E+04   -0.12078E-08   -0.14096E-08 12192   0.305E-04    0.234E-04
DAV:   3    -0.109155387369E+04   -0.43947E-08   -0.17132E-08 12192   0.266E-04    0.396E-04
DAV:   4    -0.109155387369E+04    0.33106E-08   -0.13182E-08 12192   0.237E-04    0.153E-04
DAV:   5    -0.109155387369E+04    0.18190E-09   -0.40035E-09 12192   0.109E-04    0.107E-04
DAV:   6    -0.109155387369E+04   -0.72760E-10   -0.35660E-09 12192   0.863E-05    0.897E-05
DAV:   7    -0.109155387369E+04    0.32742E-09   -0.27299E-09 12192   0.661E-05    0.731E-05
DAV:   8    -0.109155387369E+04   -0.24738E-09   -0.22390E-09 12192   0.456E-05    0.484E-05
DAV:   9    -0.109155387369E+04   -0.62573E-09   -0.20769E-09 12192   0.298E-05    0.389E-05
DAV:  10    -0.109155387369E+04    0.80763E-09   -0.20479E-09 12192   0.316E-05
  16 F= -.10915539E+04 E0= -.10914495E+04  d E =0.745905E+04
       N       E                     dE             d eps       ncg     rms          rms(c)
DAV:   1    -0.109155387789E+04   -0.41939E-05   -0.17576E-08 12192   0.235E-04    0.801E-05
DAV:   2    -0.109155387789E+04   -0.85856E-09   -0.51788E-09 12192   0.158E-04    0.128E-04
DAV:   3    -0.109155387789E+04   -0.18917E-09   -0.56050E-09 12192   0.132E-04    0.182E-04
DAV:   4    -0.109155387789E+04    0.50932E-10   -0.45657E-09 12192   0.114E-04    0.761E-05
DAV:   5    -0.109155387789E+04    0.72760E-09   -0.26827E-09 12192   0.624E-05    0.793E-05
DAV:   6    -0.109155387789E+04   -0.10768E-08   -0.24906E-09 12192   0.495E-05    0.385E-05
DAV:   7    -0.109155387789E+04    0.10259E-08   -0.21076E-09 12192   0.290E-05    0.349E-05
DAV:   8    -0.109155387789E+04   -0.54570E-09   -0.19083E-09 12096   0.233E-05    0.260E-05
DAV:   9    -0.109155387789E+04   -0.29104E-10   -0.19447E-09 12048   0.169E-05    0.205E-05
DAV:  10    -0.109155387789E+04   -0.63301E-09   -0.20338E-09 12048   0.157E-05
  17 F= -.10915539E+04 E0= -.10914495E+04  d E =0.745905E+04
       N       E                     dE             d eps       ncg     rms          rms(c)
DAV:   1    -0.109155387998E+04   -0.20971E-05   -0.57193E-09 12048   0.117E-04    0.393E-05
DAV:   2    -0.109155387998E+04    0.45111E-09   -0.26516E-09 11952   0.764E-05    0.556E-05
DAV:   3    -0.109155387998E+04   -0.11496E-08   -0.28202E-09 11904   0.664E-05    0.101E-04
DAV:   4    -0.109155387998E+04    0.22555E-09   -0.26572E-09 11904   0.594E-05    0.357E-05
DAV:   5    -0.109155387998E+04   -0.37835E-09   -0.20190E-09 11904   0.271E-05    0.294E-05
DAV:   6    -0.109155387998E+04    0.14697E-08   -0.20961E-09 11904   0.227E-05    0.229E-05
DAV:   7    -0.109155387998E+04   -0.11350E-08   -0.18650E-09 11904   0.170E-05    0.191E-05
DAV:   8    -0.109155387998E+04    0.39290E-09   -0.19320E-09 11904   0.122E-05    0.127E-05
DAV:   9    -0.109155387998E+04    0.24738E-09   -0.19399E-09 11904   0.761E-06    0.971E-06
DAV:  10    -0.109155387998E+04   -0.75670E-09   -0.19284E-09 11904   0.786E-06
  18 F= -.10915539E+04 E0= -.10914495E+04  d E =0.745905E+04
       N       E                     dE             d eps       ncg     rms          rms(c)
DAV:   1    -0.109155388103E+04   -0.10496E-05   -0.28669E-09 11904   0.589E-05    0.201E-05
DAV:   2    -0.109155388103E+04    0.50932E-09   -0.21587E-09 11904   0.376E-05    0.276E-05
DAV:   3    -0.109155388103E+04   -0.50204E-09   -0.19998E-09 11904   0.327E-05    0.488E-05
DAV:   4    -0.109155388103E+04   -0.32742E-09   -0.20974E-09 11904   0.297E-05    0.189E-05
DAV:   5    -0.109155388103E+04   -0.29104E-09   -0.20212E-09 11904   0.156E-05    0.204E-05
DAV:   6    -0.109155388103E+04    0.10623E-08   -0.19872E-09 11904   0.128E-05    0.997E-06
DAV:   7    -0.109155388103E+04    0.14552E-10   -0.17633E-09 11904   0.767E-06    0.907E-06
DAV:   8    -0.109155388103E+04   -0.12515E-08   -0.19249E-09 11904   0.610E-06    0.607E-06
DAV:   9    -0.109155388103E+04    0.37107E-09   -0.19256E-09 11904   0.402E-06    0.483E-06
DAV:  10    -0.109155388103E+04    0.53842E-09   -0.18261E-09 11904   0.398E-06
  19 F= -.10915539E+04 E0= -.10914495E+04  d E =0.745905E+04
       N       E                     dE             d eps       ncg     rms          rms(c)
DAV:   1    -0.109157114670E+04   -0.17266E-01   -0.27879E+01 21744   0.924E+00    0.138E+00
DAV:   2    -0.109202929632E+04   -0.45815E+00   -0.23760E+00 30672   0.327E+00    0.434E+00
DAV:   3    -0.109201876769E+04    0.10529E-01   -0.20158E+00 31008   0.237E+00    0.381E+00
DAV:   4    -0.109168862272E+04    0.33014E+00   -0.99222E-01 27888   0.184E+00    0.112E+00
DAV:   5    -0.109173526517E+04   -0.46642E-01   -0.24635E-01 27792   0.832E-01    0.160E+00
DAV:   6    -0.109168507605E+04    0.50189E-01   -0.21379E-01 27984   0.804E-01    0.846E-01
DAV:   7    -0.109167770673E+04    0.73693E-02   -0.66245E-02 27840   0.431E-01    0.587E-01
DAV:   8    -0.109167926634E+04   -0.15596E-02   -0.38521E-02 28560   0.381E-01    0.542E-01
DAV:   9    -0.109167651926E+04    0.27471E-02   -0.37683E-02 29040   0.343E-01    0.408E-01
DAV:  10    -0.109167436112E+04    0.21581E-02   -0.18696E-02 30768   0.240E-01    0.260E-01
DAV:  11    -0.109167373011E+04    0.63101E-03   -0.82042E-03 29424   0.144E-01    0.161E-01
DAV:  12    -0.109167342421E+04    0.30590E-03   -0.26906E-03 28608   0.880E-02    0.919E-02
DAV:  13    -0.109167333176E+04    0.92445E-04   -0.96836E-04 28848   0.495E-02    0.598E-02
DAV:  14    -0.109167331998E+04    0.11781E-04   -0.47618E-04 28656   0.373E-02    0.470E-02
DAV:  15    -0.109167330787E+04    0.12111E-04   -0.33576E-04 27936   0.303E-02    0.358E-02
DAV:  16    -0.109167328939E+04    0.18483E-04   -0.15631E-04 27216   0.227E-02    0.215E-02
DAV:  17    -0.109167328473E+04    0.46563E-05   -0.74996E-05 27408   0.137E-02    0.138E-02
DAV:  18    -0.109167328271E+04    0.20256E-05   -0.29554E-05 26400   0.895E-03    0.896E-03
DAV:  19    -0.109167328196E+04    0.74785E-06   -0.11912E-05 23136   0.536E-03    0.564E-03
DAV:  20    -0.109167328176E+04    0.19401E-06   -0.49095E-06 20496   0.366E-03
  20 F= -.10916733E+04 E0= -.10915694E+04  d E =0.745893E+04
