Ta32 Ti34 Nb32 W10
1.0
   9.1216997255111210    0.0000000000000000    0.0000000000000000
   0.0000000000000000    8.3788097184575001    0.0000000000000000
   0.0000000000000000   -2.3274489494153769   23.6988662189480195
Ta Ti Nb W
32 34 32 10
Selective dynamics
direct
   0.4994571676000188    0.2839903673653225    0.2221844125832531 F F T Ta
   0.0007011838891362    0.2838037118643127    0.2222969547399315 F F T Ta
   0.2495600548973154    0.2373202268291985    0.0552218671863136 F F T Ta
   0.4999658814041453    0.8083197493769172    0.1106250486140423 F F T Ta
   0.0000479543384657    0.4754509635799771    0.1107595639448087 F F T Ta
   0.0014814358292294    0.5682470477067902    0.4441870424789326 F F T Ta
   0.2504715557544857    0.9471145492212103    0.6108685672411065 F F T Ta
   0.0006088878015314    0.6666107930344621    0.0000564157924039 F F T Ta
   0.7506980600066611    0.7004703889622879    0.7223370811846667 F F T Ta
   0.4998717066019089    0.7593446827830219    0.3332488289665618 F F T Ta
   0.2497759176542704    1.0335964456075053    0.7219820401393814 F F T Ta
  -0.0001538777245262    0.4944837441952995    0.7776772436159906 F F T Ta
   0.0005745086022187    0.5189106892780866    0.6665706801487550 F F T Ta
   0.2495106240223294    0.6206188307789122    0.8333599043358833 F F T Ta
   0.7497640967820619    0.2808365933322369    0.6113127594073537 F F T Ta
   0.0012324422402965    0.8515876887297672    0.6667589202653421 F F T Ta
   0.2498146343417189    0.8550675836045496    0.2778721876399691 F F T Ta
   0.4992161048643542    0.8521638809585382    0.6663259174694899 F F T Ta
   0.5003964755988403    0.8274541751243618    0.7779960255058993 F F T Ta
   0.4996118710759145   -0.0011317288949414    0.0002092495871261 F F T Ta
   0.5001801896752340    0.1604389942858061    0.7777102048961968 F F T Ta
   0.4999855333282915    0.4257116860077846    0.3335002845253261 F F T Ta
   0.0003203214657926    0.9507018701802252    0.2222758329792449 F F T Ta
   0.2491167970940612    0.6638729829335694    0.3892463970274340 F F T Ta
   0.4995821383535909    0.6670076935255270    0.0000962085192487 F F T Ta
   0.7502763096117065    0.6149916753660472    0.6108467221356220 F F T Ta
   0.7504420632422223    0.9472523659505820    0.6109905865278420 F F T Ta
   0.0002089534286128    0.1418106027592589    0.1106420942708451 F F T Ta
   0.2497824446881278   -0.0466066598080031    0.8332720978506815 F F T Ta
   0.5009183035403245    0.5251561668102593    0.8896547066660992 F F T Ta
  -0.0002256248757224    0.8592920466592664    0.8894052059858858 F F T Ta
   0.2499611531302305    0.5212128639983167    0.2777786518139822 F F T Ta
   0.4993217237138038    0.7101958954316994    0.5558412334762918 F F T Ti
   0.0006181661184688    1.0433186934096927    0.5556698044370203 F F T Ti
   0.5000270802090673    0.5180360431448607    0.6666470210034284 F F T Ti
   0.7503350559090847    0.2373688608287253    0.0554064020510288 F F T Ti
   0.5001069796275747    0.2347389603554915    0.4442993439930025 F F T Ti
   0.7500853215986627    0.8549000222366027    0.2778550345578690 F F T Ti
   0.7501204241673179    0.1882480315945002    0.2779134634888824 F F T Ti
   0.7498964864102219    0.0461264016295775    0.1665200910555622 F F T Ti
  -0.0000511899232333    0.5249110280491839    0.8887023250580404 F F T Ti
   0.7485847158406278    0.9979226780175922    0.3890418402806057 F F T Ti
   0.5000746504558943    0.8575270968004106    0.8896041809652653 F F T Ti
   0.4998462243517314    0.3339846876002964   -0.0000119449792834 F F T Ti
   0.5002779828903824    0.1914858762484576    0.8889666155683655 F F T Ti
   0.0004289236194867    0.7596034855066051    0.3334865845305007 F F T Ti
   0.7492359320902069    0.3300547770750810    0.3892039890393464 F F T Ti
   0.4990507496593882    0.9023924327501580    0.4445007074576243 F F T Ti
   0.7504724678271103    0.0957163905328143    0.9444180717995363 F F T Ti
   0.7502944376332240    1.0345155366500056    0.7222225599458375 F F T Ti
   0.2495517935165419    0.7004363181414431    0.7218703431924005 F F T Ti
   0.2492706110137771    0.9973953487389421    0.3894639861429106 F F T Ti
   0.0004841176504550    0.3766150384494703    0.5558272347654557 F F T Ti
   0.4998581739266997    0.1416144945564800    0.1107399222769636 F F T Ti
   0.7495056616346191    0.6634769404354358    0.3890133779922089 F F T Ti
   0.7498974037428945    0.7622962548141209    0.9442398911268398 F F T Ti
   0.7502289433568059    0.8057688083120604    0.4998680576375514 F F T Ti
   0.2498951653222598    0.2869466811385605    0.8333550674743501 F F T Ti
   0.0007319690377400    0.0923497969896392    0.3333241389969969 F F T Ti
   0.5005552856449084    0.6170717719788147    0.2219207200823024 F F T Ti
   0.7498102399859732    0.4719763049707739    0.4999738191343905 F F T Ti
   0.5003063270432624    0.4936734016153239    0.7778945817211680 F F T Ti
   0.0003011545578601    0.4257926422893422    0.3333297782578192 F F T Ti
   0.2500659537346776    0.3796654779156581    0.1666646156521340 F F T Ti
   0.0004593157159999    0.7098554365223784    0.5556994616071530 F F T Ti
   0.7499589664007379    0.5217941379282575    0.2778279007604584 F F T Ti
   0.0034042081272116    0.9014813665986285    0.4443379516513961 F F T Nb
  -0.0007955497985423    0.1891264199583925    0.8889021362158046 F F T Nb
   0.4998168687279926    0.4758276788938482    0.1108445805938887 F F T Nb
   0.2529331584649590    0.1369847352285642    0.4991768249129459 F F T Nb
   0.4975832870308235    0.3752023854215177    0.5556765570889036 F F T Nb
   0.2514682671844912    0.3675053134976789    0.7228563909179352 F F T Nb
   0.7498894854668198    0.1387065610496428    0.4999650255851756 F F T Nb
  -0.0000199308522110    0.0000606578435656   -0.0001746784517552 F F T Nb
   0.7503600807643558    0.6207463688955470    0.8337254542792184 F F T Nb
   0.7513694862986319    0.3660128937371112    0.7229465459648501 F F T Nb
   0.2501330520519929    0.8067654164982353    0.4998775633385416 F F T Nb
   0.2504580636488039    0.7616524257992773    0.9442539053911181 F F T Nb
   0.2492790023416740    0.4707052621465760    0.4994514799096101 F F T Nb
   0.0009289644364851    0.3332892123612951   -0.0000259359246489 F F T Nb
  -0.0000702346542182    0.8084475212525403    0.1113915522971861 F F T Nb
   0.7487214725870281    0.9054167482855066    0.0557467007561002 F F T Nb
   0.5005938200933709    0.0926778242811957    0.3337247156851078 F F T Nb
   0.5008810097877678    0.5695287610277773    0.4439628845172769 F F T Nb
   0.7495892499498003    0.2865823746500417    0.8331660554124600 F F T Nb
   0.7500503501359642   -0.0490129979280120    0.8334601901535476 F F T Nb
   0.0003188102599387    0.6172491846035797    0.2220188481800910 F F T Nb
  -0.0013161395295951    0.1843469068297742    0.6670689401932420 F F T Nb
   0.7498685242076365    0.5712020929822509    0.0555269802144306 F F T Nb
   0.4996707942471540    0.9503089898007668    0.2222487277888263 F F T Nb
   0.7498829497651244    0.3799089560602052    0.1665311362689704 F F T Nb
   0.4957225303476437    1.0442581107116566    0.5552737998694196 F F T Nb
   0.2511062279074470    0.9043894371975350    0.0552915934497340 F F T Nb
   0.0012608868751333    0.2342319118332547    0.4442796182522069 F F T Nb
   0.2500160050277864    0.0462893955436756    0.1666748385297163 F F T Nb
   0.2483608885329880    0.6171329056968862    0.6106357076716401 F F T Nb
   0.2507630857270932    0.2802838756714938    0.6104611992979506 F F T Nb
   0.7475495221513716    0.4294146174205415    0.9445207599043237 F F T Nb
   0.2500587314067091    0.5709787030040619    0.0553548956246068 F F T W
   0.2494184020951366    0.0956516221431201    0.9448121444358643 F F T W
   0.2502745500970799    0.7129457837527121    0.1666768861842307 F F T W
   0.2494411266852071    0.1891795407762003    0.2777928376900672 F F T W
  -0.0000370588735282    0.8263327411160959    0.7778233066028649 F F T W
   0.2493584891262904    0.3295991586789038    0.3895648227731496 F F T W
  -0.0004602528333926    0.1607374958894934    0.7776907264989419 F F T W
   0.2498069767961148    0.4293923273608977    0.9448492218075097 F F T W
   0.7499436562060972    0.7127599458156446    0.1665267452015047 F F T W
   0.4996546992342818    0.1861596720786162    0.6665379891809190 F F T W
