unknown system                          
           1
     9.121700    0.000000    0.000000
     0.000000    8.378810    0.000000
     0.000000   -2.327449   23.698866
   Ta   Ti   Nb   W 
  32  34  32  10
Direct configuration=     1
   0.49945717  0.28399037  0.22218441
   0.00070118  0.28380371  0.22229695
   0.24956005  0.23732023  0.05522187
   0.49996588  0.80831975  0.11062505
   0.00004795  0.47545096  0.11075956
   0.00148144  0.56824705  0.44418704
   0.25047156  0.94711455  0.61086857
   0.00060889  0.66661079  0.00005642
   0.75069806  0.70047039  0.72233708
   0.49987171  0.75934468  0.33324883
   0.24977592  0.03359645  0.72198204
   0.99984612  0.49448374  0.77767724
   0.00057451  0.51891069  0.66657068
   0.24951062  0.62061883  0.83335990
   0.74976410  0.28083659  0.61131276
   0.00123244  0.85158769  0.66675892
   0.24981463  0.85506758  0.27787219
   0.49921610  0.85216388  0.66632592
   0.50039648  0.82745418  0.77799603
   0.49961187  0.99886827  0.00020925
   0.50018019  0.16043899  0.77771020
   0.49998553  0.42571169  0.33350028
   0.00032032  0.95070187  0.22227583
   0.24911680  0.66387298  0.38924640
   0.49958214  0.66700769  0.00009621
   0.75027631  0.61499168  0.61084672
   0.75044206  0.94725237  0.61099059
   0.00020895  0.14181060  0.11064209
   0.24978244  0.95339334  0.83327210
   0.50091830  0.52515617  0.88965471
   0.99977438  0.85929205  0.88940521
   0.24996115  0.52121286  0.27777865
   0.49932172  0.71019590  0.55584123
   0.00061817  0.04331869  0.55566980
   0.50002708  0.51803604  0.66664702
   0.75033506  0.23736886  0.05540640
   0.50010698  0.23473896  0.44429934
   0.75008532  0.85490002  0.27785503
   0.75012042  0.18824803  0.27791346
   0.74989649  0.04612640  0.16652009
   0.99994881  0.52491103  0.88870233
   0.74858472  0.99792268  0.38904184
   0.50007465  0.85752710  0.88960418
   0.49984622  0.33398469  0.99998806
   0.50027798  0.19148588  0.88896662
   0.00042892  0.75960349  0.33348658
   0.74923593  0.33005478  0.38920399
   0.49905075  0.90239243  0.44450071
   0.75047247  0.09571639  0.94441807
   0.75029444  0.03451554  0.72222256
   0.24955179  0.70043632  0.72187034
   0.24927061  0.99739535  0.38946399
   0.00048412  0.37661504  0.55582723
   0.49985817  0.14161449  0.11073992
   0.74950566  0.66347694  0.38901338
   0.74989740  0.76229625  0.94423989
   0.75022894  0.80576881  0.49986806
   0.24989517  0.28694668  0.83335507
   0.00073197  0.09234980  0.33332414
   0.50055529  0.61707177  0.22192072
   0.74981024  0.47197630  0.49997382
   0.50030633  0.49367340  0.77789458
   0.00030115  0.42579264  0.33332978
   0.25006595  0.37966548  0.16666462
   0.00045932  0.70985544  0.55569946
   0.74995897  0.52179414  0.27782790
   0.00340421  0.90148137  0.44433795
   0.99920445  0.18912642  0.88890214
   0.49981687  0.47582768  0.11084458
   0.25293316  0.13698474  0.49917682
   0.49758329  0.37520239  0.55567656
   0.25146827  0.36750531  0.72285639
   0.74988949  0.13870656  0.49996503
   0.99998007  0.00006066  0.99982532
   0.75036008  0.62074637  0.83372545
   0.75136949  0.36601289  0.72294655
   0.25013305  0.80676542  0.49987756
   0.25045806  0.76165243  0.94425391
   0.24927900  0.47070526  0.49945148
   0.00092896  0.33328921  0.99997406
   0.99992977  0.80844752  0.11139155
   0.74872147  0.90541675  0.05574670
   0.50059382  0.09267782  0.33372472
   0.50088101  0.56952876  0.44396288
   0.74958925  0.28658237  0.83316606
   0.75005035  0.95098700  0.83346019
   0.00031881  0.61724918  0.22201885
   0.99868386  0.18434691  0.66706894
   0.74986852  0.57120209  0.05552698
   0.49967079  0.95030899  0.22224873
   0.74988295  0.37990896  0.16653114
   0.49572253  0.04425811  0.55527380
   0.25110623  0.90438944  0.05529159
   0.00126089  0.23423191  0.44427962
   0.25001601  0.04628940  0.16667484
   0.24836089  0.61713291  0.61063571
   0.25076309  0.28028388  0.61046120
   0.74754952  0.42941462  0.94452076
   0.25005873  0.57097870  0.05535490
   0.24941840  0.09565162  0.94481214
   0.25027455  0.71294578  0.16667689
   0.24944113  0.18917954  0.27779284
   0.99996294  0.82633274  0.77782331
   0.24935849  0.32959916  0.38956482
   0.99953975  0.16073750  0.77769073
   0.24980698  0.42939233  0.94484922
   0.74994366  0.71275995  0.16652675
   0.49965470  0.18615967  0.66653799
Direct configuration=     2
   0.49945717  0.28399037  0.22166862
   0.00070118  0.28380371  0.22217780
   0.24956005  0.23732023  0.05503167
   0.49996588  0.80831975  0.11013714
   0.00004795  0.47545096  0.11033266
   0.00148144  0.56824705  0.44446302
   0.25047156  0.94711455  0.61066369
   0.00060889  0.66661079  0.00047687
   0.75069806  0.70047039  0.72233800
   0.49987171  0.75934468  0.33316631
   0.24977592  0.03359645  0.72239593
   0.99984612  0.49448374  0.77780169
   0.00057451  0.51891069  0.66667131
   0.24951062  0.62061883  0.83292466
   0.74976410  0.28083659  0.61096700
   0.00123244  0.85158769  0.66736024
   0.24981463  0.85506758  0.27783874
   0.49921610  0.85216388  0.66634818
   0.50039648  0.82745418  0.77848592
   0.49961187  0.99886827  0.00088394
   0.50018019  0.16043899  0.77823451
   0.49998553  0.42571169  0.33339342
   0.00032032  0.95070187  0.22159281
   0.24911680  0.66387298  0.38962396
   0.49958214  0.66700769  0.00059075
   0.75027631  0.61499168  0.61089493
   0.75044206  0.94725237  0.61074922
   0.00020895  0.14181060  0.10998982
   0.24978244  0.95339334  0.83276508
   0.50091830  0.52515617  0.88921416
   0.99977438  0.85929205  0.88917909
   0.24996115  0.52121286  0.27748833
   0.49932172  0.71019590  0.55622928
   0.00061817  0.04331869  0.55537818
   0.50002708  0.51803604  0.66662699
   0.75033506  0.23736886  0.05542361
   0.50010698  0.23473896  0.44443971
   0.75008532  0.85490002  0.27786952
   0.75012042  0.18824803  0.27797266
   0.74989649  0.04612640  0.16645004
   0.99994881  0.52491103  0.88840091
   0.74858472  0.99792268  0.38899299
   0.50007465  0.85752710  0.88923669
   0.49984622  0.33398469  0.00022719
   0.50027798  0.19148588  0.88849813
   0.00042892  0.75960349  0.33341157
   0.74923593  0.33005478  0.38920176
   0.49905075  0.90239243  0.44470752
   0.75047247  0.09571639  0.94465990
   0.75029444  0.03451554  0.72235605
   0.24955179  0.70043632  0.72225336
   0.24927061  0.99739535  0.38936127
   0.00048412  0.37661504  0.55535721
   0.49985817  0.14161449  0.11041861
   0.74950566  0.66347694  0.38901252
   0.74989740  0.76229625  0.94450917
   0.75022894  0.80576881  0.50027490
   0.24989517  0.28694668  0.83323347
   0.00073197  0.09234980  0.33335004
   0.50055529  0.61707177  0.22175892
   0.74981024  0.47197630  0.50018498
   0.50030633  0.49367340  0.77798204
   0.00030115  0.42579264  0.33325831
   0.25006595  0.37966548  0.16662665
   0.00045932  0.70985544  0.55520653
   0.74995897  0.52179414  0.27783880
   0.00340421  0.90148137  0.44488412
   0.99920445  0.18912642  0.88893337
   0.49981687  0.47582768  0.11055008
   0.25293316  0.13698474  0.49901595
   0.49758329  0.37520239  0.55528731
   0.25146827  0.36750531  0.72267636
   0.74988949  0.13870656  0.50026891
   0.99998007  0.00006066  0.00034349
   0.75036008  0.62074637  0.83374215
   0.75136949  0.36601289  0.72283214
   0.25013305  0.80676542  0.49991305
   0.25045806  0.76165243  0.94457795
   0.24927900  0.47070526  0.49925366
   0.00092896  0.33328921  0.00071422
   0.99992977  0.80844752  0.11224901
   0.74872147  0.90541675  0.05654312
   0.50059382  0.09267782  0.33382726
   0.50088101  0.56952876  0.44447977
   0.74958925  0.28658237  0.83311221
   0.75005035  0.95098700  0.83337232
   0.00031881  0.61724918  0.22156628
   0.99868386  0.18434691  0.66660351
   0.74986852  0.57120209  0.05562965
   0.49967079  0.95030899  0.22216764
   0.74988295  0.37990896  0.16596419
   0.49572253  0.04425811  0.55487534
   0.25110623  0.90438944  0.05530945
   0.00126089  0.23423191  0.44485669
   0.25001601  0.04628940  0.16601251
   0.24836089  0.61713291  0.61059626
   0.25076309  0.28028388  0.61012709
   0.74754952  0.42941462  0.94533974
   0.25005873  0.57097870  0.05539866
   0.24941840  0.09565162  0.94546888
   0.25027455  0.71294578  0.16596991
   0.24944113  0.18917954  0.27770576
   0.99996294  0.82633274  0.77702701
   0.24935849  0.32959916  0.39017927
   0.99953975  0.16073750  0.77801719
   0.24980698  0.42939233  0.94550352
   0.74994366  0.71275995  0.16591867
   0.49965470  0.18615967  0.66662493
Direct configuration=     3
   0.49945717  0.28399037  0.22155593
   0.00070118  0.28380371  0.22215176
   0.24956005  0.23732023  0.05499011
   0.49996588  0.80831975  0.11003054
   0.00004795  0.47545096  0.11023940
   0.00148144  0.56824705  0.44452331
   0.25047156  0.94711455  0.61061893
   0.00060889  0.66661079  0.00056873
   0.75069806  0.70047039  0.72233820
   0.49987171  0.75934468  0.33314829
   0.24977592  0.03359645  0.72248635
   0.99984612  0.49448374  0.77782888
   0.00057451  0.51891069  0.66669329
   0.24951062  0.62061883  0.83282957
   0.74976410  0.28083659  0.61089146
   0.00123244  0.85158769  0.66749161
   0.24981463  0.85506758  0.27783143
   0.49921610  0.85216388  0.66635305
   0.50039648  0.82745418  0.77859294
   0.49961187  0.99886827  0.00103134
   0.50018019  0.16043899  0.77834906
   0.49998553  0.42571169  0.33337007
   0.00032032  0.95070187  0.22144359
   0.24911680  0.66387298  0.38970645
   0.49958214  0.66700769  0.00069879
   0.75027631  0.61499168  0.61090546
   0.75044206  0.94725237  0.61069649
   0.00020895  0.14181060  0.10984732
   0.24978244  0.95339334  0.83265431
   0.50091830  0.52515617  0.88911792
   0.99977438  0.85929205  0.88912969
   0.24996115  0.52121286  0.27742491
   0.49932172  0.71019590  0.55631406
   0.00061817  0.04331869  0.55531447
   0.50002708  0.51803604  0.66662261
   0.75033506  0.23736886  0.05542737
   0.50010698  0.23473896  0.44447037
   0.75008532  0.85490002  0.27787269
   0.75012042  0.18824803  0.27798559
   0.74989649  0.04612640  0.16643473
   0.99994881  0.52491103  0.88833506
   0.74858472  0.99792268  0.38898232
   0.50007465  0.85752710  0.88915641
   0.49984622  0.33398469  0.00027943
   0.50027798  0.19148588  0.88839578
   0.00042892  0.75960349  0.33339519
   0.74923593  0.33005478  0.38920127
   0.49905075  0.90239243  0.44475270
   0.75047247  0.09571639  0.94471273
   0.75029444  0.03451554  0.72238522
   0.24955179  0.70043632  0.72233704
   0.24927061  0.99739535  0.38933883
   0.00048412  0.37661504  0.55525453
   0.49985817  0.14161449  0.11034842
   0.74950566  0.66347694  0.38901234
   0.74989740  0.76229625  0.94456800
   0.75022894  0.80576881  0.50036378
   0.24989517  0.28694668  0.83320691
   0.00073197  0.09234980  0.33335570
   0.50055529  0.61707177  0.22172357
   0.74981024  0.47197630  0.50023111
   0.50030633  0.49367340  0.77800114
   0.00030115  0.42579264  0.33324269
   0.25006595  0.37966548  0.16661836
   0.00045932  0.70985544  0.55509884
   0.74995897  0.52179414  0.27784118
   0.00340421  0.90148137  0.44500344
   0.99920445  0.18912642  0.88894020
   0.49981687  0.47582768  0.11048575
   0.25293316  0.13698474  0.49898080
   0.49758329  0.37520239  0.55520227
   0.25146827  0.36750531  0.72263703
   0.74988949  0.13870656  0.50033530
   0.99998007  0.00006066  0.00045670
   0.75036008  0.62074637  0.83374580
   0.75136949  0.36601289  0.72280715
   0.25013305  0.80676542  0.49992080
   0.25045806  0.76165243  0.94464875
   0.24927900  0.47070526  0.49921044
   0.00092896  0.33328921  0.00087593
   0.99992977  0.80844752  0.11243633
   0.74872147  0.90541675  0.05671712
   0.50059382  0.09267782  0.33384966
   0.50088101  0.56952876  0.44459269
   0.74958925  0.28658237  0.83310045
   0.75005035  0.95098700  0.83335312
   0.00031881  0.61724918  0.22146741
   0.99868386  0.18434691  0.66650183
   0.74986852  0.57120209  0.05565208
   0.49967079  0.95030899  0.22214993
   0.74988295  0.37990896  0.16584034
   0.49572253  0.04425811  0.55478829
   0.25110623  0.90438944  0.05531335
   0.00126089  0.23423191  0.44498277
   0.25001601  0.04628940  0.16586781
   0.24836089  0.61713291  0.61058764
   0.25076309  0.28028388  0.61005410
   0.74754952  0.42941462  0.94551866
   0.25005873  0.57097870  0.05540822
   0.24941840  0.09565162  0.94561235
   0.25027455  0.71294578  0.16581545
   0.24944113  0.18917954  0.27768674
   0.99996294  0.82633274  0.77685305
   0.24935849  0.32959916  0.39031351
   0.99953975  0.16073750  0.77808851
   0.24980698  0.42939233  0.94564646
   0.74994366  0.71275995  0.16578583
   0.49965470  0.18615967  0.66664392
Direct configuration=     4
   0.49945717  0.28399037  0.22156092
   0.00070118  0.28380371  0.22215292
   0.24956005  0.23732023  0.05499195
   0.49996588  0.80831975  0.11003527
   0.00004795  0.47545096  0.11024353
   0.00148144  0.56824705  0.44452064
   0.25047156  0.94711455  0.61062091
   0.00060889  0.66661079  0.00056466
   0.75069806  0.70047039  0.72233820
   0.49987171  0.75934468  0.33314908
   0.24977592  0.03359645  0.72248234
   0.99984612  0.49448374  0.77782768
   0.00057451  0.51891069  0.66669232
   0.24951062  0.62061883  0.83283379
   0.74976410  0.28083659  0.61089481
   0.00123244  0.85158769  0.66748578
   0.24981463  0.85506758  0.27783175
   0.49921610  0.85216388  0.66635283
   0.50039648  0.82745418  0.77858820
   0.49961187  0.99886827  0.00102481
   0.50018019  0.16043899  0.77834398
   0.49998553  0.42571169  0.33337110
   0.00032032  0.95070187  0.22145020
   0.24911680  0.66387298  0.38970279
   0.49958214  0.66700769  0.00069400
   0.75027631  0.61499168  0.61090499
   0.75044206  0.94725237  0.61069882
   0.00020895  0.14181060  0.10985363
   0.24978244  0.95339334  0.83265922
   0.50091830  0.52515617  0.88912218
   0.99977438  0.85929205  0.88913188
   0.24996115  0.52121286  0.27742772
   0.49932172  0.71019590  0.55631030
   0.00061817  0.04331869  0.55531730
   0.50002708  0.51803604  0.66662281
   0.75033506  0.23736886  0.05542721
   0.50010698  0.23473896  0.44446901
   0.75008532  0.85490002  0.27787255
   0.75012042  0.18824803  0.27798502
   0.74989649  0.04612640  0.16643541
   0.99994881  0.52491103  0.88833798
   0.74858472  0.99792268  0.38898279
   0.50007465  0.85752710  0.88915997
   0.49984622  0.33398469  0.00027712
   0.50027798  0.19148588  0.88840032
   0.00042892  0.75960349  0.33339591
   0.74923593  0.33005478  0.38920129
   0.49905075  0.90239243  0.44475069
   0.75047247  0.09571639  0.94471039
   0.75029444  0.03451554  0.72238393
   0.24955179  0.70043632  0.72233333
   0.24927061  0.99739535  0.38933983
   0.00048412  0.37661504  0.55525908
   0.49985817  0.14161449  0.11035153
   0.74950566  0.66347694  0.38901234
   0.74989740  0.76229625  0.94456539
   0.75022894  0.80576881  0.50035984
   0.24989517  0.28694668  0.83320809
   0.00073197  0.09234980  0.33335545
   0.50055529  0.61707177  0.22172514
   0.74981024  0.47197630  0.50022907
   0.50030633  0.49367340  0.77800030
   0.00030115  0.42579264  0.33324339
   0.25006595  0.37966548  0.16661873
   0.00045932  0.70985544  0.55510361
   0.74995897  0.52179414  0.27784108
   0.00340421  0.90148137  0.44499815
   0.99920445  0.18912642  0.88893989
   0.49981687  0.47582768  0.11048860
   0.25293316  0.13698474  0.49898236
   0.49758329  0.37520239  0.55520604
   0.25146827  0.36750531  0.72263878
   0.74988949  0.13870656  0.50033236
   0.99998007  0.00006066  0.00045168
   0.75036008  0.62074637  0.83374563
   0.75136949  0.36601289  0.72280825
   0.25013305  0.80676542  0.49992045
   0.25045806  0.76165243  0.94464561
   0.24927900  0.47070526  0.49921235
   0.00092896  0.33328921  0.00086876
   0.99992977  0.80844752  0.11242803
   0.74872147  0.90541675  0.05670941
   0.50059382  0.09267782  0.33384867
   0.50088101  0.56952876  0.44458769
   0.74958925  0.28658237  0.83310097
   0.75005035  0.95098700  0.83335397
   0.00031881  0.61724918  0.22147179
   0.99868386  0.18434691  0.66650634
   0.74986852  0.57120209  0.05565108
   0.49967079  0.95030899  0.22215071
   0.74988295  0.37990896  0.16584583
   0.49572253  0.04425811  0.55479215
   0.25110623  0.90438944  0.05531318
   0.00126089  0.23423191  0.44497718
   0.25001601  0.04628940  0.16587422
   0.24836089  0.61713291  0.61058802
   0.25076309  0.28028388  0.61005733
   0.74754952  0.42941462  0.94551073
   0.25005873  0.57097870  0.05540779
   0.24941840  0.09565162  0.94560599
   0.25027455  0.71294578  0.16582230
   0.24944113  0.18917954  0.27768758
   0.99996294  0.82633274  0.77686076
   0.24935849  0.32959916  0.39030756
   0.99953975  0.16073750  0.77808535
   0.24980698  0.42939233  0.94564013
   0.74994366  0.71275995  0.16579171
   0.49965470  0.18615967  0.66664308
Direct configuration=     5
   0.49945717  0.28399037  0.22161477
   0.00070118  0.28380371  0.22216536
   0.24956005  0.23732023  0.05501181
   0.49996588  0.80831975  0.11008620
   0.00004795  0.47545096  0.11028810
   0.00148144  0.56824705  0.44449183
   0.25047156  0.94711455  0.61064230
   0.00060889  0.66661079  0.00052077
   0.75069806  0.70047039  0.72233810
   0.49987171  0.75934468  0.33315770
   0.24977592  0.03359645  0.72243913
   0.99984612  0.49448374  0.77781469
   0.00057451  0.51891069  0.66668181
   0.24951062  0.62061883  0.83287922
   0.74976410  0.28083659  0.61093091
   0.00123244  0.85158769  0.66742301
   0.24981463  0.85506758  0.27783524
   0.49921610  0.85216388  0.66635051
   0.50039648  0.82745418  0.77853706
   0.49961187  0.99886827  0.00095438
   0.50018019  0.16043899  0.77828925
   0.49998553  0.42571169  0.33338226
   0.00032032  0.95070187  0.22152150
   0.24911680  0.66387298  0.38966338
   0.49958214  0.66700769  0.00064238
   0.75027631  0.61499168  0.61089996
   0.75044206  0.94725237  0.61072402
   0.00020895  0.14181060  0.10992173
   0.24978244  0.95339334  0.83271215
   0.50091830  0.52515617  0.88916817
   0.99977438  0.85929205  0.88915549
   0.24996115  0.52121286  0.27745802
   0.49932172  0.71019590  0.55626979
   0.00061817  0.04331869  0.55534774
   0.50002708  0.51803604  0.66662490
   0.75033506  0.23736886  0.05542541
   0.50010698  0.23473896  0.44445436
   0.75008532  0.85490002  0.27787103
   0.75012042  0.18824803  0.27797884
   0.74989649  0.04612640  0.16644272
   0.99994881  0.52491103  0.88836945
   0.74858472  0.99792268  0.38898789
   0.50007465  0.85752710  0.88919833
   0.49984622  0.33398469  0.00025215
   0.50027798  0.19148588  0.88844922
   0.00042892  0.75960349  0.33340374
   0.74923593  0.33005478  0.38920153
   0.49905075  0.90239243  0.44472910
   0.75047247  0.09571639  0.94468515
   0.75029444  0.03451554  0.72236999
   0.24955179  0.70043632  0.72229334
   0.24927061  0.99739535  0.38935055
   0.00048412  0.37661504  0.55530815
   0.49985817  0.14161449  0.11038507
   0.74950566  0.66347694  0.38901243
   0.74989740  0.76229625  0.94453728
   0.75022894  0.80576881  0.50031737
   0.24989517  0.28694668  0.83322078
   0.00073197  0.09234980  0.33335275
   0.50055529  0.61707177  0.22174203
   0.74981024  0.47197630  0.50020702
   0.50030633  0.49367340  0.77799117
   0.00030115  0.42579264  0.33325085
   0.25006595  0.37966548  0.16662269
   0.00045932  0.70985544  0.55515507
   0.74995897  0.52179414  0.27783994
   0.00340421  0.90148137  0.44494113
   0.99920445  0.18912642  0.88893663
   0.49981687  0.47582768  0.11051934
   0.25293316  0.13698474  0.49899916
   0.49758329  0.37520239  0.55524667
   0.25146827  0.36750531  0.72265757
   0.74988949  0.13870656  0.50030063
   0.99998007  0.00006066  0.00039759
   0.75036008  0.62074637  0.83374389
   0.75136949  0.36601289  0.72282020
   0.25013305  0.80676542  0.49991675
   0.25045806  0.76165243  0.94461178
   0.24927900  0.47070526  0.49923300
   0.00092896  0.33328921  0.00079149
   0.99992977  0.80844752  0.11233852
   0.74872147  0.90541675  0.05662627
   0.50059382  0.09267782  0.33383796
   0.50088101  0.56952876  0.44453373
   0.74958925  0.28658237  0.83310659
   0.75005035  0.95098700  0.83336314
   0.00031881  0.61724918  0.22151904
   0.99868386  0.18434691  0.66655493
   0.74986852  0.57120209  0.05564036
   0.49967079  0.95030899  0.22215918
   0.74988295  0.37990896  0.16590501
   0.49572253  0.04425811  0.55483374
   0.25110623  0.90438944  0.05531131
   0.00126089  0.23423191  0.44491694
   0.25001601  0.04628940  0.16594336
   0.24836089  0.61713291  0.61059214
   0.25076309  0.28028388  0.61009221
   0.74754952  0.42941462  0.94542524
   0.25005873  0.57097870  0.05540322
   0.24941840  0.09565162  0.94553744
   0.25027455  0.71294578  0.16589610
   0.24944113  0.18917954  0.27769667
   0.99996294  0.82633274  0.77694388
   0.24935849  0.32959916  0.39024341
   0.99953975  0.16073750  0.77805127
   0.24980698  0.42939233  0.94557182
   0.74994366  0.71275995  0.16585519
   0.49965470  0.18615967  0.66663400
Direct configuration=     6
   0.49945717  0.28399037  0.22164169
   0.00070118  0.28380371  0.22217158
   0.24956005  0.23732023  0.05502174
   0.49996588  0.80831975  0.11011167
   0.00004795  0.47545096  0.11031038
   0.00148144  0.56824705  0.44447742
   0.25047156  0.94711455  0.61065299
   0.00060889  0.66661079  0.00049882
   0.75069806  0.70047039  0.72233805
   0.49987171  0.75934468  0.33316201
   0.24977592  0.03359645  0.72241753
   0.99984612  0.49448374  0.77780819
   0.00057451  0.51891069  0.66667656
   0.24951062  0.62061883  0.83290194
   0.74976410  0.28083659  0.61094895
   0.00123244  0.85158769  0.66739162
   0.24981463  0.85506758  0.27783699
   0.49921610  0.85216388  0.66634935
   0.50039648  0.82745418  0.77851149
   0.49961187  0.99886827  0.00091916
   0.50018019  0.16043899  0.77826188
   0.49998553  0.42571169  0.33338784
   0.00032032  0.95070187  0.22155716
   0.24911680  0.66387298  0.38964367
   0.49958214  0.66700769  0.00061656
   0.75027631  0.61499168  0.61089744
   0.75044206  0.94725237  0.61073662
   0.00020895  0.14181060  0.10995577
   0.24978244  0.95339334  0.83273861
   0.50091830  0.52515617  0.88919117
   0.99977438  0.85929205  0.88916729
   0.24996115  0.52121286  0.27747318
   0.49932172  0.71019590  0.55624954
   0.00061817  0.04331869  0.55536296
   0.50002708  0.51803604  0.66662594
   0.75033506  0.23736886  0.05542451
   0.50010698  0.23473896  0.44444703
   0.75008532  0.85490002  0.27787028
   0.75012042  0.18824803  0.27797575
   0.74989649  0.04612640  0.16644638
   0.99994881  0.52491103  0.88838518
   0.74858472  0.99792268  0.38899044
   0.50007465  0.85752710  0.88921751
   0.49984622  0.33398469  0.00023967
   0.50027798  0.19148588  0.88847368
   0.00042892  0.75960349  0.33340766
   0.74923593  0.33005478  0.38920164
   0.49905075  0.90239243  0.44471831
   0.75047247  0.09571639  0.94467252
   0.75029444  0.03451554  0.72236302
   0.24955179  0.70043632  0.72227335
   0.24927061  0.99739535  0.38935591
   0.00048412  0.37661504  0.55533268
   0.49985817  0.14161449  0.11040184
   0.74950566  0.66347694  0.38901248
   0.74989740  0.76229625  0.94452322
   0.75022894  0.80576881  0.50029613
   0.24989517  0.28694668  0.83322713
   0.00073197  0.09234980  0.33335139
   0.50055529  0.61707177  0.22175048
   0.74981024  0.47197630  0.50019600
   0.50030633  0.49367340  0.77798660
   0.00030115  0.42579264  0.33325458
   0.25006595  0.37966548  0.16662467
   0.00045932  0.70985544  0.55518080
   0.74995897  0.52179414  0.27783937
   0.00340421  0.90148137  0.44491263
   0.99920445  0.18912642  0.88893500
   0.49981687  0.47582768  0.11053471
   0.25293316  0.13698474  0.49900755
   0.49758329  0.37520239  0.55526699
   0.25146827  0.36750531  0.72266697
   0.74988949  0.13870656  0.50028477
   0.99998007  0.00006066  0.00037054
   0.75036008  0.62074637  0.83374302
   0.75136949  0.36601289  0.72282617
   0.25013305  0.80676542  0.49991490
   0.25045806  0.76165243  0.94459487
   0.24927900  0.47070526  0.49924333
   0.00092896  0.33328921  0.00075286
   0.99992977  0.80844752  0.11229376
   0.74872147  0.90541675  0.05658469
   0.50059382  0.09267782  0.33383261
   0.50088101  0.56952876  0.44450675
   0.74958925  0.28658237  0.83310940
   0.75005035  0.95098700  0.83336773
   0.00031881  0.61724918  0.22154266
   0.99868386  0.18434691  0.66657922
   0.74986852  0.57120209  0.05563501
   0.49967079  0.95030899  0.22216341
   0.74988295  0.37990896  0.16593460
   0.49572253  0.04425811  0.55485454
   0.25110623  0.90438944  0.05531038
   0.00126089  0.23423191  0.44488682
   0.25001601  0.04628940  0.16597793
   0.24836089  0.61713291  0.61059420
   0.25076309  0.28028388  0.61010965
   0.74754952  0.42941462  0.94538249
   0.25005873  0.57097870  0.05540094
   0.24941840  0.09565162  0.94550316
   0.25027455  0.71294578  0.16593300
   0.24944113  0.18917954  0.27770122
   0.99996294  0.82633274  0.77698545
   0.24935849  0.32959916  0.39021134
   0.99953975  0.16073750  0.77803423
   0.24980698  0.42939233  0.94553767
   0.74994366  0.71275995  0.16588693
   0.49965470  0.18615967  0.66662947
Direct configuration=     7
   0.49945717  0.28399037  0.22165515
   0.00070118  0.28380371  0.22217469
   0.24956005  0.23732023  0.05502670
   0.49996588  0.80831975  0.11012440
   0.00004795  0.47545096  0.11032152
   0.00148144  0.56824705  0.44447022
   0.25047156  0.94711455  0.61065834
   0.00060889  0.66661079  0.00048785
   0.75069806  0.70047039  0.72233803
   0.49987171  0.75934468  0.33316416
   0.24977592  0.03359645  0.72240673
   0.99984612  0.49448374  0.77780494
   0.00057451  0.51891069  0.66667393
   0.24951062  0.62061883  0.83291330
   0.74976410  0.28083659  0.61095798
   0.00123244  0.85158769  0.66737593
   0.24981463  0.85506758  0.27783786
   0.49921610  0.85216388  0.66634876
   0.50039648  0.82745418  0.77849870
   0.49961187  0.99886827  0.00090155
   0.50018019  0.16043899  0.77824820
   0.49998553  0.42571169  0.33339063
   0.00032032  0.95070187  0.22157498
   0.24911680  0.66387298  0.38963381
   0.49958214  0.66700769  0.00060366
   0.75027631  0.61499168  0.61089618
   0.75044206  0.94725237  0.61074292
   0.00020895  0.14181060  0.10997280
   0.24978244  0.95339334  0.83275185
   0.50091830  0.52515617  0.88920266
   0.99977438  0.85929205  0.88917319
   0.24996115  0.52121286  0.27748075
   0.49932172  0.71019590  0.55623941
   0.00061817  0.04331869  0.55537057
   0.50002708  0.51803604  0.66662647
   0.75033506  0.23736886  0.05542406
   0.50010698  0.23473896  0.44444337
   0.75008532  0.85490002  0.27786990
   0.75012042  0.18824803  0.27797420
   0.74989649  0.04612640  0.16644821
   0.99994881  0.52491103  0.88839305
   0.74858472  0.99792268  0.38899172
   0.50007465  0.85752710  0.88922710
   0.49984622  0.33398469  0.00023343
   0.50027798  0.19148588  0.88848590
   0.00042892  0.75960349  0.33340962
   0.74923593  0.33005478  0.38920170
   0.49905075  0.90239243  0.44471291
   0.75047247  0.09571639  0.94466621
   0.75029444  0.03451554  0.72235954
   0.24955179  0.70043632  0.72226336
   0.24927061  0.99739535  0.38935859
   0.00048412  0.37661504  0.55534495
   0.49985817  0.14161449  0.11041023
   0.74950566  0.66347694  0.38901250
   0.74989740  0.76229625  0.94451620
   0.75022894  0.80576881  0.50028552
   0.24989517  0.28694668  0.83323030
   0.00073197  0.09234980  0.33335072
   0.50055529  0.61707177  0.22175470
   0.74981024  0.47197630  0.50019049
   0.50030633  0.49367340  0.77798432
   0.00030115  0.42579264  0.33325644
   0.25006595  0.37966548  0.16662566
   0.00045932  0.70985544  0.55519367
   0.74995897  0.52179414  0.27783908
   0.00340421  0.90148137  0.44489837
   0.99920445  0.18912642  0.88893419
   0.49981687  0.47582768  0.11054240
   0.25293316  0.13698474  0.49901175
   0.49758329  0.37520239  0.55527715
   0.25146827  0.36750531  0.72267166
   0.74988949  0.13870656  0.50027684
   0.99998007  0.00006066  0.00035702
   0.75036008  0.62074637  0.83374258
   0.75136949  0.36601289  0.72282915
   0.25013305  0.80676542  0.49991397
   0.25045806  0.76165243  0.94458641
   0.24927900  0.47070526  0.49924849
   0.00092896  0.33328921  0.00073354
   0.99992977  0.80844752  0.11227138
   0.74872147  0.90541675  0.05656391
   0.50059382  0.09267782  0.33382993
   0.50088101  0.56952876  0.44449326
   0.74958925  0.28658237  0.83311081
   0.75005035  0.95098700  0.83337002
   0.00031881  0.61724918  0.22155447
   0.99868386  0.18434691  0.66659137
   0.74986852  0.57120209  0.05563233
   0.49967079  0.95030899  0.22216553
   0.74988295  0.37990896  0.16594940
   0.49572253  0.04425811  0.55486494
   0.25110623  0.90438944  0.05530991
   0.00126089  0.23423191  0.44487175
   0.25001601  0.04628940  0.16599522
   0.24836089  0.61713291  0.61059523
   0.25076309  0.28028388  0.61011837
   0.74754952  0.42941462  0.94536111
   0.25005873  0.57097870  0.05539980
   0.24941840  0.09565162  0.94548602
   0.25027455  0.71294578  0.16595145
   0.24944113  0.18917954  0.27770349
   0.99996294  0.82633274  0.77700623
   0.24935849  0.32959916  0.39019530
   0.99953975  0.16073750  0.77802571
   0.24980698  0.42939233  0.94552059
   0.74994366  0.71275995  0.16590280
   0.49965470  0.18615967  0.66662720
Direct configuration=     8
   0.49945717  0.28399037  0.22166188
   0.00070118  0.28380371  0.22217624
   0.24956005  0.23732023  0.05502918
   0.49996588  0.80831975  0.11013077
   0.00004795  0.47545096  0.11032709
   0.00148144  0.56824705  0.44446662
   0.25047156  0.94711455  0.61066101
   0.00060889  0.66661079  0.00048236
   0.75069806  0.70047039  0.72233802
   0.49987171  0.75934468  0.33316524
   0.24977592  0.03359645  0.72240133
   0.99984612  0.49448374  0.77780332
   0.00057451  0.51891069  0.66667262
   0.24951062  0.62061883  0.83291898
   0.74976410  0.28083659  0.61096249
   0.00123244  0.85158769  0.66736808
   0.24981463  0.85506758  0.27783830
   0.49921610  0.85216388  0.66634847
   0.50039648  0.82745418  0.77849231
   0.49961187  0.99886827  0.00089275
   0.50018019  0.16043899  0.77824135
   0.49998553  0.42571169  0.33339202
   0.00032032  0.95070187  0.22158389
   0.24911680  0.66387298  0.38962889
   0.49958214  0.66700769  0.00059720
   0.75027631  0.61499168  0.61089555
   0.75044206  0.94725237  0.61074607
   0.00020895  0.14181060  0.10998131
   0.24978244  0.95339334  0.83275846
   0.50091830  0.52515617  0.88920841
   0.99977438  0.85929205  0.88917614
   0.24996115  0.52121286  0.27748454
   0.49932172  0.71019590  0.55623434
   0.00061817  0.04331869  0.55537438
   0.50002708  0.51803604  0.66662673
   0.75033506  0.23736886  0.05542384
   0.50010698  0.23473896  0.44444154
   0.75008532  0.85490002  0.27786971
   0.75012042  0.18824803  0.27797343
   0.74989649  0.04612640  0.16644912
   0.99994881  0.52491103  0.88839698
   0.74858472  0.99792268  0.38899235
   0.50007465  0.85752710  0.88923190
   0.49984622  0.33398469  0.00023031
   0.50027798  0.19148588  0.88849202
   0.00042892  0.75960349  0.33341060
   0.74923593  0.33005478  0.38920173
   0.49905075  0.90239243  0.44471021
   0.75047247  0.09571639  0.94466306
   0.75029444  0.03451554  0.72235780
   0.24955179  0.70043632  0.72225836
   0.24927061  0.99739535  0.38935993
   0.00048412  0.37661504  0.55535108
   0.49985817  0.14161449  0.11041442
   0.74950566  0.66347694  0.38901251
   0.74989740  0.76229625  0.94451268
   0.75022894  0.80576881  0.50028021
   0.24989517  0.28694668  0.83323189
   0.00073197  0.09234980  0.33335038
   0.50055529  0.61707177  0.22175681
   0.74981024  0.47197630  0.50018774
   0.50030633  0.49367340  0.77798318
   0.00030115  0.42579264  0.33325738
   0.25006595  0.37966548  0.16662616
   0.00045932  0.70985544  0.55520010
   0.74995897  0.52179414  0.27783894
   0.00340421  0.90148137  0.44489125
   0.99920445  0.18912642  0.88893378
   0.49981687  0.47582768  0.11054624
   0.25293316  0.13698474  0.49901385
   0.49758329  0.37520239  0.55528223
   0.25146827  0.36750531  0.72267401
   0.74988949  0.13870656  0.50027288
   0.99998007  0.00006066  0.00035026
   0.75036008  0.62074637  0.83374237
   0.75136949  0.36601289  0.72283065
   0.25013305  0.80676542  0.49991351
   0.25045806  0.76165243  0.94458218
   0.24927900  0.47070526  0.49925107
   0.00092896  0.33328921  0.00072388
   0.99992977  0.80844752  0.11226019
   0.74872147  0.90541675  0.05655352
   0.50059382  0.09267782  0.33382860
   0.50088101  0.56952876  0.44448652
   0.74958925  0.28658237  0.83311151
   0.75005035  0.95098700  0.83337117
   0.00031881  0.61724918  0.22156038
   0.99868386  0.18434691  0.66659744
   0.74986852  0.57120209  0.05563099
   0.49967079  0.95030899  0.22216658
   0.74988295  0.37990896  0.16595680
   0.49572253  0.04425811  0.55487014
   0.25110623  0.90438944  0.05530968
   0.00126089  0.23423191  0.44486422
   0.25001601  0.04628940  0.16600386
   0.24836089  0.61713291  0.61059574
   0.25076309  0.28028388  0.61012273
   0.74754952  0.42941462  0.94535043
   0.25005873  0.57097870  0.05539923
   0.24941840  0.09565162  0.94547745
   0.25027455  0.71294578  0.16596068
   0.24944113  0.18917954  0.27770463
   0.99996294  0.82633274  0.77701662
   0.24935849  0.32959916  0.39018729
   0.99953975  0.16073750  0.77802145
   0.24980698  0.42939233  0.94551206
   0.74994366  0.71275995  0.16591074
   0.49965470  0.18615967  0.66662606
Direct configuration=     9
   0.49945717  0.28399037  0.22166525
   0.00070118  0.28380371  0.22217702
   0.24956005  0.23732023  0.05503042
   0.49996588  0.80831975  0.11013395
   0.00004795  0.47545096  0.11032988
   0.00148144  0.56824705  0.44446482
   0.25047156  0.94711455  0.61066235
   0.00060889  0.66661079  0.00047962
   0.75069806  0.70047039  0.72233801
   0.49987171  0.75934468  0.33316577
   0.24977592  0.03359645  0.72239863
   0.99984612  0.49448374  0.77780251
   0.00057451  0.51891069  0.66667196
   0.24951062  0.62061883  0.83292182
   0.74976410  0.28083659  0.61096474
   0.00123244  0.85158769  0.66736416
   0.24981463  0.85506758  0.27783852
   0.49921610  0.85216388  0.66634833
   0.50039648  0.82745418  0.77848911
   0.49961187  0.99886827  0.00088834
   0.50018019  0.16043899  0.77823793
   0.49998553  0.42571169  0.33339272
   0.00032032  0.95070187  0.22158835
   0.24911680  0.66387298  0.38962642
   0.49958214  0.66700769  0.00059398
   0.75027631  0.61499168  0.61089524
   0.75044206  0.94725237  0.61074764
   0.00020895  0.14181060  0.10998556
   0.24978244  0.95339334  0.83276177
   0.50091830  0.52515617  0.88921129
   0.99977438  0.85929205  0.88917762
   0.24996115  0.52121286  0.27748644
   0.49932172  0.71019590  0.55623181
   0.00061817  0.04331869  0.55537628
   0.50002708  0.51803604  0.66662686
   0.75033506  0.23736886  0.05542372
   0.50010698  0.23473896  0.44444062
   0.75008532  0.85490002  0.27786962
   0.75012042  0.18824803  0.27797304
   0.74989649  0.04612640  0.16644958
   0.99994881  0.52491103  0.88839895
   0.74858472  0.99792268  0.38899267
   0.50007465  0.85752710  0.88923430
   0.49984622  0.33398469  0.00022875
   0.50027798  0.19148588  0.88849507
   0.00042892  0.75960349  0.33341109
   0.74923593  0.33005478  0.38920175
   0.49905075  0.90239243  0.44470886
   0.75047247  0.09571639  0.94466148
   0.75029444  0.03451554  0.72235693
   0.24955179  0.70043632  0.72225586
   0.24927061  0.99739535  0.38936060
   0.00048412  0.37661504  0.55535415
   0.49985817  0.14161449  0.11041652
   0.74950566  0.66347694  0.38901252
   0.74989740  0.76229625  0.94451093
   0.75022894  0.80576881  0.50027755
   0.24989517  0.28694668  0.83323268
   0.00073197  0.09234980  0.33335021
   0.50055529  0.61707177  0.22175786
   0.74981024  0.47197630  0.50018636
   0.50030633  0.49367340  0.77798261
   0.00030115  0.42579264  0.33325784
   0.25006595  0.37966548  0.16662641
   0.00045932  0.70985544  0.55520331
   0.74995897  0.52179414  0.27783887
   0.00340421  0.90148137  0.44488768
   0.99920445  0.18912642  0.88893358
   0.49981687  0.47582768  0.11054816
   0.25293316  0.13698474  0.49901490
   0.49758329  0.37520239  0.55528477
   0.25146827  0.36750531  0.72267519
   0.74988949  0.13870656  0.50027089
   0.99998007  0.00006066  0.00034688
   0.75036008  0.62074637  0.83374226
   0.75136949  0.36601289  0.72283139
   0.25013305  0.80676542  0.49991328
   0.25045806  0.76165243  0.94458007
   0.24927900  0.47070526  0.49925236
   0.00092896  0.33328921  0.00071905
   0.99992977  0.80844752  0.11225460
   0.74872147  0.90541675  0.05654832
   0.50059382  0.09267782  0.33382793
   0.50088101  0.56952876  0.44448314
   0.74958925  0.28658237  0.83311186
   0.75005035  0.95098700  0.83337174
   0.00031881  0.61724918  0.22156333
   0.99868386  0.18434691  0.66660048
   0.74986852  0.57120209  0.05563032
   0.49967079  0.95030899  0.22216711
   0.74988295  0.37990896  0.16596050
   0.49572253  0.04425811  0.55487274
   0.25110623  0.90438944  0.05530956
   0.00126089  0.23423191  0.44486046
   0.25001601  0.04628940  0.16600818
   0.24836089  0.61713291  0.61059600
   0.25076309  0.28028388  0.61012491
   0.74754952  0.42941462  0.94534508
   0.25005873  0.57097870  0.05539894
   0.24941840  0.09565162  0.94547316
   0.25027455  0.71294578  0.16596529
   0.24944113  0.18917954  0.27770519
   0.99996294  0.82633274  0.77702182
   0.24935849  0.32959916  0.39018328
   0.99953975  0.16073750  0.77801932
   0.24980698  0.42939233  0.94550779
   0.74994366  0.71275995  0.16591470
   0.49965470  0.18615967  0.66662550
Direct configuration=    10
   0.49945717  0.28399037  0.22166693
   0.00070118  0.28380371  0.22217741
   0.24956005  0.23732023  0.05503105
   0.49996588  0.80831975  0.11013555
   0.00004795  0.47545096  0.11033127
   0.00148144  0.56824705  0.44446392
   0.25047156  0.94711455  0.61066302
   0.00060889  0.66661079  0.00047825
   0.75069806  0.70047039  0.72233801
   0.49987171  0.75934468  0.33316604
   0.24977592  0.03359645  0.72239728
   0.99984612  0.49448374  0.77780210
   0.00057451  0.51891069  0.66667163
   0.24951062  0.62061883  0.83292324
   0.74976410  0.28083659  0.61096587
   0.00123244  0.85158769  0.66736220
   0.24981463  0.85506758  0.27783863
   0.49921610  0.85216388  0.66634826
   0.50039648  0.82745418  0.77848751
   0.49961187  0.99886827  0.00088614
   0.50018019  0.16043899  0.77823622
   0.49998553  0.42571169  0.33339307
   0.00032032  0.95070187  0.22159058
   0.24911680  0.66387298  0.38962519
   0.49958214  0.66700769  0.00059236
   0.75027631  0.61499168  0.61089508
   0.75044206  0.94725237  0.61074843
   0.00020895  0.14181060  0.10998769
   0.24978244  0.95339334  0.83276343
   0.50091830  0.52515617  0.88921273
   0.99977438  0.85929205  0.88917835
   0.24996115  0.52121286  0.27748738
   0.49932172  0.71019590  0.55623055
   0.00061817  0.04331869  0.55537723
   0.50002708  0.51803604  0.66662692
   0.75033506  0.23736886  0.05542367
   0.50010698  0.23473896  0.44444017
   0.75008532  0.85490002  0.27786957
   0.75012042  0.18824803  0.27797285
   0.74989649  0.04612640  0.16644981
   0.99994881  0.52491103  0.88839993
   0.74858472  0.99792268  0.38899283
   0.50007465  0.85752710  0.88923550
   0.49984622  0.33398469  0.00022797
   0.50027798  0.19148588  0.88849660
   0.00042892  0.75960349  0.33341133
   0.74923593  0.33005478  0.38920175
   0.49905075  0.90239243  0.44470819
   0.75047247  0.09571639  0.94466069
   0.75029444  0.03451554  0.72235649
   0.24955179  0.70043632  0.72225461
   0.24927061  0.99739535  0.38936094
   0.00048412  0.37661504  0.55535568
   0.49985817  0.14161449  0.11041756
   0.74950566  0.66347694  0.38901252
   0.74989740  0.76229625  0.94451005
   0.75022894  0.80576881  0.50027623
   0.24989517  0.28694668  0.83323308
   0.00073197  0.09234980  0.33335013
   0.50055529  0.61707177  0.22175839
   0.74981024  0.47197630  0.50018567
   0.50030633  0.49367340  0.77798232
   0.00030115  0.42579264  0.33325807
   0.25006595  0.37966548  0.16662653
   0.00045932  0.70985544  0.55520492
   0.74995897  0.52179414  0.27783884
   0.00340421  0.90148137  0.44488590
   0.99920445  0.18912642  0.88893347
   0.49981687  0.47582768  0.11054912
   0.25293316  0.13698474  0.49901542
   0.49758329  0.37520239  0.55528604
   0.25146827  0.36750531  0.72267578
   0.74988949  0.13870656  0.50026990
   0.99998007  0.00006066  0.00034519
   0.75036008  0.62074637  0.83374220
   0.75136949  0.36601289  0.72283177
   0.25013305  0.80676542  0.49991316
   0.25045806  0.76165243  0.94457901
   0.24927900  0.47070526  0.49925301
   0.00092896  0.33328921  0.00071664
   0.99992977  0.80844752  0.11225180
   0.74872147  0.90541675  0.05654572
   0.50059382  0.09267782  0.33382759
   0.50088101  0.56952876  0.44448146
   0.74958925  0.28658237  0.83311204
   0.75005035  0.95098700  0.83337203
   0.00031881  0.61724918  0.22156481
   0.99868386  0.18434691  0.66660200
   0.74986852  0.57120209  0.05562998
   0.49967079  0.95030899  0.22216738
   0.74988295  0.37990896  0.16596235
   0.49572253  0.04425811  0.55487404
   0.25110623  0.90438944  0.05530951
   0.00126089  0.23423191  0.44485858
   0.25001601  0.04628940  0.16601035
   0.24836089  0.61713291  0.61059613
   0.25076309  0.28028388  0.61012600
   0.74754952  0.42941462  0.94534241
   0.25005873  0.57097870  0.05539880
   0.24941840  0.09565162  0.94547102
   0.25027455  0.71294578  0.16596760
   0.24944113  0.18917954  0.27770548
   0.99996294  0.82633274  0.77702441
   0.24935849  0.32959916  0.39018127
   0.99953975  0.16073750  0.77801826
   0.24980698  0.42939233  0.94550565
   0.74994366  0.71275995  0.16591669
   0.49965470  0.18615967  0.66662521
Direct configuration=    11
   0.49945717  0.28399037  0.22166777
   0.00070118  0.28380371  0.22217760
   0.24956005  0.23732023  0.05503136
   0.49996588  0.80831975  0.11013634
   0.00004795  0.47545096  0.11033197
   0.00148144  0.56824705  0.44446347
   0.25047156  0.94711455  0.61066335
   0.00060889  0.66661079  0.00047756
   0.75069806  0.70047039  0.72233800
   0.49987171  0.75934468  0.33316618
   0.24977592  0.03359645  0.72239660
   0.99984612  0.49448374  0.77780190
   0.00057451  0.51891069  0.66667147
   0.24951062  0.62061883  0.83292395
   0.74976410  0.28083659  0.61096644
   0.00123244  0.85158769  0.66736122
   0.24981463  0.85506758  0.27783868
   0.49921610  0.85216388  0.66634822
   0.50039648  0.82745418  0.77848671
   0.49961187  0.99886827  0.00088504
   0.50018019  0.16043899  0.77823537
   0.49998553  0.42571169  0.33339324
   0.00032032  0.95070187  0.22159169
   0.24911680  0.66387298  0.38962458
   0.49958214  0.66700769  0.00059156
   0.75027631  0.61499168  0.61089500
   0.75044206  0.94725237  0.61074882
   0.00020895  0.14181060  0.10998876
   0.24978244  0.95339334  0.83276425
   0.50091830  0.52515617  0.88921344
   0.99977438  0.85929205  0.88917872
   0.24996115  0.52121286  0.27748786
   0.49932172  0.71019590  0.55622991
   0.00061817  0.04331869  0.55537771
   0.50002708  0.51803604  0.66662696
   0.75033506  0.23736886  0.05542364
   0.50010698  0.23473896  0.44443994
   0.75008532  0.85490002  0.27786954
   0.75012042  0.18824803  0.27797276
   0.74989649  0.04612640  0.16644992
   0.99994881  0.52491103  0.88840042
   0.74858472  0.99792268  0.38899291
   0.50007465  0.85752710  0.88923610
   0.49984622  0.33398469  0.00022758
   0.50027798  0.19148588  0.88849737
   0.00042892  0.75960349  0.33341145
   0.74923593  0.33005478  0.38920176
   0.49905075  0.90239243  0.44470785
   0.75047247  0.09571639  0.94466030
   0.75029444  0.03451554  0.72235627
   0.24955179  0.70043632  0.72225398
   0.24927061  0.99739535  0.38936110
   0.00048412  0.37661504  0.55535645
   0.49985817  0.14161449  0.11041809
   0.74950566  0.66347694  0.38901252
   0.74989740  0.76229625  0.94450961
   0.75022894  0.80576881  0.50027556
   0.24989517  0.28694668  0.83323327
   0.00073197  0.09234980  0.33335008
   0.50055529  0.61707177  0.22175866
   0.74981024  0.47197630  0.50018532
   0.50030633  0.49367340  0.77798218
   0.00030115  0.42579264  0.33325819
   0.25006595  0.37966548  0.16662659
   0.00045932  0.70985544  0.55520573
   0.74995897  0.52179414  0.27783882
   0.00340421  0.90148137  0.44488501
   0.99920445  0.18912642  0.88893342
   0.49981687  0.47582768  0.11054960
   0.25293316  0.13698474  0.49901569
   0.49758329  0.37520239  0.55528667
   0.25146827  0.36750531  0.72267607
   0.74988949  0.13870656  0.50026941
   0.99998007  0.00006066  0.00034434
   0.75036008  0.62074637  0.83374218
   0.75136949  0.36601289  0.72283195
   0.25013305  0.80676542  0.49991310
   0.25045806  0.76165243  0.94457848
   0.24927900  0.47070526  0.49925333
   0.00092896  0.33328921  0.00071543
   0.99992977  0.80844752  0.11225040
   0.74872147  0.90541675  0.05654442
   0.50059382  0.09267782  0.33382743
   0.50088101  0.56952876  0.44448061
   0.74958925  0.28658237  0.83311212
   0.75005035  0.95098700  0.83337217
   0.00031881  0.61724918  0.22156554
   0.99868386  0.18434691  0.66660275
   0.74986852  0.57120209  0.05562981
   0.49967079  0.95030899  0.22216751
   0.74988295  0.37990896  0.16596327
   0.49572253  0.04425811  0.55487469
   0.25110623  0.90438944  0.05530948
   0.00126089  0.23423191  0.44485764
   0.25001601  0.04628940  0.16601143
   0.24836089  0.61713291  0.61059619
   0.25076309  0.28028388  0.61012655
   0.74754952  0.42941462  0.94534108
   0.25005873  0.57097870  0.05539873
   0.24941840  0.09565162  0.94546995
   0.25027455  0.71294578  0.16596875
   0.24944113  0.18917954  0.27770562
   0.99996294  0.82633274  0.77702571
   0.24935849  0.32959916  0.39018027
   0.99953975  0.16073750  0.77801772
   0.24980698  0.42939233  0.94550459
   0.74994366  0.71275995  0.16591768
   0.49965470  0.18615967  0.66662507
Direct configuration=    12
   0.49945717  0.28399037  0.22166820
   0.00070118  0.28380371  0.22217770
   0.24956005  0.23732023  0.05503151
   0.49996588  0.80831975  0.11013674
   0.00004795  0.47545096  0.11033231
   0.00148144  0.56824705  0.44446324
   0.25047156  0.94711455  0.61066352
   0.00060889  0.66661079  0.00047722
   0.75069806  0.70047039  0.72233800
   0.49987171  0.75934468  0.33316625
   0.24977592  0.03359645  0.72239626
   0.99984612  0.49448374  0.77780180
   0.00057451  0.51891069  0.66667139
   0.24951062  0.62061883  0.83292431
   0.74976410  0.28083659  0.61096672
   0.00123244  0.85158769  0.66736073
   0.24981463  0.85506758  0.27783871
   0.49921610  0.85216388  0.66634820
   0.50039648  0.82745418  0.77848631
   0.49961187  0.99886827  0.00088449
   0.50018019  0.16043899  0.77823494
   0.49998553  0.42571169  0.33339333
   0.00032032  0.95070187  0.22159225
   0.24911680  0.66387298  0.38962427
   0.49958214  0.66700769  0.00059115
   0.75027631  0.61499168  0.61089496
   0.75044206  0.94725237  0.61074902
   0.00020895  0.14181060  0.10998929
   0.24978244  0.95339334  0.83276467
   0.50091830  0.52515617  0.88921380
   0.99977438  0.85929205  0.88917891
   0.24996115  0.52121286  0.27748809
   0.49932172  0.71019590  0.55622960
   0.00061817  0.04331869  0.55537795
   0.50002708  0.51803604  0.66662697
   0.75033506  0.23736886  0.05542363
   0.50010698  0.23473896  0.44443982
   0.75008532  0.85490002  0.27786953
   0.75012042  0.18824803  0.27797271
   0.74989649  0.04612640  0.16644998
   0.99994881  0.52491103  0.88840067
   0.74858472  0.99792268  0.38899295
   0.50007465  0.85752710  0.88923639
   0.49984622  0.33398469  0.00022738
   0.50027798  0.19148588  0.88849775
   0.00042892  0.75960349  0.33341151
   0.74923593  0.33005478  0.38920176
   0.49905075  0.90239243  0.44470768
   0.75047247  0.09571639  0.94466010
   0.75029444  0.03451554  0.72235616
   0.24955179  0.70043632  0.72225367
   0.24927061  0.99739535  0.38936119
   0.00048412  0.37661504  0.55535683
   0.49985817  0.14161449  0.11041835
   0.74950566  0.66347694  0.38901252
   0.74989740  0.76229625  0.94450939
   0.75022894  0.80576881  0.50027523
   0.24989517  0.28694668  0.83323337
   0.00073197  0.09234980  0.33335006
   0.50055529  0.61707177  0.22175879
   0.74981024  0.47197630  0.50018515
   0.50030633  0.49367340  0.77798211
   0.00030115  0.42579264  0.33325825
   0.25006595  0.37966548  0.16662662
   0.00045932  0.70985544  0.55520613
   0.74995897  0.52179414  0.27783881
   0.00340421  0.90148137  0.44488456
   0.99920445  0.18912642  0.88893340
   0.49981687  0.47582768  0.11054984
   0.25293316  0.13698474  0.49901582
   0.49758329  0.37520239  0.55528699
   0.25146827  0.36750531  0.72267622
   0.74988949  0.13870656  0.50026916
   0.99998007  0.00006066  0.00034392
   0.75036008  0.62074637  0.83374216
   0.75136949  0.36601289  0.72283205
   0.25013305  0.80676542  0.49991307
   0.25045806  0.76165243  0.94457822
   0.24927900  0.47070526  0.49925349
   0.00092896  0.33328921  0.00071483
   0.99992977  0.80844752  0.11224970
   0.74872147  0.90541675  0.05654377
   0.50059382  0.09267782  0.33382734
   0.50088101  0.56952876  0.44448019
   0.74958925  0.28658237  0.83311217
   0.75005035  0.95098700  0.83337224
   0.00031881  0.61724918  0.22156591
   0.99868386  0.18434691  0.66660313
   0.74986852  0.57120209  0.05562973
   0.49967079  0.95030899  0.22216758
   0.74988295  0.37990896  0.16596373
   0.49572253  0.04425811  0.55487502
   0.25110623  0.90438944  0.05530946
   0.00126089  0.23423191  0.44485716
   0.25001601  0.04628940  0.16601197
   0.24836089  0.61713291  0.61059623
   0.25076309  0.28028388  0.61012682
   0.74754952  0.42941462  0.94534041
   0.25005873  0.57097870  0.05539869
   0.24941840  0.09565162  0.94546941
   0.25027455  0.71294578  0.16596933
   0.24944113  0.18917954  0.27770569
   0.99996294  0.82633274  0.77702636
   0.24935849  0.32959916  0.39017977
   0.99953975  0.16073750  0.77801746
   0.24980698  0.42939233  0.94550405
   0.74994366  0.71275995  0.16591817
   0.49965470  0.18615967  0.66662500
Direct configuration=    13
   0.49945717  0.28399037  0.22166841
   0.00070118  0.28380371  0.22217775
   0.24956005  0.23732023  0.05503159
   0.49996588  0.80831975  0.11013694
   0.00004795  0.47545096  0.11033249
   0.00148144  0.56824705  0.44446313
   0.25047156  0.94711455  0.61066360
   0.00060889  0.66661079  0.00047705
   0.75069806  0.70047039  0.72233800
   0.49987171  0.75934468  0.33316628
   0.24977592  0.03359645  0.72239609
   0.99984612  0.49448374  0.77780174
   0.00057451  0.51891069  0.66667135
   0.24951062  0.62061883  0.83292448
   0.74976410  0.28083659  0.61096686
   0.00123244  0.85158769  0.66736048
   0.24981463  0.85506758  0.27783872
   0.49921610  0.85216388  0.66634819
   0.50039648  0.82745418  0.77848612
   0.49961187  0.99886827  0.00088422
   0.50018019  0.16043899  0.77823473
   0.49998553  0.42571169  0.33339337
   0.00032032  0.95070187  0.22159253
   0.24911680  0.66387298  0.38962411
   0.49958214  0.66700769  0.00059095
   0.75027631  0.61499168  0.61089494
   0.75044206  0.94725237  0.61074912
   0.00020895  0.14181060  0.10998955
   0.24978244  0.95339334  0.83276487
   0.50091830  0.52515617  0.88921398
   0.99977438  0.85929205  0.88917900
   0.24996115  0.52121286  0.27748821
   0.49932172  0.71019590  0.55622944
   0.00061817  0.04331869  0.55537806
   0.50002708  0.51803604  0.66662698
   0.75033506  0.23736886  0.05542362
   0.50010698  0.23473896  0.44443976
   0.75008532  0.85490002  0.27786953
   0.75012042  0.18824803  0.27797268
   0.74989649  0.04612640  0.16645001
   0.99994881  0.52491103  0.88840079
   0.74858472  0.99792268  0.38899297
   0.50007465  0.85752710  0.88923654
   0.49984622  0.33398469  0.00022729
   0.50027798  0.19148588  0.88849794
   0.00042892  0.75960349  0.33341154
   0.74923593  0.33005478  0.38920176
   0.49905075  0.90239243  0.44470760
   0.75047247  0.09571639  0.94466000
   0.75029444  0.03451554  0.72235611
   0.24955179  0.70043632  0.72225352
   0.24927061  0.99739535  0.38936123
   0.00048412  0.37661504  0.55535702
   0.49985817  0.14161449  0.11041848
   0.74950566  0.66347694  0.38901252
   0.74989740  0.76229625  0.94450928
   0.75022894  0.80576881  0.50027506
   0.24989517  0.28694668  0.83323342
   0.00073197  0.09234980  0.33335005
   0.50055529  0.61707177  0.22175885
   0.74981024  0.47197630  0.50018507
   0.50030633  0.49367340  0.77798207
   0.00030115  0.42579264  0.33325828
   0.25006595  0.37966548  0.16662664
   0.00045932  0.70985544  0.55520633
   0.74995897  0.52179414  0.27783880
   0.00340421  0.90148137  0.44488434
   0.99920445  0.18912642  0.88893339
   0.49981687  0.47582768  0.11054996
   0.25293316  0.13698474  0.49901588
   0.49758329  0.37520239  0.55528715
   0.25146827  0.36750531  0.72267629
   0.74988949  0.13870656  0.50026903
   0.99998007  0.00006066  0.00034371
   0.75036008  0.62074637  0.83374216
   0.75136949  0.36601289  0.72283209
   0.25013305  0.80676542  0.49991306
   0.25045806  0.76165243  0.94457809
   0.24927900  0.47070526  0.49925357
   0.00092896  0.33328921  0.00071453
   0.99992977  0.80844752  0.11224935
   0.74872147  0.90541675  0.05654345
   0.50059382  0.09267782  0.33382730
   0.50088101  0.56952876  0.44447998
   0.74958925  0.28658237  0.83311219
   0.75005035  0.95098700  0.83337228
   0.00031881  0.61724918  0.22156610
   0.99868386  0.18434691  0.66660332
   0.74986852  0.57120209  0.05562969
   0.49967079  0.95030899  0.22216761
   0.74988295  0.37990896  0.16596396
   0.49572253  0.04425811  0.55487518
   0.25110623  0.90438944  0.05530946
   0.00126089  0.23423191  0.44485693
   0.25001601  0.04628940  0.16601224
   0.24836089  0.61713291  0.61059624
   0.25076309  0.28028388  0.61012695
   0.74754952  0.42941462  0.94534007
   0.25005873  0.57097870  0.05539867
   0.24941840  0.09565162  0.94546915
   0.25027455  0.71294578  0.16596962
   0.24944113  0.18917954  0.27770573
   0.99996294  0.82633274  0.77702669
   0.24935849  0.32959916  0.39017952
   0.99953975  0.16073750  0.77801732
   0.24980698  0.42939233  0.94550379
   0.74994366  0.71275995  0.16591842
   0.49965470  0.18615967  0.66662496
Direct configuration=    14
   0.49945717  0.28399037  0.22166851
   0.00070118  0.28380371  0.22217777
   0.24956005  0.23732023  0.05503163
   0.49996588  0.80831975  0.11013704
   0.00004795  0.47545096  0.11033257
   0.00148144  0.56824705  0.44446308
   0.25047156  0.94711455  0.61066364
   0.00060889  0.66661079  0.00047696
   0.75069806  0.70047039  0.72233800
   0.49987171  0.75934468  0.33316630
   0.24977592  0.03359645  0.72239601
   0.99984612  0.49448374  0.77780172
   0.00057451  0.51891069  0.66667133
   0.24951062  0.62061883  0.83292457
   0.74976410  0.28083659  0.61096693
   0.00123244  0.85158769  0.66736036
   0.24981463  0.85506758  0.27783873
   0.49921610  0.85216388  0.66634819
   0.50039648  0.82745418  0.77848602
   0.49961187  0.99886827  0.00088408
   0.50018019  0.16043899  0.77823462
   0.49998553  0.42571169  0.33339339
   0.00032032  0.95070187  0.22159267
   0.24911680  0.66387298  0.38962404
   0.49958214  0.66700769  0.00059085
   0.75027631  0.61499168  0.61089493
   0.75044206  0.94725237  0.61074917
   0.00020895  0.14181060  0.10998969
   0.24978244  0.95339334  0.83276498
   0.50091830  0.52515617  0.88921407
   0.99977438  0.85929205  0.88917905
   0.24996115  0.52121286  0.27748827
   0.49932172  0.71019590  0.55622936
   0.00061817  0.04331869  0.55537812
   0.50002708  0.51803604  0.66662698
   0.75033506  0.23736886  0.05542362
   0.50010698  0.23473896  0.44443974
   0.75008532  0.85490002  0.27786952
   0.75012042  0.18824803  0.27797267
   0.74989649  0.04612640  0.16645002
   0.99994881  0.52491103  0.88840085
   0.74858472  0.99792268  0.38899298
   0.50007465  0.85752710  0.88923662
   0.49984622  0.33398469  0.00022724
   0.50027798  0.19148588  0.88849803
   0.00042892  0.75960349  0.33341156
   0.74923593  0.33005478  0.38920176
   0.49905075  0.90239243  0.44470756
   0.75047247  0.09571639  0.94465995
   0.75029444  0.03451554  0.72235608
   0.24955179  0.70043632  0.72225344
   0.24927061  0.99739535  0.38936125
   0.00048412  0.37661504  0.55535712
   0.49985817  0.14161449  0.11041855
   0.74950566  0.66347694  0.38901252
   0.74989740  0.76229625  0.94450922
   0.75022894  0.80576881  0.50027498
   0.24989517  0.28694668  0.83323345
   0.00073197  0.09234980  0.33335005
   0.50055529  0.61707177  0.22175889
   0.74981024  0.47197630  0.50018502
   0.50030633  0.49367340  0.77798205
   0.00030115  0.42579264  0.33325829
   0.25006595  0.37966548  0.16662665
   0.00045932  0.70985544  0.55520643
   0.74995897  0.52179414  0.27783880
   0.00340421  0.90148137  0.44488423
   0.99920445  0.18912642  0.88893338
   0.49981687  0.47582768  0.11055002
   0.25293316  0.13698474  0.49901592
   0.49758329  0.37520239  0.55528723
   0.25146827  0.36750531  0.72267633
   0.74988949  0.13870656  0.50026897
   0.99998007  0.00006066  0.00034360
   0.75036008  0.62074637  0.83374215
   0.75136949  0.36601289  0.72283212
   0.25013305  0.80676542  0.49991305
   0.25045806  0.76165243  0.94457802
   0.24927900  0.47070526  0.49925361
   0.00092896  0.33328921  0.00071438
   0.99992977  0.80844752  0.11224918
   0.74872147  0.90541675  0.05654329
   0.50059382  0.09267782  0.33382728
   0.50088101  0.56952876  0.44447988
   0.74958925  0.28658237  0.83311220
   0.75005035  0.95098700  0.83337230
   0.00031881  0.61724918  0.22156619
   0.99868386  0.18434691  0.66660342
   0.74986852  0.57120209  0.05562967
   0.49967079  0.95030899  0.22216763
   0.74988295  0.37990896  0.16596408
   0.49572253  0.04425811  0.55487526
   0.25110623  0.90438944  0.05530945
   0.00126089  0.23423191  0.44485681
   0.25001601  0.04628940  0.16601237
   0.24836089  0.61713291  0.61059625
   0.25076309  0.28028388  0.61012702
   0.74754952  0.42941462  0.94533991
   0.25005873  0.57097870  0.05539867
   0.24941840  0.09565162  0.94546901
   0.25027455  0.71294578  0.16596976
   0.24944113  0.18917954  0.27770575
   0.99996294  0.82633274  0.77702685
   0.24935849  0.32959916  0.39017939
   0.99953975  0.16073750  0.77801726
   0.24980698  0.42939233  0.94550365
   0.74994366  0.71275995  0.16591855
   0.49965470  0.18615967  0.66662495
Direct configuration=    15
   0.49945717  0.28399037  0.22166856
   0.00070118  0.28380371  0.22217778
   0.24956005  0.23732023  0.05503165
   0.49996588  0.80831975  0.11013709
   0.00004795  0.47545096  0.11033262
   0.00148144  0.56824705  0.44446305
   0.25047156  0.94711455  0.61066366
   0.00060889  0.66661079  0.00047692
   0.75069806  0.70047039  0.72233800
   0.49987171  0.75934468  0.33316630
   0.24977592  0.03359645  0.72239597
   0.99984612  0.49448374  0.77780171
   0.00057451  0.51891069  0.66667132
   0.24951062  0.62061883  0.83292462
   0.74976410  0.28083659  0.61096697
   0.00123244  0.85158769  0.66736030
   0.24981463  0.85506758  0.27783873
   0.49921610  0.85216388  0.66634819
   0.50039648  0.82745418  0.77848597
   0.49961187  0.99886827  0.00088401
   0.50018019  0.16043899  0.77823457
   0.49998553  0.42571169  0.33339341
   0.00032032  0.95070187  0.22159274
   0.24911680  0.66387298  0.38962400
   0.49958214  0.66700769  0.00059080
   0.75027631  0.61499168  0.61089493
   0.75044206  0.94725237  0.61074919
   0.00020895  0.14181060  0.10998975
   0.24978244  0.95339334  0.83276503
   0.50091830  0.52515617  0.88921412
   0.99977438  0.85929205  0.88917907
   0.24996115  0.52121286  0.27748830
   0.49932172  0.71019590  0.55622932
   0.00061817  0.04331869  0.55537815
   0.50002708  0.51803604  0.66662699
   0.75033506  0.23736886  0.05542361
   0.50010698  0.23473896  0.44443972
   0.75008532  0.85490002  0.27786952
   0.75012042  0.18824803  0.27797266
   0.74989649  0.04612640  0.16645003
   0.99994881  0.52491103  0.88840088
   0.74858472  0.99792268  0.38899299
   0.50007465  0.85752710  0.88923666
   0.49984622  0.33398469  0.00022721
   0.50027798  0.19148588  0.88849808
   0.00042892  0.75960349  0.33341157
   0.74923593  0.33005478  0.38920176
   0.49905075  0.90239243  0.44470754
   0.75047247  0.09571639  0.94465993
   0.75029444  0.03451554  0.72235607
   0.24955179  0.70043632  0.72225340
   0.24927061  0.99739535  0.38936126
   0.00048412  0.37661504  0.55535717
   0.49985817  0.14161449  0.11041858
   0.74950566  0.66347694  0.38901252
   0.74989740  0.76229625  0.94450920
   0.75022894  0.80576881  0.50027494
   0.24989517  0.28694668  0.83323346
   0.00073197  0.09234980  0.33335004
   0.50055529  0.61707177  0.22175890
   0.74981024  0.47197630  0.50018500
   0.50030633  0.49367340  0.77798205
   0.00030115  0.42579264  0.33325830
   0.25006595  0.37966548  0.16662665
   0.00045932  0.70985544  0.55520648
   0.74995897  0.52179414  0.27783880
   0.00340421  0.90148137  0.44488417
   0.99920445  0.18912642  0.88893338
   0.49981687  0.47582768  0.11055005
   0.25293316  0.13698474  0.49901593
   0.49758329  0.37520239  0.55528727
   0.25146827  0.36750531  0.72267634
   0.74988949  0.13870656  0.50026894
   0.99998007  0.00006066  0.00034355
   0.75036008  0.62074637  0.83374215
   0.75136949  0.36601289  0.72283213
   0.25013305  0.80676542  0.49991305
   0.25045806  0.76165243  0.94457799
   0.24927900  0.47070526  0.49925363
   0.00092896  0.33328921  0.00071430
   0.99992977  0.80844752  0.11224909
   0.74872147  0.90541675  0.05654321
   0.50059382  0.09267782  0.33382727
   0.50088101  0.56952876  0.44447982
   0.74958925  0.28658237  0.83311221
   0.75005035  0.95098700  0.83337231
   0.00031881  0.61724918  0.22156624
   0.99868386  0.18434691  0.66660347
   0.74986852  0.57120209  0.05562966
   0.49967079  0.95030899  0.22216763
   0.74988295  0.37990896  0.16596414
   0.49572253  0.04425811  0.55487530
   0.25110623  0.90438944  0.05530945
   0.00126089  0.23423191  0.44485675
   0.25001601  0.04628940  0.16601244
   0.24836089  0.61713291  0.61059625
   0.25076309  0.28028388  0.61012706
   0.74754952  0.42941462  0.94533982
   0.25005873  0.57097870  0.05539866
   0.24941840  0.09565162  0.94546894
   0.25027455  0.71294578  0.16596983
   0.24944113  0.18917954  0.27770575
   0.99996294  0.82633274  0.77702693
   0.24935849  0.32959916  0.39017933
   0.99953975  0.16073750  0.77801722
   0.24980698  0.42939233  0.94550359
   0.74994366  0.71275995  0.16591861
   0.49965470  0.18615967  0.66662494
Direct configuration=    16
   0.49945717  0.28399037  0.22166859
   0.00070118  0.28380371  0.22217779
   0.24956005  0.23732023  0.05503166
   0.49996588  0.80831975  0.11013711
   0.00004795  0.47545096  0.11033264
   0.00148144  0.56824705  0.44446303
   0.25047156  0.94711455  0.61066367
   0.00060889  0.66661079  0.00047690
   0.75069806  0.70047039  0.72233800
   0.49987171  0.75934468  0.33316631
   0.24977592  0.03359645  0.72239595
   0.99984612  0.49448374  0.77780170
   0.00057451  0.51891069  0.66667131
   0.24951062  0.62061883  0.83292464
   0.74976410  0.28083659  0.61096698
   0.00123244  0.85158769  0.66736027
   0.24981463  0.85506758  0.27783873
   0.49921610  0.85216388  0.66634818
   0.50039648  0.82745418  0.77848594
   0.49961187  0.99886827  0.00088398
   0.50018019  0.16043899  0.77823454
   0.49998553  0.42571169  0.33339341
   0.00032032  0.95070187  0.22159277
   0.24911680  0.66387298  0.38962398
   0.49958214  0.66700769  0.00059077
   0.75027631  0.61499168  0.61089493
   0.75044206  0.94725237  0.61074921
   0.00020895  0.14181060  0.10998979
   0.24978244  0.95339334  0.83276505
   0.50091830  0.52515617  0.88921414
   0.99977438  0.85929205  0.88917908
   0.24996115  0.52121286  0.27748832
   0.49932172  0.71019590  0.55622930
   0.00061817  0.04331869  0.55537817
   0.50002708  0.51803604  0.66662699
   0.75033506  0.23736886  0.05542361
   0.50010698  0.23473896  0.44443971
   0.75008532  0.85490002  0.27786952
   0.75012042  0.18824803  0.27797266
   0.74989649  0.04612640  0.16645003
   0.99994881  0.52491103  0.88840090
   0.74858472  0.99792268  0.38899299
   0.50007465  0.85752710  0.88923668
   0.49984622  0.33398469  0.00022720
   0.50027798  0.19148588  0.88849811
   0.00042892  0.75960349  0.33341157
   0.74923593  0.33005478  0.38920176
   0.49905075  0.90239243  0.44470753
   0.75047247  0.09571639  0.94465991
   0.75029444  0.03451554  0.72235606
   0.24955179  0.70043632  0.72225338
   0.24927061  0.99739535  0.38936127
   0.00048412  0.37661504  0.55535719
   0.49985817  0.14161449  0.11041860
   0.74950566  0.66347694  0.38901252
   0.74989740  0.76229625  0.94450918
   0.75022894  0.80576881  0.50027492
   0.24989517  0.28694668  0.83323347
   0.00073197  0.09234980  0.33335004
   0.50055529  0.61707177  0.22175891
   0.74981024  0.47197630  0.50018499
   0.50030633  0.49367340  0.77798204
   0.00030115  0.42579264  0.33325830
   0.25006595  0.37966548  0.16662665
   0.00045932  0.70985544  0.55520651
   0.74995897  0.52179414  0.27783880
   0.00340421  0.90148137  0.44488415
   0.99920445  0.18912642  0.88893337
   0.49981687  0.47582768  0.11055007
   0.25293316  0.13698474  0.49901594
   0.49758329  0.37520239  0.55528729
   0.25146827  0.36750531  0.72267635
   0.74988949  0.13870656  0.50026893
   0.99998007  0.00006066  0.00034352
   0.75036008  0.62074637  0.83374215
   0.75136949  0.36601289  0.72283213
   0.25013305  0.80676542  0.49991305
   0.25045806  0.76165243  0.94457797
   0.24927900  0.47070526  0.49925365
   0.00092896  0.33328921  0.00071426
   0.99992977  0.80844752  0.11224905
   0.74872147  0.90541675  0.05654316
   0.50059382  0.09267782  0.33382726
   0.50088101  0.56952876  0.44447980
   0.74958925  0.28658237  0.83311221
   0.75005035  0.95098700  0.83337231
   0.00031881  0.61724918  0.22156626
   0.99868386  0.18434691  0.66660349
   0.74986852  0.57120209  0.05562965
   0.49967079  0.95030899  0.22216764
   0.74988295  0.37990896  0.16596417
   0.49572253  0.04425811  0.55487532
   0.25110623  0.90438944  0.05530945
   0.00126089  0.23423191  0.44485672
   0.25001601  0.04628940  0.16601247
   0.24836089  0.61713291  0.61059626
   0.25076309  0.28028388  0.61012707
   0.74754952  0.42941462  0.94533978
   0.25005873  0.57097870  0.05539866
   0.24941840  0.09565162  0.94546891
   0.25027455  0.71294578  0.16596987
   0.24944113  0.18917954  0.27770576
   0.99996294  0.82633274  0.77702697
   0.24935849  0.32959916  0.39017930
   0.99953975  0.16073750  0.77801721
   0.24980698  0.42939233  0.94550355
   0.74994366  0.71275995  0.16591864
   0.49965470  0.18615967  0.66662493
Direct configuration=    17
   0.49945717  0.28399037  0.22166860
   0.00070118  0.28380371  0.22217779
   0.24956005  0.23732023  0.05503166
   0.49996588  0.80831975  0.11013712
   0.00004795  0.47545096  0.11033265
   0.00148144  0.56824705  0.44446303
   0.25047156  0.94711455  0.61066368
   0.00060889  0.66661079  0.00047688
   0.75069806  0.70047039  0.72233800
   0.49987171  0.75934468  0.33316631
   0.24977592  0.03359645  0.72239594
   0.99984612  0.49448374  0.77780170
   0.00057451  0.51891069  0.66667131
   0.24951062  0.62061883  0.83292465
   0.74976410  0.28083659  0.61096699
   0.00123244  0.85158769  0.66736025
   0.24981463  0.85506758  0.27783873
   0.49921610  0.85216388  0.66634818
   0.50039648  0.82745418  0.77848593
   0.49961187  0.99886827  0.00088396
   0.50018019  0.16043899  0.77823453
   0.49998553  0.42571169  0.33339341
   0.00032032  0.95070187  0.22159279
   0.24911680  0.66387298  0.38962397
   0.49958214  0.66700769  0.00059076
   0.75027631  0.61499168  0.61089493
   0.75044206  0.94725237  0.61074921
   0.00020895  0.14181060  0.10998980
   0.24978244  0.95339334  0.83276507
   0.50091830  0.52515617  0.88921415
   0.99977438  0.85929205  0.88917909
   0.24996115  0.52121286  0.27748832
   0.49932172  0.71019590  0.55622929
   0.00061817  0.04331869  0.55537818
   0.50002708  0.51803604  0.66662699
   0.75033506  0.23736886  0.05542361
   0.50010698  0.23473896  0.44443971
   0.75008532  0.85490002  0.27786952
   0.75012042  0.18824803  0.27797266
   0.74989649  0.04612640  0.16645003
   0.99994881  0.52491103  0.88840091
   0.74858472  0.99792268  0.38899299
   0.50007465  0.85752710  0.88923669
   0.49984622  0.33398469  0.00022719
   0.50027798  0.19148588  0.88849812
   0.00042892  0.75960349  0.33341157
   0.74923593  0.33005478  0.38920176
   0.49905075  0.90239243  0.44470752
   0.75047247  0.09571639  0.94465991
   0.75029444  0.03451554  0.72235606
   0.24955179  0.70043632  0.72225337
   0.24927061  0.99739535  0.38936127
   0.00048412  0.37661504  0.55535720
   0.49985817  0.14161449  0.11041860
   0.74950566  0.66347694  0.38901252
   0.74989740  0.76229625  0.94450918
   0.75022894  0.80576881  0.50027491
   0.24989517  0.28694668  0.83323347
   0.00073197  0.09234980  0.33335004
   0.50055529  0.61707177  0.22175892
   0.74981024  0.47197630  0.50018499
   0.50030633  0.49367340  0.77798204
   0.00030115  0.42579264  0.33325831
   0.25006595  0.37966548  0.16662665
   0.00045932  0.70985544  0.55520652
   0.74995897  0.52179414  0.27783880
   0.00340421  0.90148137  0.44488413
   0.99920445  0.18912642  0.88893337
   0.49981687  0.47582768  0.11055008
   0.25293316  0.13698474  0.49901595
   0.49758329  0.37520239  0.55528730
   0.25146827  0.36750531  0.72267636
   0.74988949  0.13870656  0.50026892
   0.99998007  0.00006066  0.00034351
   0.75036008  0.62074637  0.83374215
   0.75136949  0.36601289  0.72283214
   0.25013305  0.80676542  0.49991305
   0.25045806  0.76165243  0.94457796
   0.24927900  0.47070526  0.49925365
   0.00092896  0.33328921  0.00071424
   0.99992977  0.80844752  0.11224903
   0.74872147  0.90541675  0.05654314
   0.50059382  0.09267782  0.33382726
   0.50088101  0.56952876  0.44447978
   0.74958925  0.28658237  0.83311221
   0.75005035  0.95098700  0.83337231
   0.00031881  0.61724918  0.22156627
   0.99868386  0.18434691  0.66660350
   0.74986852  0.57120209  0.05562965
   0.49967079  0.95030899  0.22216764
   0.74988295  0.37990896  0.16596418
   0.49572253  0.04425811  0.55487533
   0.25110623  0.90438944  0.05530945
   0.00126089  0.23423191  0.44485671
   0.25001601  0.04628940  0.16601249
   0.24836089  0.61713291  0.61059626
   0.25076309  0.28028388  0.61012708
   0.74754952  0.42941462  0.94533976
   0.25005873  0.57097870  0.05539866
   0.24941840  0.09565162  0.94546889
   0.25027455  0.71294578  0.16596989
   0.24944113  0.18917954  0.27770576
   0.99996294  0.82633274  0.77702699
   0.24935849  0.32959916  0.39017928
   0.99953975  0.16073750  0.77801720
   0.24980698  0.42939233  0.94550354
   0.74994366  0.71275995  0.16591866
   0.49965470  0.18615967  0.66662493
Direct configuration=    18
   0.49945717  0.28399037  0.22166861
   0.00070118  0.28380371  0.22217779
   0.24956005  0.23732023  0.05503166
   0.49996588  0.80831975  0.11013713
   0.00004795  0.47545096  0.11033266
   0.00148144  0.56824705  0.44446302
   0.25047156  0.94711455  0.61066368
   0.00060889  0.66661079  0.00047688
   0.75069806  0.70047039  0.72233800
   0.49987171  0.75934468  0.33316631
   0.24977592  0.03359645  0.72239593
   0.99984612  0.49448374  0.77780170
   0.00057451  0.51891069  0.66667131
   0.24951062  0.62061883  0.83292465
   0.74976410  0.28083659  0.61096700
   0.00123244  0.85158769  0.66736025
   0.24981463  0.85506758  0.27783874
   0.49921610  0.85216388  0.66634818
   0.50039648  0.82745418  0.77848592
   0.49961187  0.99886827  0.00088395
   0.50018019  0.16043899  0.77823452
   0.49998553  0.42571169  0.33339342
   0.00032032  0.95070187  0.22159280
   0.24911680  0.66387298  0.38962397
   0.49958214  0.66700769  0.00059076
   0.75027631  0.61499168  0.61089493
   0.75044206  0.94725237  0.61074921
   0.00020895  0.14181060  0.10998981
   0.24978244  0.95339334  0.83276507
   0.50091830  0.52515617  0.88921416
   0.99977438  0.85929205  0.88917909
   0.24996115  0.52121286  0.27748833
   0.49932172  0.71019590  0.55622929
   0.00061817  0.04331869  0.55537818
   0.50002708  0.51803604  0.66662699
   0.75033506  0.23736886  0.05542361
   0.50010698  0.23473896  0.44443971
   0.75008532  0.85490002  0.27786952
   0.75012042  0.18824803  0.27797266
   0.74989649  0.04612640  0.16645004
   0.99994881  0.52491103  0.88840091
   0.74858472  0.99792268  0.38899299
   0.50007465  0.85752710  0.88923669
   0.49984622  0.33398469  0.00022719
   0.50027798  0.19148588  0.88849812
   0.00042892  0.75960349  0.33341157
   0.74923593  0.33005478  0.38920176
   0.49905075  0.90239243  0.44470752
   0.75047247  0.09571639  0.94465990
   0.75029444  0.03451554  0.72235606
   0.24955179  0.70043632  0.72225336
   0.24927061  0.99739535  0.38936127
   0.00048412  0.37661504  0.55535721
   0.49985817  0.14161449  0.11041861
   0.74950566  0.66347694  0.38901252
   0.74989740  0.76229625  0.94450917
   0.75022894  0.80576881  0.50027490
   0.24989517  0.28694668  0.83323347
   0.00073197  0.09234980  0.33335004
   0.50055529  0.61707177  0.22175892
   0.74981024  0.47197630  0.50018498
   0.50030633  0.49367340  0.77798204
   0.00030115  0.42579264  0.33325831
   0.25006595  0.37966548  0.16662665
   0.00045932  0.70985544  0.55520652
   0.74995897  0.52179414  0.27783880
   0.00340421  0.90148137  0.44488413
   0.99920445  0.18912642  0.88893337
   0.49981687  0.47582768  0.11055008
   0.25293316  0.13698474  0.49901595
   0.49758329  0.37520239  0.55528730
   0.25146827  0.36750531  0.72267636
   0.74988949  0.13870656  0.50026891
   0.99998007  0.00006066  0.00034350
   0.75036008  0.62074637  0.83374215
   0.75136949  0.36601289  0.72283214
   0.25013305  0.80676542  0.49991305
   0.25045806  0.76165243  0.94457796
   0.24927900  0.47070526  0.49925365
   0.00092896  0.33328921  0.00071423
   0.99992977  0.80844752  0.11224902
   0.74872147  0.90541675  0.05654313
   0.50059382  0.09267782  0.33382726
   0.50088101  0.56952876  0.44447978
   0.74958925  0.28658237  0.83311221
   0.75005035  0.95098700  0.83337231
   0.00031881  0.61724918  0.22156628
   0.99868386  0.18434691  0.66660351
   0.74986852  0.57120209  0.05562965
   0.49967079  0.95030899  0.22216764
   0.74988295  0.37990896  0.16596419
   0.49572253  0.04425811  0.55487534
   0.25110623  0.90438944  0.05530945
   0.00126089  0.23423191  0.44485670
   0.25001601  0.04628940  0.16601250
   0.24836089  0.61713291  0.61059626
   0.25076309  0.28028388  0.61012709
   0.74754952  0.42941462  0.94533975
   0.25005873  0.57097870  0.05539866
   0.24941840  0.09565162  0.94546889
   0.25027455  0.71294578  0.16596990
   0.24944113  0.18917954  0.27770576
   0.99996294  0.82633274  0.77702700
   0.24935849  0.32959916  0.39017928
   0.99953975  0.16073750  0.77801720
   0.24980698  0.42939233  0.94550353
   0.74994366  0.71275995  0.16591866
   0.49965470  0.18615967  0.66662493
Direct configuration=    19
   0.49945717  0.28399037  0.22166861
   0.00070118  0.28380371  0.22217779
   0.24956005  0.23732023  0.05503166
   0.49996588  0.80831975  0.11013713
   0.00004795  0.47545096  0.11033266
   0.00148144  0.56824705  0.44446302
   0.25047156  0.94711455  0.61066368
   0.00060889  0.66661079  0.00047688
   0.75069806  0.70047039  0.72233800
   0.49987171  0.75934468  0.33316631
   0.24977592  0.03359645  0.72239593
   0.99984612  0.49448374  0.77780169
   0.00057451  0.51891069  0.66667131
   0.24951062  0.62061883  0.83292466
   0.74976410  0.28083659  0.61096700
   0.00123244  0.85158769  0.66736024
   0.24981463  0.85506758  0.27783874
   0.49921610  0.85216388  0.66634818
   0.50039648  0.82745418  0.77848592
   0.49961187  0.99886827  0.00088395
   0.50018019  0.16043899  0.77823452
   0.49998553  0.42571169  0.33339342
   0.00032032  0.95070187  0.22159280
   0.24911680  0.66387298  0.38962396
   0.49958214  0.66700769  0.00059075
   0.75027631  0.61499168  0.61089493
   0.75044206  0.94725237  0.61074922
   0.00020895  0.14181060  0.10998982
   0.24978244  0.95339334  0.83276508
   0.50091830  0.52515617  0.88921416
   0.99977438  0.85929205  0.88917909
   0.24996115  0.52121286  0.27748833
   0.49932172  0.71019590  0.55622928
   0.00061817  0.04331869  0.55537818
   0.50002708  0.51803604  0.66662699
   0.75033506  0.23736886  0.05542361
   0.50010698  0.23473896  0.44443971
   0.75008532  0.85490002  0.27786952
   0.75012042  0.18824803  0.27797266
   0.74989649  0.04612640  0.16645004
   0.99994881  0.52491103  0.88840091
   0.74858472  0.99792268  0.38899299
   0.50007465  0.85752710  0.88923669
   0.49984622  0.33398469  0.00022719
   0.50027798  0.19148588  0.88849813
   0.00042892  0.75960349  0.33341157
   0.74923593  0.33005478  0.38920176
   0.49905075  0.90239243  0.44470752
   0.75047247  0.09571639  0.94465990
   0.75029444  0.03451554  0.72235606
   0.24955179  0.70043632  0.72225336
   0.24927061  0.99739535  0.38936127
   0.00048412  0.37661504  0.55535721
   0.49985817  0.14161449  0.11041861
   0.74950566  0.66347694  0.38901252
   0.74989740  0.76229625  0.94450917
   0.75022894  0.80576881  0.50027490
   0.24989517  0.28694668  0.83323347
   0.00073197  0.09234980  0.33335004
   0.50055529  0.61707177  0.22175892
   0.74981024  0.47197630  0.50018498
   0.50030633  0.49367340  0.77798204
   0.00030115  0.42579264  0.33325831
   0.25006595  0.37966548  0.16662665
   0.00045932  0.70985544  0.55520653
   0.74995897  0.52179414  0.27783880
   0.00340421  0.90148137  0.44488412
   0.99920445  0.18912642  0.88893337
   0.49981687  0.47582768  0.11055008
   0.25293316  0.13698474  0.49901595
   0.49758329  0.37520239  0.55528731
   0.25146827  0.36750531  0.72267636
   0.74988949  0.13870656  0.50026891
   0.99998007  0.00006066  0.00034350
   0.75036008  0.62074637  0.83374215
   0.75136949  0.36601289  0.72283214
   0.25013305  0.80676542  0.49991305
   0.25045806  0.76165243  0.94457796
   0.24927900  0.47070526  0.49925365
   0.00092896  0.33328921  0.00071423
   0.99992977  0.80844752  0.11224901
   0.74872147  0.90541675  0.05654313
   0.50059382  0.09267782  0.33382726
   0.50088101  0.56952876  0.44447977
   0.74958925  0.28658237  0.83311221
   0.75005035  0.95098700  0.83337231
   0.00031881  0.61724918  0.22156628
   0.99868386  0.18434691  0.66660351
   0.74986852  0.57120209  0.05562965
   0.49967079  0.95030899  0.22216764
   0.74988295  0.37990896  0.16596419
   0.49572253  0.04425811  0.55487534
   0.25110623  0.90438944  0.05530945
   0.00126089  0.23423191  0.44485670
   0.25001601  0.04628940  0.16601250
   0.24836089  0.61713291  0.61059626
   0.25076309  0.28028388  0.61012709
   0.74754952  0.42941462  0.94533975
   0.25005873  0.57097870  0.05539866
   0.24941840  0.09565162  0.94546888
   0.25027455  0.71294578  0.16596990
   0.24944113  0.18917954  0.27770576
   0.99996294  0.82633274  0.77702701
   0.24935849  0.32959916  0.39017927
   0.99953975  0.16073750  0.77801719
   0.24980698  0.42939233  0.94550352
   0.74994366  0.71275995  0.16591867
   0.49965470  0.18615967  0.66662493
