Fe90
1.0
   6.981046000000000085    0.000000000000000000    0.000000000000000000
   0.000000000000000000    7.404513999999999818    0.000000000000000000
   0.000000000000000000   -1.234086200392825017   20.152550000000005070
Fe
90
direct
   0.000000000000000000    0.000000000000000000    0.000000000000000000 Fe
   0.000000000000000000    0.333333288315748988    0.000000000000000000 Fe
   0.000000000000000000    0.666666711684250957    0.000000000000000000 Fe
   0.000000000000000000    0.033333347749570724    0.199999999999999928 Fe
   0.000000000000000000    0.366666636065319684    0.199999999999999928 Fe
   0.000000000000000000    0.700000059433821709    0.199999999999999928 Fe
   0.000000000000000000    0.066666695499141448    0.399999999999999856 Fe
   0.000000000000000000    0.399999983814890436    0.399999999999999856 Fe
   0.000000000000000000    0.733333407183392350    0.399999999999999856 Fe
   0.000000000000000000   -0.066666695499141490    0.599999999999999867 Fe
   0.000000000000000000    0.266666592816607484    0.599999999999999867 Fe
   0.000000000000000000    0.600000016185109453    0.599999999999999867 Fe
   0.000000000000000000   -0.033333347749570780    0.799999999999999711 Fe
   0.000000000000000000    0.299999940566178180    0.799999999999999711 Fe
   0.000000000000000000    0.633333363934680205    0.799999999999999711 Fe
   0.500000000000000000    0.016666673874785362    0.099999999999999964 Fe
   0.500000000000000000    0.349999962190534364    0.099999999999999964 Fe
   0.500000000000000000    0.683333385559036333    0.099999999999999964 Fe
   0.500000000000000000    0.050000021624356093    0.299999999999999933 Fe
   0.500000000000000000    0.383333309940105060    0.299999999999999933 Fe
   0.500000000000000000    0.716666733308607085    0.299999999999999933 Fe
   0.500000000000000000   -0.027777789791308960    0.499999999999999889 Fe
   0.500000000000000000    0.305555498524440028    0.499999999999999889 Fe
   0.500000000000000000    0.638888921892942108    0.499999999999999889 Fe
   0.500000000000000000   -0.050000021624356128    0.699999999999999845 Fe
   0.500000000000000000    0.283333266691392860    0.699999999999999845 Fe
   0.500000000000000000    0.616666690059894829    0.699999999999999845 Fe
   0.500000000000000000   -0.016666673874785376    0.899999999999999800 Fe
   0.500000000000000000    0.316666614440963612    0.899999999999999800 Fe
   0.500000000000000000    0.650000037809465581    0.899999999999999800 Fe
   0.166666571169993755    0.238888956120453355    0.099999999999999964 Fe
   0.166666571169993755    0.572222244436202399    0.099999999999999964 Fe
   0.166666571169993755    0.905555532751951331    0.099999999999999964 Fe
   0.166666571169993755    0.272222303870024052    0.299999999999999933 Fe
   0.166666571169993755    0.605555592185773151    0.299999999999999933 Fe
   0.166666571169993755    0.938888880501522083    0.299999999999999933 Fe
   0.166666571169993755    0.194444492454359019    0.499999999999999889 Fe
   0.166666571169993755    0.527777780770108063    0.499999999999999889 Fe
   0.166666571169993755    0.861111069085856995    0.499999999999999889 Fe
   0.166666571169993755    0.172222260621311851    0.699999999999999845 Fe
   0.166666571169993755    0.505555548937060895    0.699999999999999845 Fe
   0.166666571169993755    0.838888837252809827    0.699999999999999845 Fe
   0.166666571169993755    0.205555608370882603    0.899999999999999800 Fe
   0.166666571169993755    0.538888896686631647    0.899999999999999800 Fe
   0.166666571169993755    0.872222185002380579    0.899999999999999800 Fe
   0.666666571169993727    0.222222282245667979    0.000000000000000000 Fe
   0.666666571169993727    0.555555570561417023    0.000000000000000000 Fe
   0.666666571169993727    0.888888858877165955    0.000000000000000000 Fe
   0.666666571169993727    0.255555629995238731    0.199999999999999928 Fe
   0.666666571169993727    0.588888918310987775    0.199999999999999928 Fe
   0.666666571169993727    0.922222206626736707    0.199999999999999928 Fe
   0.666666571169993727    0.288888977744809428    0.399999999999999856 Fe
   0.666666571169993727    0.622222266060558526    0.399999999999999856 Fe
   0.666666571169993727    0.955555554376307459    0.399999999999999856 Fe
   0.666666571169993727    0.155555586746526503    0.599999999999999867 Fe
   0.666666571169993727    0.488888875062275519    0.599999999999999867 Fe
   0.666666571169993727    0.822222163378024451    0.599999999999999867 Fe
   0.666666571169993727    0.188888934496097199    0.799999999999999711 Fe
   0.666666571169993727    0.522222222811846271    0.799999999999999711 Fe
   0.666666571169993727    0.855555511127595203    0.799999999999999711 Fe
   0.333333428830006273    0.111111141122833990    0.000000000000000000 Fe
   0.333333428830006273    0.444444429438582977    0.000000000000000000 Fe
   0.333333428830006273    0.777777717754332021    0.000000000000000000 Fe
   0.333333428830006273    0.144444488872404714    0.199999999999999928 Fe
   0.333333428830006273    0.477777777188153729    0.199999999999999928 Fe
   0.333333428830006273    0.811111065503902773    0.199999999999999928 Fe
   0.333333428830006273    0.177777836621975438    0.399999999999999856 Fe
   0.333333428830006273    0.511111124937724481    0.399999999999999856 Fe
   0.333333428830006273    0.844444413253473414    0.399999999999999856 Fe
   0.333333428830006273    0.044444445623692500    0.599999999999999867 Fe
   0.333333428830006273    0.377777733939441529    0.599999999999999867 Fe
   0.333333428830006273    0.711111022255190517    0.599999999999999867 Fe
   0.333333428830006273    0.077777793373263210    0.799999999999999711 Fe
   0.333333428830006273    0.411111081689012225    0.799999999999999711 Fe
   0.333333428830006273    0.744444370004761269    0.799999999999999711 Fe
   0.833333142339987454    0.127777814997619366    0.099999999999999964 Fe
   0.833333142339987454    0.461111103313368353    0.099999999999999964 Fe
   0.833333142339987454    0.794444391629117397    0.099999999999999964 Fe
   0.833333142339987454    0.161111162747190090    0.299999999999999933 Fe
   0.833333142339987454    0.494444451062939050    0.299999999999999933 Fe
   0.833333142339987454    0.827777739378688149    0.299999999999999933 Fe
   0.833333142339987454    0.083333351331525030    0.499999999999999889 Fe
   0.833333142339987454    0.416666639647274017    0.499999999999999889 Fe
   0.833333142339987454    0.749999927963022950    0.499999999999999889 Fe
   0.833333142339987454    0.061111119498477862    0.699999999999999845 Fe
   0.833333142339987454    0.394444407814226849    0.699999999999999845 Fe
   0.833333142339987454    0.727777696129975893    0.699999999999999845 Fe
   0.833333142339987454    0.094444467248048614    0.899999999999999800 Fe
   0.833333142339987454    0.427777755563797601    0.899999999999999800 Fe
   0.833333142339987454    0.761111043879546645    0.899999999999999800 Fe
