Fe108
1.0
   2.828428000000000164    0.000000000000000000    0.000000000000000000
   0.000000000000000000    7.354137928692480841    0.000000000000000000
   0.000000000000000000    0.101983353804973254    2.596072630180382923
Fe
108
direct
   0.000000000000000000    0.000000000000000000    0.000000000000000000 Fe
   0.000000000000000000   -0.004626058386075525    0.333590435772910587 Fe
   0.000000000000000000   -0.009252116772151051    0.667180871545821175 Fe
   0.000000000000000000    0.333076429045913225    0.000000000000000000 Fe
   0.000000000000000000    0.328450370659837676    0.333590435772910587 Fe
   0.000000000000000000    0.323824312273762183    0.667180871545821175 Fe
   0.000000000000000000    0.664610837910834196    0.111196863769853341 Fe
   0.000000000000000000    0.659984779524758647    0.444787299542763914 Fe
   0.000000000000000000    0.655358721138683098    0.778377735315674557 Fe
   0.500000000000000000    0.000000000000000000    0.000000000000000000 Fe
   0.500000000000000000   -0.004626058386075525    0.333590435772910587 Fe
   0.500000000000000000   -0.009252116772151051    0.667180871545821175 Fe
   0.500000000000000000    0.333076429045913225    0.000000000000000000 Fe
   0.500000000000000000    0.328450370659837676    0.333590435772910587 Fe
   0.500000000000000000    0.323824312273762183    0.667180871545821175 Fe
   0.500000000000000000    0.664610837910834196    0.111196863769853341 Fe
   0.500000000000000000    0.659984779524758647    0.444787299542763914 Fe
   0.500000000000000000    0.655358721138683098    0.778377735315674557 Fe
   0.250000000000000000    0.166538214522956612    0.000000000000000000 Fe
   0.250000000000000000    0.161912156136881091    0.333590435772910587 Fe
   0.250000000000000000    0.157286097750805570    0.667180871545821175 Fe
   0.250000000000000000    0.498072623387877556    0.111196863769853341 Fe
   0.250000000000000000    0.493446565001802007    0.444787299542763914 Fe
   0.250000000000000000    0.488820506615726513    0.778377735315674557 Fe
   0.250000000000000000    0.831149052433790780    0.111196863769853341 Fe
   0.250000000000000000    0.826522994047715232    0.444787299542763914 Fe
   0.250000000000000000    0.821896935661639683    0.778377735315674557 Fe
   0.750000000000000000    0.166538214522956612    0.000000000000000000 Fe
   0.750000000000000000    0.161912156136881091    0.333590435772910587 Fe
   0.750000000000000000    0.157286097750805570    0.667180871545821175 Fe
   0.750000000000000000    0.498072623387877556    0.111196863769853341 Fe
   0.750000000000000000    0.493446565001802007    0.444787299542763914 Fe
   0.750000000000000000    0.488820506615726513    0.778377735315674557 Fe
   0.750000000000000000    0.831149052433790780    0.111196863769853341 Fe
   0.750000000000000000    0.826522994047715232    0.444787299542763914 Fe
   0.750000000000000000    0.821896935661639683    0.778377735315674557 Fe
   0.250000000000000000    0.052428653924312361    0.222393623848607058 Fe
   0.250000000000000000    0.047802595538236833    0.555984059621517646 Fe
   0.250000000000000000    0.043176537152161305    0.889574495394428233 Fe
   0.250000000000000000    0.385505082970225565    0.222393623848607058 Fe
   0.250000000000000000    0.380879024584150017    0.555984059621517646 Fe
   0.250000000000000000    0.376252966198074523    0.889574495394428233 Fe
   0.250000000000000000    0.717039491835146481    0.333590487618460385 Fe
   0.250000000000000000    0.712413433449071043    0.667180923391371028 Fe
   0.250000000000000000    0.707787375062995494    1.000771359164281726 Fe
   0.750000000000000000    0.052428653924312361    0.222393623848607058 Fe
   0.750000000000000000    0.047802595538236833    0.555984059621517646 Fe
   0.750000000000000000    0.043176537152161305    0.889574495394428233 Fe
   0.750000000000000000    0.385505082970225565    0.222393623848607058 Fe
   0.750000000000000000    0.380879024584150017    0.555984059621517646 Fe
   0.750000000000000000    0.376252966198074523    0.889574495394428233 Fe
   0.750000000000000000    0.717039491835146481    0.333590487618460385 Fe
   0.750000000000000000    0.712413433449071043    0.667180923391371028 Fe
   0.750000000000000000    0.707787375062995494    1.000771359164281726 Fe
   0.000000000000000000    0.218966868447268953    0.222393623848607058 Fe
   0.000000000000000000    0.214340810061193432    0.555984059621517646 Fe
   0.000000000000000000    0.209714751675117911    0.889574495394428233 Fe
   0.000000000000000000    0.550501277312189896    0.333590487618460385 Fe
   0.000000000000000000    0.545875218926114458    0.667180923391371028 Fe
   0.000000000000000000    0.541249160540038909    1.000771359164281726 Fe
   0.000000000000000000    0.883577706358103065    0.333590487618460385 Fe
   0.000000000000000000    0.878951647972027628    0.667180923391371028 Fe
   0.000000000000000000    0.874325589585952079    1.000771359164281726 Fe
   0.500000000000000000    0.218966868447268953    0.222393623848607058 Fe
   0.500000000000000000    0.214340810061193432    0.555984059621517646 Fe
   0.500000000000000000    0.209714751675117911    0.889574495394428233 Fe
   0.500000000000000000    0.550501277312189896    0.333590487618460385 Fe
   0.500000000000000000    0.545875218926114458    0.667180923391371028 Fe
   0.500000000000000000    0.541249160540038909    1.000771359164281726 Fe
   0.500000000000000000    0.883577706358103065    0.333590487618460385 Fe
   0.500000000000000000    0.878951647972027628    0.667180923391371028 Fe
   0.500000000000000000    0.874325589585952079    1.000771359164281726 Fe
   0.000000000000000000    0.109483502212568723    0.111196811924303529 Fe
   0.000000000000000000    0.104857443826493202    0.444787247697214116 Fe
   0.000000000000000000    0.100231385440417667    0.778377683470124704 Fe
   0.000000000000000000    0.442559931258481920    0.111196811924303529 Fe
   0.000000000000000000    0.437933872872406427    0.444787247697214116 Fe
   0.000000000000000000    0.433307814486330878    0.778377683470124704 Fe
   0.000000000000000000    0.774094340123402946    0.222393675694156856 Fe
   0.000000000000000000    0.769468281737327398    0.555984111467067499 Fe
   0.000000000000000000    0.764842223351251849    0.889574547239977975 Fe
   0.500000000000000000    0.109483502212568723    0.111196811924303529 Fe
   0.500000000000000000    0.104857443826493202    0.444787247697214116 Fe
   0.500000000000000000    0.100231385440417667    0.778377683470124704 Fe
   0.500000000000000000    0.442559931258481920    0.111196811924303529 Fe
   0.500000000000000000    0.437933872872406427    0.444787247697214116 Fe
   0.500000000000000000    0.433307814486330878    0.778377683470124704 Fe
   0.500000000000000000    0.774094340123402946    0.222393675694156856 Fe
   0.500000000000000000    0.769468281737327398    0.555984111467067499 Fe
   0.500000000000000000    0.764842223351251849    0.889574547239977975 Fe
   0.250000000000000000    0.276021580757656815    0.111196811924303529 Fe
   0.250000000000000000    0.271395522371581321    0.444787247697214116 Fe
   0.250000000000000000    0.266769463985505773    0.778377683470124704 Fe
   0.250000000000000000    0.607555989622577841    0.222393675694156856 Fe
   0.250000000000000000    0.602929931236502292    0.555984111467067499 Fe
   0.250000000000000000    0.598303872850426743    0.889574547239977975 Fe
   0.250000000000000000    0.940632418668491010    0.222393675694156856 Fe
   0.250000000000000000    0.936006360282415462    0.555984111467067499 Fe
   0.250000000000000000    0.931380301896339913    0.889574547239977975 Fe
   0.750000000000000000    0.276021580757656815    0.111196811924303529 Fe
   0.750000000000000000    0.271395522371581321    0.444787247697214116 Fe
   0.750000000000000000    0.266769463985505773    0.778377683470124704 Fe
   0.750000000000000000    0.607555989622577841    0.222393675694156856 Fe
   0.750000000000000000    0.602929931236502292    0.555984111467067499 Fe
   0.750000000000000000    0.598303872850426743    0.889574547239977975 Fe
   0.750000000000000000    0.940632418668491010    0.222393675694156856 Fe
   0.750000000000000000    0.936006360282415462    0.555984111467067499 Fe
   0.750000000000000000    0.931380301896339913    0.889574547239977975 Fe
