Fe72
1.0
   6.981046000000000085    0.000000000000000000    0.000000000000000000
   0.000000000000000000    7.404513999999999818    0.000000000000000000
   0.000000000000000000    0.000000000000000000   16.122039999999998372
Fe
72
direct
   0.500000000000000000    0.666666711684250957    0.875000000000000111 Fe
   0.166666571169993755    0.888888858877165955    0.375000000000000056 Fe
   0.000000000000000000    0.666666711684250957    0.250000000000000000 Fe
   0.666666571169993727    0.888888858877165955    0.750000000000000111 Fe
   0.166666571169993755    0.222222282245667979    0.125000000000000000 Fe
   0.333333428830006273    0.777777717754332021    0.500000000000000000 Fe
   0.166666571169993755    0.555555570561417023    0.375000000000000056 Fe
   0.333333428830006273    0.444444429438582977    0.000000000000000000 Fe
   0.000000000000000000    0.000000000000000000    0.750000000000000111 Fe
   0.000000000000000000    0.666666711684250957    0.500000000000000000 Fe
   0.833333142339987454    0.444444429438582977    0.875000000000000111 Fe
   0.666666571169993727    0.222222282245667979    0.750000000000000111 Fe
   0.833333142339987454    0.777777717754332021    0.875000000000000111 Fe
   0.166666571169993755    0.888888858877165955    0.875000000000000111 Fe
   0.833333142339987454    0.444444429438582977    0.625000000000000111 Fe
   0.000000000000000000    0.666666711684250957    0.000000000000000000 Fe
   0.500000000000000000    0.000000000000000000    0.125000000000000000 Fe
   0.333333428830006273    0.111111141122833990    0.500000000000000000 Fe
   0.333333428830006273    0.777777717754332021    0.000000000000000000 Fe
   0.000000000000000000    0.333333288315748988    0.500000000000000000 Fe
   0.333333428830006273    0.777777717754332021    0.750000000000000111 Fe
   0.833333142339987454    0.111111141122833990    0.375000000000000056 Fe
   0.500000000000000000    0.333333288315748988    0.375000000000000056 Fe
   0.333333428830006273    0.111111141122833990    0.750000000000000111 Fe
   0.500000000000000000    0.666666711684250957    0.375000000000000056 Fe
   0.666666571169993727    0.888888858877165955    0.000000000000000000 Fe
   0.833333142339987454    0.444444429438582977    0.375000000000000056 Fe
   0.833333142339987454    0.777777717754332021    0.625000000000000111 Fe
   0.666666571169993727    0.555555570561417023    0.500000000000000000 Fe
   0.500000000000000000    0.000000000000000000    0.625000000000000111 Fe
   0.333333428830006273    0.444444429438582977    0.500000000000000000 Fe
   0.000000000000000000    0.000000000000000000    0.500000000000000000 Fe
   0.833333142339987454    0.111111141122833990    0.625000000000000111 Fe
   0.333333428830006273    0.444444429438582977    0.750000000000000111 Fe
   0.500000000000000000    0.666666711684250957    0.625000000000000111 Fe
   0.666666571169993727    0.555555570561417023    0.250000000000000000 Fe
   0.000000000000000000    0.666666711684250957    0.750000000000000111 Fe
   0.666666571169993727    0.888888858877165955    0.250000000000000000 Fe
   0.166666571169993755    0.555555570561417023    0.875000000000000111 Fe
   0.166666571169993755    0.555555570561417023    0.625000000000000111 Fe
   0.666666571169993727    0.222222282245667979    0.000000000000000000 Fe
   0.666666571169993727    0.888888858877165955    0.500000000000000000 Fe
   0.000000000000000000    0.333333288315748988    0.250000000000000000 Fe
   0.500000000000000000    0.000000000000000000    0.875000000000000111 Fe
   0.333333428830006273    0.111111141122833990    0.000000000000000000 Fe
   0.000000000000000000    0.000000000000000000    0.000000000000000000 Fe
   0.500000000000000000    0.333333288315748988    0.875000000000000111 Fe
   0.166666571169993755    0.222222282245667979    0.875000000000000111 Fe
   0.333333428830006273    0.444444429438582977    0.250000000000000000 Fe
   0.166666571169993755    0.888888858877165955    0.125000000000000000 Fe
   0.000000000000000000    0.333333288315748988    0.750000000000000111 Fe
   0.666666571169993727    0.555555570561417023    0.000000000000000000 Fe
   0.833333142339987454    0.111111141122833990    0.125000000000000000 Fe
   0.333333428830006273    0.111111141122833990    0.250000000000000000 Fe
   0.500000000000000000    0.000000000000000000    0.375000000000000056 Fe
   0.833333142339987454    0.111111141122833990    0.875000000000000111 Fe
   0.833333142339987454    0.444444429438582977    0.125000000000000000 Fe
   0.500000000000000000    0.666666711684250957    0.125000000000000000 Fe
   0.166666571169993755    0.222222282245667979    0.625000000000000111 Fe
   0.666666571169993727    0.555555570561417023    0.750000000000000111 Fe
   0.666666571169993727    0.222222282245667979    0.250000000000000000 Fe
   0.500000000000000000    0.333333288315748988    0.125000000000000000 Fe
   0.166666571169993755    0.888888858877165955    0.625000000000000111 Fe
   0.000000000000000000    0.333333288315748988    0.000000000000000000 Fe
   0.166666571169993755    0.222222282245667979    0.375000000000000056 Fe
   0.166666571169993755    0.555555570561417023    0.125000000000000000 Fe
   0.333333428830006273    0.777777717754332021    0.250000000000000000 Fe
   0.500000000000000000    0.333333288315748988    0.625000000000000111 Fe
   0.833333142339987454    0.777777717754332021    0.375000000000000056 Fe
   0.833333142339987454    0.777777717754332021    0.125000000000000000 Fe
   0.000000000000000000    0.000000000000000000    0.250000000000000000 Fe
   0.666666571169993727    0.222222282245667979    0.500000000000000000 Fe
