Fe108
1.0
   8.061019999999999186    0.000000000000000000    0.000000000000000000
   0.000000000000000000    7.404513999999999818    0.000000000000000000
   0.000000000000000000   -2.468172400785650034   20.943139999999999645
Fe
108
direct
   0.000000000000000000    0.000000000000000000    0.000000000000000000 Fe
   0.000000000000000000    0.333333288315748988    0.000000000000000000 Fe
   0.000000000000000000    0.666666711684250957    0.000000000000000000 Fe
   0.000000000000000000    0.111111148554490780    0.333333301501112067 Fe
   0.000000000000000000    0.444444436870239767    0.333333301501112067 Fe
   0.000000000000000000    0.777777860238741736    0.333333301501112067 Fe
   0.000000000000000000   -0.111111164470608287    0.666666650750555978 Fe
   0.000000000000000000    0.222222123845140701    0.666666650750555978 Fe
   0.000000000000000000    0.555555547213642642    0.666666650750555978 Fe
   0.500000000000000000    0.000000000000000000    0.000000000000000000 Fe
   0.500000000000000000    0.333333288315748988    0.000000000000000000 Fe
   0.500000000000000000    0.666666711684250957    0.000000000000000000 Fe
   0.500000000000000000    0.111111148554490780    0.333333301501112067 Fe
   0.500000000000000000    0.444444436870239767    0.333333301501112067 Fe
   0.500000000000000000    0.777777860238741736    0.333333301501112067 Fe
   0.500000000000000000   -0.111111164470608287    0.666666650750555978 Fe
   0.500000000000000000    0.222222123845140701    0.666666650750555978 Fe
   0.500000000000000000    0.555555547213642642    0.666666650750555978 Fe
   0.250000000000000000    0.055555574277245390    0.166666650750556034 Fe
   0.250000000000000000    0.388888862592994378    0.166666650750556034 Fe
   0.250000000000000000    0.722222285961496402    0.166666650750556034 Fe
   0.250000000000000000   -0.166666738747853677    0.500000000000000000 Fe
   0.250000000000000000    0.166666549567895311    0.500000000000000000 Fe
   0.250000000000000000    0.499999972936397308    0.500000000000000000 Fe
   0.250000000000000000   -0.055555590193362925    0.833333301501112067 Fe
   0.250000000000000000    0.277777698122386063    0.833333301501112067 Fe
   0.250000000000000000    0.611111121490887976    0.833333301501112067 Fe
   0.750000000000000111    0.055555574277245390    0.166666650750556034 Fe
   0.750000000000000111    0.388888862592994378    0.166666650750556034 Fe
   0.750000000000000111    0.722222285961496402    0.166666650750556034 Fe
   0.750000000000000111   -0.166666738747853677    0.500000000000000000 Fe
   0.750000000000000111    0.166666549567895311    0.500000000000000000 Fe
   0.750000000000000111    0.499999972936397308    0.500000000000000000 Fe
   0.750000000000000111   -0.055555590193362925    0.833333301501112067 Fe
   0.750000000000000111    0.277777698122386063    0.833333301501112067 Fe
   0.750000000000000111    0.611111121490887976    0.833333301501112067 Fe
   0.250000000000000000    0.240740796394004752    0.055555518417964071 Fe
   0.250000000000000000    0.574074084709753851    0.055555518417964071 Fe
   0.250000000000000000    0.907407373025502784    0.055555518417964071 Fe
   0.250000000000000000    0.351851944948495532    0.388888819919076145 Fe
   0.250000000000000000    0.685185233264244520    0.388888819919076145 Fe
   0.250000000000000000    1.018518521579993452    0.388888819919076145 Fe
   0.250000000000000000    0.129629631923396493    0.722222169168520112 Fe
   0.250000000000000000    0.462962920239145537    0.722222169168520112 Fe
   0.250000000000000000    0.796296208554894580    0.722222169168520112 Fe
   0.750000000000000111    0.240740796394004752    0.055555518417964071 Fe
   0.750000000000000111    0.574074084709753851    0.055555518417964071 Fe
   0.750000000000000111    0.907407373025502784    0.055555518417964071 Fe
   0.750000000000000111    0.351851944948495532    0.388888819919076145 Fe
   0.750000000000000111    0.685185233264244520    0.388888819919076145 Fe
   0.750000000000000111    1.018518521579993452    0.388888819919076145 Fe
   0.750000000000000111    0.129629631923396493    0.722222169168520112 Fe
   0.750000000000000111    0.462962920239145537    0.722222169168520112 Fe
   0.750000000000000111    0.796296208554894580    0.722222169168520112 Fe
   0.000000000000000000    0.296296370671250142    0.222222169168520084 Fe
   0.000000000000000000    0.629629658986999186    0.222222169168520084 Fe
   0.000000000000000000    0.962962947302748118    0.222222169168520084 Fe
   0.000000000000000000    0.074074057646151104    0.555555518417964134 Fe
   0.000000000000000000    0.407407345961900091    0.555555518417964134 Fe
   0.000000000000000000    0.740740634277649135    0.555555518417964134 Fe
   0.000000000000000000    0.185185206200641883    0.888888819919076201 Fe
   0.000000000000000000    0.518518494516390871    0.888888819919076201 Fe
   0.000000000000000000    0.851851782832139914    0.888888819919076201 Fe
   0.500000000000000000    0.296296370671250142    0.222222169168520084 Fe
   0.500000000000000000    0.629629658986999186    0.222222169168520084 Fe
   0.500000000000000000    0.962962947302748118    0.222222169168520084 Fe
   0.500000000000000000    0.074074057646151104    0.555555518417964134 Fe
   0.500000000000000000    0.407407345961900091    0.555555518417964134 Fe
   0.500000000000000000    0.740740634277649135    0.555555518417964134 Fe
   0.500000000000000000    0.185185206200641883    0.888888819919076201 Fe
   0.500000000000000000    0.518518494516390871    0.888888819919076201 Fe
   0.500000000000000000    0.851851782832139914    0.888888819919076201 Fe
   0.000000000000000000    0.148148201251742606    0.111111132332591969 Fe
   0.000000000000000000    0.481481489567491594    0.111111132332591969 Fe
   0.000000000000000000    0.814814777883240637    0.111111132332591969 Fe
   0.000000000000000000    0.259259365722350921    0.444444481582035977 Fe
   0.000000000000000000    0.592592654038099909    0.444444481582035977 Fe
   0.000000000000000000    0.925925942353848952    0.444444481582035977 Fe
   0.000000000000000000    0.037037036781134347    0.777777783083148044 Fe
   0.000000000000000000    0.370370325096883335    0.777777783083148044 Fe
   0.000000000000000000    0.703703613412632434    0.777777783083148044 Fe
   0.500000000000000000    0.148148201251742606    0.111111132332591969 Fe
   0.500000000000000000    0.481481489567491594    0.111111132332591969 Fe
   0.500000000000000000    0.814814777883240637    0.111111132332591969 Fe
   0.500000000000000000    0.259259365722350921    0.444444481582035977 Fe
   0.500000000000000000    0.592592654038099909    0.444444481582035977 Fe
   0.500000000000000000    0.925925942353848952    0.444444481582035977 Fe
   0.500000000000000000    0.037037036781134347    0.777777783083148044 Fe
   0.500000000000000000    0.370370325096883335    0.777777783083148044 Fe
   0.500000000000000000    0.703703613412632434    0.777777783083148044 Fe
   0.250000000000000000    0.203703743696752954    0.277777687586484190 Fe
   0.250000000000000000    0.537037032012501969    0.277777687586484190 Fe
   0.250000000000000000    0.870370320328251013    0.277777687586484190 Fe
   0.250000000000000000   -0.018518585244463592    0.611110989087596312 Fe
   0.250000000000000000    0.314814703071285396    0.611110989087596312 Fe
   0.250000000000000000    0.648147991387034494    0.611110989087596312 Fe
   0.250000000000000000    0.092592579226144667    0.944444338337040223 Fe
   0.250000000000000000    0.425925867541893655    0.944444338337040223 Fe
   0.250000000000000000    0.759259155857642698    0.944444338337040223 Fe
   0.750000000000000111    0.203703743696752954    0.277777687586484190 Fe
   0.750000000000000111    0.537037032012501969    0.277777687586484190 Fe
   0.750000000000000111    0.870370320328251013    0.277777687586484190 Fe
   0.750000000000000111   -0.018518585244463592    0.611110989087596312 Fe
   0.750000000000000111    0.314814703071285396    0.611110989087596312 Fe
   0.750000000000000111    0.648147991387034494    0.611110989087596312 Fe
   0.750000000000000111    0.092592579226144667    0.944444338337040223 Fe
   0.750000000000000111    0.425925867541893655    0.944444338337040223 Fe
   0.750000000000000111    0.759259155857642698    0.944444338337040223 Fe
