Fe72
1.0
   6.981046000000000085    0.000000000000000000    0.000000000000000000
   0.000000000000000000    7.404513999999999818    0.000000000000000000
   0.000000000000000000   -1.234086200392825017   16.122039999999998372
Fe
72
direct
   0.000000000000000000    0.000000000000000000    0.000000000000000000 Fe
   0.000000000000000000    0.333333288315748988    0.000000000000000000 Fe
   0.000000000000000000    0.666666711684250957    0.000000000000000000 Fe
   0.000000000000000000    0.041666684686963419    0.250000000000000000 Fe
   0.000000000000000000    0.374999973002712428    0.250000000000000000 Fe
   0.000000000000000000    0.708333396371214397    0.250000000000000000 Fe
   0.000000000000000000   -0.083333369373926838    0.500000000000000000 Fe
   0.000000000000000000    0.249999918941822163    0.500000000000000000 Fe
   0.000000000000000000    0.583333342310324188    0.500000000000000000 Fe
   0.000000000000000000   -0.041666684686963412    0.750000000000000111 Fe
   0.000000000000000000    0.291666603628785603    0.750000000000000111 Fe
   0.000000000000000000    0.625000026997287517    0.750000000000000111 Fe
   0.500000000000000000    0.020833342343481710    0.125000000000000000 Fe
   0.500000000000000000    0.354166630659230708    0.125000000000000000 Fe
   0.500000000000000000    0.687500054027732621    0.125000000000000000 Fe
   0.500000000000000000    0.062500027030445132    0.375000000000000056 Fe
   0.500000000000000000    0.395833315346194148    0.375000000000000056 Fe
   0.500000000000000000    0.729166738714696061    0.375000000000000056 Fe
   0.500000000000000000   -0.062500027030445104    0.625000000000000111 Fe
   0.500000000000000000    0.270833261285303883    0.625000000000000111 Fe
   0.500000000000000000    0.604166684653805852    0.625000000000000111 Fe
   0.500000000000000000   -0.020833342343481692    0.875000000000000111 Fe
   0.500000000000000000    0.312499945972267268    0.875000000000000111 Fe
   0.500000000000000000    0.645833369340769292    0.875000000000000111 Fe
   0.166666571169993755    0.243055624589149699    0.125000000000000000 Fe
   0.166666571169993755    0.576388912904898687    0.125000000000000000 Fe
   0.166666571169993755    0.909722201220647619    0.125000000000000000 Fe
   0.166666571169993755    0.284722309276113084    0.375000000000000056 Fe
   0.166666571169993755    0.618055597591862127    0.375000000000000056 Fe
   0.166666571169993755    0.951388885907611059    0.375000000000000056 Fe
   0.166666571169993755    0.159722255215222875    0.625000000000000111 Fe
   0.166666571169993755    0.493055543530971918    0.625000000000000111 Fe
   0.166666571169993755    0.826388831846720850    0.625000000000000111 Fe
   0.166666571169993755    0.201388939902186287    0.875000000000000111 Fe
   0.166666571169993755    0.534722228217935358    0.875000000000000111 Fe
   0.166666571169993755    0.868055516533684290    0.875000000000000111 Fe
   0.666666571169993727    0.222222282245667979    0.000000000000000000 Fe
   0.666666571169993727    0.555555570561417023    0.000000000000000000 Fe
   0.666666571169993727    0.888888858877165955    0.000000000000000000 Fe
   0.666666571169993727    0.263888966932631419    0.250000000000000000 Fe
   0.666666571169993727    0.597222255248380463    0.250000000000000000 Fe
   0.666666571169993727    0.930555543564129395    0.250000000000000000 Fe
   0.666666571169993727    0.138888912871741155    0.500000000000000000 Fe
   0.666666571169993727    0.472222201187490143    0.500000000000000000 Fe
   0.666666571169993727    0.805555489503239186    0.500000000000000000 Fe
   0.666666571169993727    0.180555597558704567    0.750000000000000111 Fe
   0.666666571169993727    0.513888885874453583    0.750000000000000111 Fe
   0.666666571169993727    0.847222174190202626    0.750000000000000111 Fe
   0.333333428830006273    0.111111141122833990    0.000000000000000000 Fe
   0.333333428830006273    0.444444429438582977    0.000000000000000000 Fe
   0.333333428830006273    0.777777717754332021    0.000000000000000000 Fe
   0.333333428830006273    0.152777825809797402    0.250000000000000000 Fe
   0.333333428830006273    0.486111114125546417    0.250000000000000000 Fe
   0.333333428830006273    0.819444402441295461    0.250000000000000000 Fe
   0.333333428830006273    0.027777771748907151    0.500000000000000000 Fe
   0.333333428830006273    0.361111060064656153    0.500000000000000000 Fe
   0.333333428830006273    0.694444348380405252    0.500000000000000000 Fe
   0.333333428830006273    0.069444456435870577    0.750000000000000111 Fe
   0.333333428830006273    0.402777744751619593    0.750000000000000111 Fe
   0.333333428830006273    0.736111033067368581    0.750000000000000111 Fe
   0.833333142339987454    0.131944483466315710    0.125000000000000000 Fe
   0.833333142339987454    0.465277771782064697    0.125000000000000000 Fe
   0.833333142339987454    0.798611060097813685    0.125000000000000000 Fe
   0.833333142339987454    0.173611168153279122    0.375000000000000056 Fe
   0.833333142339987454    0.506944456469028082    0.375000000000000056 Fe
   0.833333142339987454    0.840277744784777125    0.375000000000000056 Fe
   0.833333142339987454    0.048611114092388885    0.625000000000000111 Fe
   0.833333142339987454    0.381944402408137873    0.625000000000000111 Fe
   0.833333142339987454    0.715277690723886916    0.625000000000000111 Fe
   0.833333142339987454    0.090277798779352297    0.875000000000000111 Fe
   0.833333142339987454    0.423611087095101313    0.875000000000000111 Fe
   0.833333142339987454    0.756944375410850356    0.875000000000000111 Fe
