Generated by pymatgen.io.lammps.data.LammpsData

2000  atoms

   3  atom types

0.000000 28.304885  xlo xhi
0.000000 28.304885  ylo yhi
0.000000 28.304885  zlo zhi
0.000000 0.000000 0.000000  xy xz yz

Masses

1  55.8450
2   4.0026
3  51.9961

Atoms

1     1  0.000000  0.000000  0.000000
2     1  0.000000  0.000000  2.830488
3     1  0.000000  0.000000  5.660977
4     1  0.000000  0.000000  8.491465
5     1  0.000000  0.000000 11.321954
6     1  0.000000  0.000000 14.152442
7     1  0.000000  0.000000 16.982931
8     1  0.000000  0.000000 19.813419
9     1  0.000000  0.000000 22.643908
10    1  0.000000  0.000000 25.474396
11    1  0.000000  2.830488  0.000000
12    1  0.000000  2.830488  2.830488
13    1  0.000000  2.830488  5.660977
14    1  0.000000  2.830488  8.491465
15    1  0.000000  2.830488 11.321954
16    1  0.000000  2.830488 14.152442
17    1  0.000000  2.830488 16.982931
18    1  0.000000  2.830488 19.813419
19    1  0.000000  2.830488 22.643908
20    1  0.000000  2.830488 25.474396
21    1  0.000000  5.660977  0.000000
22    1  0.000000  5.660977  2.830488
23    1  0.000000  5.660977  5.660977
24    1  0.000000  5.660977  8.491465
25    1  0.000000  5.660977 11.321954
26    1  0.000000  5.660977 14.152442
27    1  0.000000  5.660977 16.982931
28    1  0.000000  5.660977 19.813419
29    1  0.000000  5.660977 22.643908
30    1  0.000000  5.660977 25.474396
31    1  0.000000  8.491465  0.000000
32    1  0.000000  8.491465  2.830488
33    1  0.000000  8.491465  5.660977
34    1  0.000000  8.491465  8.491465
35    1  0.000000  8.491465 11.321954
36    1  0.000000  8.491465 14.152442
37    1  0.000000  8.491465 16.982931
38    1  0.000000  8.491465 19.813419
39    1  0.000000  8.491465 22.643908
40    1  0.000000  8.491465 25.474396
41    1  0.000000 11.321954  0.000000
42    1  0.000000 11.321954  2.830488
43    1  0.000000 11.321954  5.660977
44    1  0.000000 11.321954  8.491465
45    1  0.000000 11.321954 11.321954
46    1  0.000000 11.321954 14.152442
47    1  0.000000 11.321954 16.982931
48    1  0.000000 11.321954 19.813419
49    1  0.000000 11.321954 22.643908
50    1  0.000000 11.321954 25.474396
51    1  0.000000 14.152442  0.000000
52    1  0.000000 14.152442  2.830488
53    1  0.000000 14.152442  5.660977
54    1  0.000000 14.152442  8.491465
55    1  0.000000 14.152442 11.321954
56    1  0.000000 14.152442 14.152442
57    1  0.000000 14.152442 16.982931
58    1  0.000000 14.152442 19.813419
59    1  0.000000 14.152442 22.643908
60    1  0.000000 14.152442 25.474396
61    1  0.000000 16.982931  0.000000
62    1  0.000000 16.982931  2.830488
63    1  0.000000 16.982931  5.660977
64    1  0.000000 16.982931  8.491465
65    1  0.000000 16.982931 11.321954
66    1  0.000000 16.982931 14.152442
67    1  0.000000 16.982931 16.982931
68    1  0.000000 16.982931 19.813419
69    1  0.000000 16.982931 22.643908
70    1  0.000000 16.982931 25.474396
71    1  0.000000 19.813419  0.000000
72    1  0.000000 19.813419  2.830488
73    1  0.000000 19.813419  5.660977
74    1  0.000000 19.813419  8.491465
75    1  0.000000 19.813419 11.321954
76    1  0.000000 19.813419 14.152442
77    1  0.000000 19.813419 16.982931
78    1  0.000000 19.813419 19.813419
79    1  0.000000 19.813419 22.643908
80    1  0.000000 19.813419 25.474396
81    1  0.000000 22.643908  0.000000
82    1  0.000000 22.643908  2.830488
83    1  0.000000 22.643908  5.660977
84    1  0.000000 22.643908  8.491465
85    1  0.000000 22.643908 11.321954
86    1  0.000000 22.643908 14.152442
87    1  0.000000 22.643908 16.982931
88    1  0.000000 22.643908 19.813419
89    1  0.000000 22.643908 22.643908
90    1  0.000000 22.643908 25.474396
91    1  0.000000 25.474396  0.000000
92    1  0.000000 25.474396  2.830488
93    1  0.000000 25.474396  5.660977
94    1  0.000000 25.474396  8.491465
95    1  0.000000 25.474396 11.321954
96    1  0.000000 25.474396 14.152442
97    1  0.000000 25.474396 16.982931
98    1  0.000000 25.474396 19.813419
99    1  0.000000 25.474396 22.643908
100   1  0.000000 25.474396 25.474396
101   1  2.830488  0.000000  0.000000
102   1  2.830488  0.000000  2.830488
103   1  2.830488  0.000000  5.660977
104   1  2.830488  0.000000  8.491465
105   1  2.830488  0.000000 11.321954
106   1  2.830488  0.000000 14.152442
107   1  2.830488  0.000000 16.982931
108   1  2.830488  0.000000 19.813419
109   1  2.830488  0.000000 22.643908
110   1  2.830488  0.000000 25.474396
111   1  2.830488  2.830488  0.000000
112   1  2.830488  2.830488  2.830488
113   1  2.830488  2.830488  5.660977
114   1  2.830488  2.830488  8.491465
115   1  2.830488  2.830488 11.321954
116   1  2.830488  2.830488 14.152442
117   1  2.830488  2.830488 16.982931
118   1  2.830488  2.830488 19.813419
119   1  2.830488  2.830488 22.643908
120   1  2.830488  2.830488 25.474396
121   1  2.830488  5.660977  0.000000
122   1  2.830488  5.660977  2.830488
123   1  2.830488  5.660977  5.660977
124   1  2.830488  5.660977  8.491465
125   1  2.830488  5.660977 11.321954
126   1  2.830488  5.660977 14.152442
127   1  2.830488  5.660977 16.982931
128   1  2.830488  5.660977 19.813419
129   1  2.830488  5.660977 22.643908
130   1  2.830488  5.660977 25.474396
131   1  2.830488  8.491465  0.000000
132   1  2.830488  8.491465  2.830488
133   1  2.830488  8.491465  5.660977
134   1  2.830488  8.491465  8.491465
135   1  2.830488  8.491465 11.321954
136   1  2.830488  8.491465 14.152442
137   1  2.830488  8.491465 16.982931
138   1  2.830488  8.491465 19.813419
139   1  2.830488  8.491465 22.643908
140   1  2.830488  8.491465 25.474396
141   1  2.830488 11.321954  0.000000
142   1  2.830488 11.321954  2.830488
143   1  2.830488 11.321954  5.660977
144   1  2.830488 11.321954  8.491465
145   1  2.830488 11.321954 11.321954
146   1  2.830488 11.321954 14.152442
147   1  2.830488 11.321954 16.982931
148   1  2.830488 11.321954 19.813419
149   1  2.830488 11.321954 22.643908
150   1  2.830488 11.321954 25.474396
151   1  2.830488 14.152442  0.000000
152   1  2.830488 14.152442  2.830488
153   1  2.830488 14.152442  5.660977
154   1  2.830488 14.152442  8.491465
155   1  2.830488 14.152442 11.321954
156   1  2.830488 14.152442 14.152442
157   1  2.830488 14.152442 16.982931
158   1  2.830488 14.152442 19.813419
159   1  2.830488 14.152442 22.643908
160   1  2.830488 14.152442 25.474396
161   1  2.830488 16.982931  0.000000
162   1  2.830488 16.982931  2.830488
163   1  2.830488 16.982931  5.660977
164   1  2.830488 16.982931  8.491465
165   1  2.830488 16.982931 11.321954
166   1  2.830488 16.982931 14.152442
167   1  2.830488 16.982931 16.982931
168   1  2.830488 16.982931 19.813419
169   1  2.830488 16.982931 22.643908
170   1  2.830488 16.982931 25.474396
171   1  2.830488 19.813419  0.000000
172   1  2.830488 19.813419  2.830488
173   1  2.830488 19.813419  5.660977
174   1  2.830488 19.813419  8.491465
175   1  2.830488 19.813419 11.321954
176   1  2.830488 19.813419 14.152442
177   1  2.830488 19.813419 16.982931
178   1  2.830488 19.813419 19.813419
179   1  2.830488 19.813419 22.643908
180   1  2.830488 19.813419 25.474396
181   1  2.830488 22.643908  0.000000
182   1  2.830488 22.643908  2.830488
183   1  2.830488 22.643908  5.660977
184   1  2.830488 22.643908  8.491465
185   1  2.830488 22.643908 11.321954
186   1  2.830488 22.643908 14.152442
187   1  2.830488 22.643908 16.982931
188   1  2.830488 22.643908 19.813419
189   1  2.830488 22.643908 22.643908
190   1  2.830488 22.643908 25.474396
191   1  2.830488 25.474396  0.000000
192   1  2.830488 25.474396  2.830488
193   1  2.830488 25.474396  5.660977
194   1  2.830488 25.474396  8.491465
195   1  2.830488 25.474396 11.321954
196   1  2.830488 25.474396 14.152442
197   1  2.830488 25.474396 16.982931
198   1  2.830488 25.474396 19.813419
199   1  2.830488 25.474396 22.643908
200   1  2.830488 25.474396 25.474396
201   1  5.660977  0.000000  0.000000
202   1  5.660977  0.000000  2.830488
203   1  5.660977  0.000000  5.660977
204   1  5.660977  0.000000  8.491465
205   1  5.660977  0.000000 11.321954
206   1  5.660977  0.000000 14.152442
207   1  5.660977  0.000000 16.982931
208   1  5.660977  0.000000 19.813419
209   1  5.660977  0.000000 22.643908
210   1  5.660977  0.000000 25.474396
211   1  5.660977  2.830488  0.000000
212   1  5.660977  2.830488  2.830488
213   1  5.660977  2.830488  5.660977
214   1  5.660977  2.830488  8.491465
215   1  5.660977  2.830488 11.321954
216   1  5.660977  2.830488 14.152442
217   1  5.660977  2.830488 16.982931
218   1  5.660977  2.830488 19.813419
219   1  5.660977  2.830488 22.643908
220   1  5.660977  2.830488 25.474396
221   1  5.660977  5.660977  0.000000
222   1  5.660977  5.660977  2.830488
223   1  5.660977  5.660977  5.660977
224   1  5.660977  5.660977  8.491465
225   1  5.660977  5.660977 11.321954
226   1  5.660977  5.660977 14.152442
227   1  5.660977  5.660977 16.982931
228   1  5.660977  5.660977 19.813419
229   1  5.660977  5.660977 22.643908
230   1  5.660977  5.660977 25.474396
231   1  5.660977  8.491465  0.000000
232   1  5.660977  8.491465  2.830488
233   1  5.660977  8.491465  5.660977
234   1  5.660977  8.491465  8.491465
235   1  5.660977  8.491465 11.321954
236   1  5.660977  8.491465 14.152442
237   1  5.660977  8.491465 16.982931
238   1  5.660977  8.491465 19.813419
239   1  5.660977  8.491465 22.643908
240   1  5.660977  8.491465 25.474396
241   1  5.660977 11.321954  0.000000
242   1  5.660977 11.321954  2.830488
243   1  5.660977 11.321954  5.660977
244   1  5.660977 11.321954  8.491465
245   1  5.660977 11.321954 11.321954
246   1  5.660977 11.321954 14.152442
247   1  5.660977 11.321954 16.982931
248   1  5.660977 11.321954 19.813419
249   1  5.660977 11.321954 22.643908
250   1  5.660977 11.321954 25.474396
251   1  5.660977 14.152442  0.000000
252   1  5.660977 14.152442  2.830488
253   1  5.660977 14.152442  5.660977
254   1  5.660977 14.152442  8.491465
255   1  5.660977 14.152442 11.321954
256   1  5.660977 14.152442 14.152442
257   1  5.660977 14.152442 16.982931
258   1  5.660977 14.152442 19.813419
259   1  5.660977 14.152442 22.643908
260   1  5.660977 14.152442 25.474396
261   1  5.660977 16.982931  0.000000
262   1  5.660977 16.982931  2.830488
263   1  5.660977 16.982931  5.660977
264   1  5.660977 16.982931  8.491465
265   1  5.660977 16.982931 11.321954
266   1  5.660977 16.982931 14.152442
267   1  5.660977 16.982931 16.982931
268   1  5.660977 16.982931 19.813419
269   1  5.660977 16.982931 22.643908
270   1  5.660977 16.982931 25.474396
271   1  5.660977 19.813419  0.000000
272   1  5.660977 19.813419  2.830488
273   1  5.660977 19.813419  5.660977
274   1  5.660977 19.813419  8.491465
275   1  5.660977 19.813419 11.321954
276   1  5.660977 19.813419 14.152442
277   1  5.660977 19.813419 16.982931
278   1  5.660977 19.813419 19.813419
279   1  5.660977 19.813419 22.643908
280   1  5.660977 19.813419 25.474396
281   1  5.660977 22.643908  0.000000
282   1  5.660977 22.643908  2.830488
283   1  5.660977 22.643908  5.660977
284   1  5.660977 22.643908  8.491465
285   1  5.660977 22.643908 11.321954
286   1  5.660977 22.643908 14.152442
287   1  5.660977 22.643908 16.982931
288   1  5.660977 22.643908 19.813419
289   1  5.660977 22.643908 22.643908
290   1  5.660977 22.643908 25.474396
291   1  5.660977 25.474396  0.000000
292   1  5.660977 25.474396  2.830488
293   1  5.660977 25.474396  5.660977
294   1  5.660977 25.474396  8.491465
295   1  5.660977 25.474396 11.321954
296   1  5.660977 25.474396 14.152442
297   1  5.660977 25.474396 16.982931
298   1  5.660977 25.474396 19.813419
299   1  5.660977 25.474396 22.643908
300   1  5.660977 25.474396 25.474396
301   1  8.491465  0.000000  0.000000
302   1  8.491465  0.000000  2.830488
303   1  8.491465  0.000000  5.660977
304   1  8.491465  0.000000  8.491465
305   1  8.491465  0.000000 11.321954
306   1  8.491465  0.000000 14.152442
307   1  8.491465  0.000000 16.982931
308   1  8.491465  0.000000 19.813419
309   1  8.491465  0.000000 22.643908
310   1  8.491465  0.000000 25.474396
311   1  8.491465  2.830488  0.000000
312   1  8.491465  2.830488  2.830488
313   1  8.491465  2.830488  5.660977
314   1  8.491465  2.830488  8.491465
315   1  8.491465  2.830488 11.321954
316   1  8.491465  2.830488 14.152442
317   1  8.491465  2.830488 16.982931
318   1  8.491465  2.830488 19.813419
319   1  8.491465  2.830488 22.643908
320   1  8.491465  2.830488 25.474396
321   1  8.491465  5.660977  0.000000
322   1  8.491465  5.660977  2.830488
323   1  8.491465  5.660977  5.660977
324   1  8.491465  5.660977  8.491465
325   1  8.491465  5.660977 11.321954
326   1  8.491465  5.660977 14.152442
327   1  8.491465  5.660977 16.982931
328   1  8.491465  5.660977 19.813419
329   1  8.491465  5.660977 22.643908
330   1  8.491465  5.660977 25.474396
331   1  8.491465  8.491465  0.000000
332   1  8.491465  8.491465  2.830488
333   1  8.491465  8.491465  5.660977
334   1  8.491465  8.491465  8.491465
335   1  8.491465  8.491465 11.321954
336   1  8.491465  8.491465 14.152442
337   1  8.491465  8.491465 16.982931
338   1  8.491465  8.491465 19.813419
339   1  8.491465  8.491465 22.643908
340   1  8.491465  8.491465 25.474396
341   1  8.491465 11.321954  0.000000
342   1  8.491465 11.321954  2.830488
343   1  8.491465 11.321954  5.660977
344   1  8.491465 11.321954  8.491465
345   1  8.491465 11.321954 11.321954
346   1  8.491465 11.321954 14.152442
347   1  8.491465 11.321954 16.982931
348   1  8.491465 11.321954 19.813419
349   1  8.491465 11.321954 22.643908
350   1  8.491465 11.321954 25.474396
351   1  8.491465 14.152442  0.000000
352   1  8.491465 14.152442  2.830488
353   1  8.491465 14.152442  5.660977
354   1  8.491465 14.152442  8.491465
355   1  8.491465 14.152442 11.321954
356   1  8.491465 14.152442 14.152442
357   1  8.491465 14.152442 16.982931
358   1  8.491465 14.152442 19.813419
359   1  8.491465 14.152442 22.643908
360   1  8.491465 14.152442 25.474396
361   1  8.491465 16.982931  0.000000
362   1  8.491465 16.982931  2.830488
363   1  8.491465 16.982931  5.660977
364   1  8.491465 16.982931  8.491465
365   1  8.491465 16.982931 11.321954
366   1  8.491465 16.982931 14.152442
367   1  8.491465 16.982931 16.982931
368   1  8.491465 16.982931 19.813419
369   1  8.491465 16.982931 22.643908
370   1  8.491465 16.982931 25.474396
371   1  8.491465 19.813419  0.000000
372   1  8.491465 19.813419  2.830488
373   1  8.491465 19.813419  5.660977
374   1  8.491465 19.813419  8.491465
375   1  8.491465 19.813419 11.321954
376   1  8.491465 19.813419 14.152442
377   1  8.491465 19.813419 16.982931
378   1  8.491465 19.813419 19.813419
379   1  8.491465 19.813419 22.643908
380   1  8.491465 19.813419 25.474396
381   1  8.491465 22.643908  0.000000
382   1  8.491465 22.643908  2.830488
383   1  8.491465 22.643908  5.660977
384   1  8.491465 22.643908  8.491465
385   1  8.491465 22.643908 11.321954
386   1  8.491465 22.643908 14.152442
387   1  8.491465 22.643908 16.982931
388   1  8.491465 22.643908 19.813419
389   1  8.491465 22.643908 22.643908
390   1  8.491465 22.643908 25.474396
391   1  8.491465 25.474396  0.000000
392   1  8.491465 25.474396  2.830488
393   1  8.491465 25.474396  5.660977
394   1  8.491465 25.474396  8.491465
395   1  8.491465 25.474396 11.321954
396   1  8.491465 25.474396 14.152442
397   1  8.491465 25.474396 16.982931
398   1  8.491465 25.474396 19.813419
399   1  8.491465 25.474396 22.643908
400   1  8.491465 25.474396 25.474396
401   1 11.321954  0.000000  0.000000
402   1 11.321954  0.000000  2.830488
403   1 11.321954  0.000000  5.660977
404   1 11.321954  0.000000  8.491465
405   1 11.321954  0.000000 11.321954
406   1 11.321954  0.000000 14.152442
407   1 11.321954  0.000000 16.982931
408   1 11.321954  0.000000 19.813419
409   1 11.321954  0.000000 22.643908
410   1 11.321954  0.000000 25.474396
411   1 11.321954  2.830488  0.000000
412   1 11.321954  2.830488  2.830488
413   1 11.321954  2.830488  5.660977
414   1 11.321954  2.830488  8.491465
415   1 11.321954  2.830488 11.321954
416   1 11.321954  2.830488 14.152442
417   1 11.321954  2.830488 16.982931
418   1 11.321954  2.830488 19.813419
419   1 11.321954  2.830488 22.643908
420   1 11.321954  2.830488 25.474396
421   1 11.321954  5.660977  0.000000
422   1 11.321954  5.660977  2.830488
423   1 11.321954  5.660977  5.660977
424   1 11.321954  5.660977  8.491465
425   1 11.321954  5.660977 11.321954
426   1 11.321954  5.660977 14.152442
427   1 11.321954  5.660977 16.982931
428   1 11.321954  5.660977 19.813419
429   1 11.321954  5.660977 22.643908
430   1 11.321954  5.660977 25.474396
431   1 11.321954  8.491465  0.000000
432   1 11.321954  8.491465  2.830488
433   1 11.321954  8.491465  5.660977
434   1 11.321954  8.491465  8.491465
435   1 11.321954  8.491465 11.321954
436   1 11.321954  8.491465 14.152442
437   1 11.321954  8.491465 16.982931
438   1 11.321954  8.491465 19.813419
439   1 11.321954  8.491465 22.643908
440   1 11.321954  8.491465 25.474396
441   1 11.321954 11.321954  0.000000
442   1 11.321954 11.321954  2.830488
443   1 11.321954 11.321954  5.660977
444   1 11.321954 11.321954  8.491465
445   1 11.321954 11.321954 11.321954
446   1 11.321954 11.321954 14.152442
447   1 11.321954 11.321954 16.982931
448   1 11.321954 11.321954 19.813419
449   1 11.321954 11.321954 22.643908
450   1 11.321954 11.321954 25.474396
451   1 11.321954 14.152442  0.000000
452   1 11.321954 14.152442  2.830488
453   1 11.321954 14.152442  5.660977
454   1 11.321954 14.152442  8.491465
455   1 11.321954 14.152442 11.321954
456   1 11.321954 14.152442 14.152442
457   1 11.321954 14.152442 16.982931
458   1 11.321954 14.152442 19.813419
459   1 11.321954 14.152442 22.643908
460   1 11.321954 14.152442 25.474396
461   1 11.321954 16.982931  0.000000
462   1 11.321954 16.982931  2.830488
463   1 11.321954 16.982931  5.660977
464   1 11.321954 16.982931  8.491465
465   1 11.321954 16.982931 11.321954
466   1 11.321954 16.982931 14.152442
467   1 11.321954 16.982931 16.982931
468   1 11.321954 16.982931 19.813419
469   1 11.321954 16.982931 22.643908
470   1 11.321954 16.982931 25.474396
471   1 11.321954 19.813419  0.000000
472   1 11.321954 19.813419  2.830488
473   1 11.321954 19.813419  5.660977
474   1 11.321954 19.813419  8.491465
475   1 11.321954 19.813419 11.321954
476   1 11.321954 19.813419 14.152442
477   1 11.321954 19.813419 16.982931
478   1 11.321954 19.813419 19.813419
479   1 11.321954 19.813419 22.643908
480   1 11.321954 19.813419 25.474396
481   1 11.321954 22.643908  0.000000
482   1 11.321954 22.643908  2.830488
483   1 11.321954 22.643908  5.660977
484   1 11.321954 22.643908  8.491465
485   1 11.321954 22.643908 11.321954
486   1 11.321954 22.643908 14.152442
487   1 11.321954 22.643908 16.982931
488   1 11.321954 22.643908 19.813419
489   1 11.321954 22.643908 22.643908
490   1 11.321954 22.643908 25.474396
491   1 11.321954 25.474396  0.000000
492   1 11.321954 25.474396  2.830488
493   1 11.321954 25.474396  5.660977
494   1 11.321954 25.474396  8.491465
495   1 11.321954 25.474396 11.321954
496   1 11.321954 25.474396 14.152442
497   1 11.321954 25.474396 16.982931
498   1 11.321954 25.474396 19.813419
499   1 11.321954 25.474396 22.643908
500   1 11.321954 25.474396 25.474396
501   1 14.152442  0.000000  0.000000
502   1 14.152442  0.000000  2.830488
503   1 14.152442  0.000000  5.660977
504   1 14.152442  0.000000  8.491465
505   1 14.152442  0.000000 11.321954
506   1 14.152442  0.000000 14.152442
507   1 14.152442  0.000000 16.982931
508   1 14.152442  0.000000 19.813419
509   1 14.152442  0.000000 22.643908
510   1 14.152442  0.000000 25.474396
511   1 14.152442  2.830488  0.000000
512   1 14.152442  2.830488  2.830488
513   1 14.152442  2.830488  5.660977
514   1 14.152442  2.830488  8.491465
515   1 14.152442  2.830488 11.321954
516   1 14.152442  2.830488 14.152442
517   1 14.152442  2.830488 16.982931
518   1 14.152442  2.830488 19.813419
519   1 14.152442  2.830488 22.643908
520   1 14.152442  2.830488 25.474396
521   1 14.152442  5.660977  0.000000
522   1 14.152442  5.660977  2.830488
523   1 14.152442  5.660977  5.660977
524   1 14.152442  5.660977  8.491465
525   1 14.152442  5.660977 11.321954
526   1 14.152442  5.660977 14.152442
527   1 14.152442  5.660977 16.982931
528   1 14.152442  5.660977 19.813419
529   1 14.152442  5.660977 22.643908
530   1 14.152442  5.660977 25.474396
531   1 14.152442  8.491465  0.000000
532   1 14.152442  8.491465  2.830488
533   1 14.152442  8.491465  5.660977
534   1 14.152442  8.491465  8.491465
535   1 14.152442  8.491465 11.321954
536   1 14.152442  8.491465 14.152442
537   1 14.152442  8.491465 16.982931
538   1 14.152442  8.491465 19.813419
539   1 14.152442  8.491465 22.643908
540   1 14.152442  8.491465 25.474396
541   1 14.152442 11.321954  0.000000
542   1 14.152442 11.321954  2.830488
543   1 14.152442 11.321954  5.660977
544   1 14.152442 11.321954  8.491465
545   1 14.152442 11.321954 11.321954
546   1 14.152442 11.321954 14.152442
547   1 14.152442 11.321954 16.982931
548   1 14.152442 11.321954 19.813419
549   1 14.152442 11.321954 22.643908
550   1 14.152442 11.321954 25.474396
551   1 14.152442 14.152442  0.000000
552   1 14.152442 14.152442  2.830488
553   1 14.152442 14.152442  5.660977
554   1 14.152442 14.152442  8.491465
555   1 14.152442 14.152442 11.321954
556   1 14.152442 14.152442 14.152442
557   1 14.152442 14.152442 16.982931
558   1 14.152442 14.152442 19.813419
559   1 14.152442 14.152442 22.643908
560   1 14.152442 14.152442 25.474396
561   1 14.152442 16.982931  0.000000
562   1 14.152442 16.982931  2.830488
563   1 14.152442 16.982931  5.660977
564   1 14.152442 16.982931  8.491465
565   1 14.152442 16.982931 11.321954
566   1 14.152442 16.982931 14.152442
567   1 14.152442 16.982931 16.982931
568   1 14.152442 16.982931 19.813419
569   1 14.152442 16.982931 22.643908
570   1 14.152442 16.982931 25.474396
571   1 14.152442 19.813419  0.000000
572   1 14.152442 19.813419  2.830488
573   1 14.152442 19.813419  5.660977
574   1 14.152442 19.813419  8.491465
575   1 14.152442 19.813419 11.321954
576   1 14.152442 19.813419 14.152442
577   1 14.152442 19.813419 16.982931
578   1 14.152442 19.813419 19.813419
579   1 14.152442 19.813419 22.643908
580   1 14.152442 19.813419 25.474396
581   1 14.152442 22.643908  0.000000
582   1 14.152442 22.643908  2.830488
583   1 14.152442 22.643908  5.660977
584   1 14.152442 22.643908  8.491465
585   1 14.152442 22.643908 11.321954
586   1 14.152442 22.643908 14.152442
587   1 14.152442 22.643908 16.982931
588   1 14.152442 22.643908 19.813419
589   1 14.152442 22.643908 22.643908
590   1 14.152442 22.643908 25.474396
591   1 14.152442 25.474396  0.000000
592   1 14.152442 25.474396  2.830488
593   1 14.152442 25.474396  5.660977
594   1 14.152442 25.474396  8.491465
595   1 14.152442 25.474396 11.321954
596   1 14.152442 25.474396 14.152442
597   1 14.152442 25.474396 16.982931
598   1 14.152442 25.474396 19.813419
599   1 14.152442 25.474396 22.643908
600   1 14.152442 25.474396 25.474396
601   1 16.982931  0.000000  0.000000
602   1 16.982931  0.000000  2.830488
603   1 16.982931  0.000000  5.660977
604   1 16.982931  0.000000  8.491465
605   1 16.982931  0.000000 11.321954
606   1 16.982931  0.000000 14.152442
607   1 16.982931  0.000000 16.982931
608   1 16.982931  0.000000 19.813419
609   1 16.982931  0.000000 22.643908
610   1 16.982931  0.000000 25.474396
611   1 16.982931  2.830488  0.000000
612   1 16.982931  2.830488  2.830488
613   1 16.982931  2.830488  5.660977
614   1 16.982931  2.830488  8.491465
615   1 16.982931  2.830488 11.321954
616   1 16.982931  2.830488 14.152442
617   1 16.982931  2.830488 16.982931
618   1 16.982931  2.830488 19.813419
619   1 16.982931  2.830488 22.643908
620   1 16.982931  2.830488 25.474396
621   1 16.982931  5.660977  0.000000
622   1 16.982931  5.660977  2.830488
623   1 16.982931  5.660977  5.660977
624   1 16.982931  5.660977  8.491465
625   1 16.982931  5.660977 11.321954
626   1 16.982931  5.660977 14.152442
627   1 16.982931  5.660977 16.982931
628   1 16.982931  5.660977 19.813419
629   1 16.982931  5.660977 22.643908
630   1 16.982931  5.660977 25.474396
631   1 16.982931  8.491465  0.000000
632   1 16.982931  8.491465  2.830488
633   1 16.982931  8.491465  5.660977
634   1 16.982931  8.491465  8.491465
635   1 16.982931  8.491465 11.321954
636   1 16.982931  8.491465 14.152442
637   1 16.982931  8.491465 16.982931
638   1 16.982931  8.491465 19.813419
639   1 16.982931  8.491465 22.643908
640   1 16.982931  8.491465 25.474396
641   1 16.982931 11.321954  0.000000
642   1 16.982931 11.321954  2.830488
643   1 16.982931 11.321954  5.660977
644   1 16.982931 11.321954  8.491465
645   1 16.982931 11.321954 11.321954
646   1 16.982931 11.321954 14.152442
647   1 16.982931 11.321954 16.982931
648   1 16.982931 11.321954 19.813419
649   1 16.982931 11.321954 22.643908
650   1 16.982931 11.321954 25.474396
651   1 16.982931 14.152442  0.000000
652   1 16.982931 14.152442  2.830488
653   1 16.982931 14.152442  5.660977
654   1 16.982931 14.152442  8.491465
655   1 16.982931 14.152442 11.321954
656   1 16.982931 14.152442 14.152442
657   1 16.982931 14.152442 16.982931
658   1 16.982931 14.152442 19.813419
659   1 16.982931 14.152442 22.643908
660   1 16.982931 14.152442 25.474396
661   1 16.982931 16.982931  0.000000
662   1 16.982931 16.982931  2.830488
663   1 16.982931 16.982931  5.660977
664   1 16.982931 16.982931  8.491465
665   1 16.982931 16.982931 11.321954
666   1 16.982931 16.982931 14.152442
667   1 16.982931 16.982931 16.982931
668   1 16.982931 16.982931 19.813419
669   1 16.982931 16.982931 22.643908
670   1 16.982931 16.982931 25.474396
671   1 16.982931 19.813419  0.000000
672   1 16.982931 19.813419  2.830488
673   1 16.982931 19.813419  5.660977
674   1 16.982931 19.813419  8.491465
675   1 16.982931 19.813419 11.321954
676   1 16.982931 19.813419 14.152442
677   1 16.982931 19.813419 16.982931
678   1 16.982931 19.813419 19.813419
679   1 16.982931 19.813419 22.643908
680   1 16.982931 19.813419 25.474396
681   1 16.982931 22.643908  0.000000
682   1 16.982931 22.643908  2.830488
683   1 16.982931 22.643908  5.660977
684   1 16.982931 22.643908  8.491465
685   1 16.982931 22.643908 11.321954
686   1 16.982931 22.643908 14.152442
687   1 16.982931 22.643908 16.982931
688   1 16.982931 22.643908 19.813419
689   1 16.982931 22.643908 22.643908
690   1 16.982931 22.643908 25.474396
691   1 16.982931 25.474396  0.000000
692   1 16.982931 25.474396  2.830488
693   1 16.982931 25.474396  5.660977
694   1 16.982931 25.474396  8.491465
695   1 16.982931 25.474396 11.321954
696   1 16.982931 25.474396 14.152442
697   1 16.982931 25.474396 16.982931
698   1 16.982931 25.474396 19.813419
699   1 16.982931 25.474396 22.643908
700   1 16.982931 25.474396 25.474396
701   1 19.813419  0.000000  0.000000
702   1 19.813419  0.000000  2.830488
703   1 19.813419  0.000000  5.660977
704   1 19.813419  0.000000  8.491465
705   1 19.813419  0.000000 11.321954
706   1 19.813419  0.000000 14.152442
707   1 19.813419  0.000000 16.982931
708   1 19.813419  0.000000 19.813419
709   1 19.813419  0.000000 22.643908
710   1 19.813419  0.000000 25.474396
711   1 19.813419  2.830488  0.000000
712   1 19.813419  2.830488  2.830488
713   1 19.813419  2.830488  5.660977
714   1 19.813419  2.830488  8.491465
715   1 19.813419  2.830488 11.321954
716   1 19.813419  2.830488 14.152442
717   1 19.813419  2.830488 16.982931
718   1 19.813419  2.830488 19.813419
719   1 19.813419  2.830488 22.643908
720   1 19.813419  2.830488 25.474396
721   1 19.813419  5.660977  0.000000
722   1 19.813419  5.660977  2.830488
723   1 19.813419  5.660977  5.660977
724   1 19.813419  5.660977  8.491465
725   1 19.813419  5.660977 11.321954
726   1 19.813419  5.660977 14.152442
727   1 19.813419  5.660977 16.982931
728   1 19.813419  5.660977 19.813419
729   1 19.813419  5.660977 22.643908
730   1 19.813419  5.660977 25.474396
731   1 19.813419  8.491465  0.000000
732   1 19.813419  8.491465  2.830488
733   1 19.813419  8.491465  5.660977
734   1 19.813419  8.491465  8.491465
735   1 19.813419  8.491465 11.321954
736   1 19.813419  8.491465 14.152442
737   1 19.813419  8.491465 16.982931
738   1 19.813419  8.491465 19.813419
739   1 19.813419  8.491465 22.643908
740   1 19.813419  8.491465 25.474396
741   1 19.813419 11.321954  0.000000
742   1 19.813419 11.321954  2.830488
743   1 19.813419 11.321954  5.660977
744   1 19.813419 11.321954  8.491465
745   1 19.813419 11.321954 11.321954
746   1 19.813419 11.321954 14.152442
747   1 19.813419 11.321954 16.982931
748   1 19.813419 11.321954 19.813419
749   1 19.813419 11.321954 22.643908
750   1 19.813419 11.321954 25.474396
751   1 19.813419 14.152442  0.000000
752   1 19.813419 14.152442  2.830488
753   1 19.813419 14.152442  5.660977
754   1 19.813419 14.152442  8.491465
755   1 19.813419 14.152442 11.321954
756   1 19.813419 14.152442 14.152442
757   1 19.813419 14.152442 16.982931
758   1 19.813419 14.152442 19.813419
759   1 19.813419 14.152442 22.643908
760   1 19.813419 14.152442 25.474396
761   1 19.813419 16.982931  0.000000
762   1 19.813419 16.982931  2.830488
763   1 19.813419 16.982931  5.660977
764   1 19.813419 16.982931  8.491465
765   1 19.813419 16.982931 11.321954
766   1 19.813419 16.982931 14.152442
767   1 19.813419 16.982931 16.982931
768   1 19.813419 16.982931 19.813419
769   1 19.813419 16.982931 22.643908
770   1 19.813419 16.982931 25.474396
771   1 19.813419 19.813419  0.000000
772   1 19.813419 19.813419  2.830488
773   1 19.813419 19.813419  5.660977
774   1 19.813419 19.813419  8.491465
775   1 19.813419 19.813419 11.321954
776   1 19.813419 19.813419 14.152442
777   1 19.813419 19.813419 16.982931
778   1 19.813419 19.813419 19.813419
779   1 19.813419 19.813419 22.643908
780   1 19.813419 19.813419 25.474396
781   1 19.813419 22.643908  0.000000
782   1 19.813419 22.643908  2.830488
783   1 19.813419 22.643908  5.660977
784   1 19.813419 22.643908  8.491465
785   1 19.813419 22.643908 11.321954
786   1 19.813419 22.643908 14.152442
787   1 19.813419 22.643908 16.982931
788   1 19.813419 22.643908 19.813419
789   1 19.813419 22.643908 22.643908
790   1 19.813419 22.643908 25.474396
791   1 19.813419 25.474396  0.000000
792   1 19.813419 25.474396  2.830488
793   1 19.813419 25.474396  5.660977
794   1 19.813419 25.474396  8.491465
795   1 19.813419 25.474396 11.321954
796   1 19.813419 25.474396 14.152442
797   1 19.813419 25.474396 16.982931
798   1 19.813419 25.474396 19.813419
799   1 19.813419 25.474396 22.643908
800   1 19.813419 25.474396 25.474396
801   1 22.643908  0.000000  0.000000
802   1 22.643908  0.000000  2.830488
803   1 22.643908  0.000000  5.660977
804   1 22.643908  0.000000  8.491465
805   1 22.643908  0.000000 11.321954
806   1 22.643908  0.000000 14.152442
807   1 22.643908  0.000000 16.982931
808   1 22.643908  0.000000 19.813419
809   1 22.643908  0.000000 22.643908
810   1 22.643908  0.000000 25.474396
811   1 22.643908  2.830488  0.000000
812   1 22.643908  2.830488  2.830488
813   1 22.643908  2.830488  5.660977
814   1 22.643908  2.830488  8.491465
815   1 22.643908  2.830488 11.321954
816   1 22.643908  2.830488 14.152442
817   1 22.643908  2.830488 16.982931
818   1 22.643908  2.830488 19.813419
819   1 22.643908  2.830488 22.643908
820   1 22.643908  2.830488 25.474396
821   1 22.643908  5.660977  0.000000
822   1 22.643908  5.660977  2.830488
823   1 22.643908  5.660977  5.660977
824   1 22.643908  5.660977  8.491465
825   1 22.643908  5.660977 11.321954
826   1 22.643908  5.660977 14.152442
827   1 22.643908  5.660977 16.982931
828   1 22.643908  5.660977 19.813419
829   1 22.643908  5.660977 22.643908
830   1 22.643908  5.660977 25.474396
831   1 22.643908  8.491465  0.000000
832   1 22.643908  8.491465  2.830488
833   1 22.643908  8.491465  5.660977
834   1 22.643908  8.491465  8.491465
835   1 22.643908  8.491465 11.321954
836   1 22.643908  8.491465 14.152442
837   1 22.643908  8.491465 16.982931
838   1 22.643908  8.491465 19.813419
839   1 22.643908  8.491465 22.643908
840   1 22.643908  8.491465 25.474396
841   1 22.643908 11.321954  0.000000
842   1 22.643908 11.321954  2.830488
843   1 22.643908 11.321954  5.660977
844   1 22.643908 11.321954  8.491465
845   1 22.643908 11.321954 11.321954
846   1 22.643908 11.321954 14.152442
847   1 22.643908 11.321954 16.982931
848   1 22.643908 11.321954 19.813419
849   1 22.643908 11.321954 22.643908
850   1 22.643908 11.321954 25.474396
851   1 22.643908 14.152442  0.000000
852   1 22.643908 14.152442  2.830488
853   1 22.643908 14.152442  5.660977
854   1 22.643908 14.152442  8.491465
855   1 22.643908 14.152442 11.321954
856   1 22.643908 14.152442 14.152442
857   1 22.643908 14.152442 16.982931
858   1 22.643908 14.152442 19.813419
859   1 22.643908 14.152442 22.643908
860   1 22.643908 14.152442 25.474396
861   1 22.643908 16.982931  0.000000
862   1 22.643908 16.982931  2.830488
863   1 22.643908 16.982931  5.660977
864   1 22.643908 16.982931  8.491465
865   1 22.643908 16.982931 11.321954
866   1 22.643908 16.982931 14.152442
867   1 22.643908 16.982931 16.982931
868   1 22.643908 16.982931 19.813419
869   1 22.643908 16.982931 22.643908
870   1 22.643908 16.982931 25.474396
871   1 22.643908 19.813419  0.000000
872   1 22.643908 19.813419  2.830488
873   1 22.643908 19.813419  5.660977
874   1 22.643908 19.813419  8.491465
875   1 22.643908 19.813419 11.321954
876   1 22.643908 19.813419 14.152442
877   1 22.643908 19.813419 16.982931
878   1 22.643908 19.813419 19.813419
879   1 22.643908 19.813419 22.643908
880   1 22.643908 19.813419 25.474396
881   1 22.643908 22.643908  0.000000
882   1 22.643908 22.643908  2.830488
883   1 22.643908 22.643908  5.660977
884   1 22.643908 22.643908  8.491465
885   1 22.643908 22.643908 11.321954
886   1 22.643908 22.643908 14.152442
887   1 22.643908 22.643908 16.982931
888   1 22.643908 22.643908 19.813419
889   1 22.643908 22.643908 22.643908
890   1 22.643908 22.643908 25.474396
891   1 22.643908 25.474396  0.000000
892   1 22.643908 25.474396  2.830488
893   1 22.643908 25.474396  5.660977
894   1 22.643908 25.474396  8.491465
895   1 22.643908 25.474396 11.321954
896   1 22.643908 25.474396 14.152442
897   1 22.643908 25.474396 16.982931
898   1 22.643908 25.474396 19.813419
899   1 22.643908 25.474396 22.643908
900   1 22.643908 25.474396 25.474396
901   1 25.474396  0.000000  0.000000
902   1 25.474396  0.000000  2.830488
903   1 25.474396  0.000000  5.660977
904   1 25.474396  0.000000  8.491465
905   1 25.474396  0.000000 11.321954
906   1 25.474396  0.000000 14.152442
907   1 25.474396  0.000000 16.982931
908   1 25.474396  0.000000 19.813419
909   1 25.474396  0.000000 22.643908
910   1 25.474396  0.000000 25.474396
911   1 25.474396  2.830488  0.000000
912   1 25.474396  2.830488  2.830488
913   1 25.474396  2.830488  5.660977
914   1 25.474396  2.830488  8.491465
915   1 25.474396  2.830488 11.321954
916   1 25.474396  2.830488 14.152442
917   1 25.474396  2.830488 16.982931
918   1 25.474396  2.830488 19.813419
919   1 25.474396  2.830488 22.643908
920   1 25.474396  2.830488 25.474396
921   1 25.474396  5.660977  0.000000
922   1 25.474396  5.660977  2.830488
923   1 25.474396  5.660977  5.660977
924   1 25.474396  5.660977  8.491465
925   1 25.474396  5.660977 11.321954
926   1 25.474396  5.660977 14.152442
927   1 25.474396  5.660977 16.982931
928   1 25.474396  5.660977 19.813419
929   1 25.474396  5.660977 22.643908
930   1 25.474396  5.660977 25.474396
931   1 25.474396  8.491465  0.000000
932   1 25.474396  8.491465  2.830488
933   1 25.474396  8.491465  5.660977
934   1 25.474396  8.491465  8.491465
935   1 25.474396  8.491465 11.321954
936   1 25.474396  8.491465 14.152442
937   1 25.474396  8.491465 16.982931
938   1 25.474396  8.491465 19.813419
939   1 25.474396  8.491465 22.643908
940   1 25.474396  8.491465 25.474396
941   1 25.474396 11.321954  0.000000
942   1 25.474396 11.321954  2.830488
943   1 25.474396 11.321954  5.660977
944   1 25.474396 11.321954  8.491465
945   1 25.474396 11.321954 11.321954
946   1 25.474396 11.321954 14.152442
947   1 25.474396 11.321954 16.982931
948   1 25.474396 11.321954 19.813419
949   1 25.474396 11.321954 22.643908
950   1 25.474396 11.321954 25.474396
951   1 25.474396 14.152442  0.000000
952   1 25.474396 14.152442  2.830488
953   1 25.474396 14.152442  5.660977
954   1 25.474396 14.152442  8.491465
955   1 25.474396 14.152442 11.321954
956   1 25.474396 14.152442 14.152442
957   1 25.474396 14.152442 16.982931
958   1 25.474396 14.152442 19.813419
959   1 25.474396 14.152442 22.643908
960   1 25.474396 14.152442 25.474396
961   1 25.474396 16.982931  0.000000
962   1 25.474396 16.982931  2.830488
963   1 25.474396 16.982931  5.660977
964   1 25.474396 16.982931  8.491465
965   1 25.474396 16.982931 11.321954
966   1 25.474396 16.982931 14.152442
967   1 25.474396 16.982931 16.982931
968   1 25.474396 16.982931 19.813419
969   1 25.474396 16.982931 22.643908
970   1 25.474396 16.982931 25.474396
971   1 25.474396 19.813419  0.000000
972   1 25.474396 19.813419  2.830488
973   1 25.474396 19.813419  5.660977
974   1 25.474396 19.813419  8.491465
975   1 25.474396 19.813419 11.321954
976   1 25.474396 19.813419 14.152442
977   1 25.474396 19.813419 16.982931
978   1 25.474396 19.813419 19.813419
979   1 25.474396 19.813419 22.643908
980   1 25.474396 19.813419 25.474396
981   1 25.474396 22.643908  0.000000
982   1 25.474396 22.643908  2.830488
983   1 25.474396 22.643908  5.660977
984   1 25.474396 22.643908  8.491465
985   1 25.474396 22.643908 11.321954
986   1 25.474396 22.643908 14.152442
987   1 25.474396 22.643908 16.982931
988   1 25.474396 22.643908 19.813419
989   1 25.474396 22.643908 22.643908
990   1 25.474396 22.643908 25.474396
991   1 25.474396 25.474396  0.000000
992   1 25.474396 25.474396  2.830488
993   1 25.474396 25.474396  5.660977
994   1 25.474396 25.474396  8.491465
995   1 25.474396 25.474396 11.321954
996   1 25.474396 25.474396 14.152442
997   1 25.474396 25.474396 16.982931
998   1 25.474396 25.474396 19.813419
999   1 25.474396 25.474396 22.643908
1000  1 25.474396 25.474396 25.474396
1001  1  1.415244  1.415244  1.415244
1002  1  1.415244  1.415244  4.245733
1003  1  1.415244  1.415244  7.076221
1004  1  1.415244  1.415244  9.906710
1005  1  1.415244  1.415244 12.737198
1006  1  1.415244  1.415244 15.567687
1007  1  1.415244  1.415244 18.398175
1008  1  1.415244  1.415244 21.228664
1009  1  1.415244  1.415244 24.059152
1010  1  1.415244  1.415244 26.889640
1011  1  1.415244  4.245733  1.415244
1012  1  1.415244  4.245733  4.245733
1013  1  1.415244  4.245733  7.076221
1014  1  1.415244  4.245733  9.906710
1015  1  1.415244  4.245733 12.737198
1016  1  1.415244  4.245733 15.567687
1017  1  1.415244  4.245733 18.398175
1018  1  1.415244  4.245733 21.228664
1019  1  1.415244  4.245733 24.059152
1020  1  1.415244  4.245733 26.889640
1021  1  1.415244  7.076221  1.415244
1022  1  1.415244  7.076221  4.245733
1023  1  1.415244  7.076221  7.076221
1024  1  1.415244  7.076221  9.906710
1025  1  1.415244  7.076221 12.737198
1026  1  1.415244  7.076221 15.567687
1027  1  1.415244  7.076221 18.398175
1028  1  1.415244  7.076221 21.228664
1029  1  1.415244  7.076221 24.059152
1030  1  1.415244  7.076221 26.889640
1031  1  1.415244  9.906710  1.415244
1032  1  1.415244  9.906710  4.245733
1033  1  1.415244  9.906710  7.076221
1034  1  1.415244  9.906710  9.906710
1035  1  1.415244  9.906710 12.737198
1036  1  1.415244  9.906710 15.567687
1037  1  1.415244  9.906710 18.398175
1038  1  1.415244  9.906710 21.228664
1039  1  1.415244  9.906710 24.059152
1040  1  1.415244  9.906710 26.889640
1041  1  1.415244 12.737198  1.415244
1042  1  1.415244 12.737198  4.245733
1043  1  1.415244 12.737198  7.076221
1044  1  1.415244 12.737198  9.906710
1045  1  1.415244 12.737198 12.737198
1046  1  1.415244 12.737198 15.567687
1047  1  1.415244 12.737198 18.398175
1048  1  1.415244 12.737198 21.228664
1049  1  1.415244 12.737198 24.059152
1050  1  1.415244 12.737198 26.889640
1051  1  1.415244 15.567687  1.415244
1052  1  1.415244 15.567687  4.245733
1053  1  1.415244 15.567687  7.076221
1054  1  1.415244 15.567687  9.906710
1055  1  1.415244 15.567687 12.737198
1056  1  1.415244 15.567687 15.567687
1057  1  1.415244 15.567687 18.398175
1058  1  1.415244 15.567687 21.228664
1059  1  1.415244 15.567687 24.059152
1060  1  1.415244 15.567687 26.889640
1061  1  1.415244 18.398175  1.415244
1062  1  1.415244 18.398175  4.245733
1063  1  1.415244 18.398175  7.076221
1064  1  1.415244 18.398175  9.906710
1065  1  1.415244 18.398175 12.737198
1066  1  1.415244 18.398175 15.567687
1067  1  1.415244 18.398175 18.398175
1068  1  1.415244 18.398175 21.228664
1069  1  1.415244 18.398175 24.059152
1070  1  1.415244 18.398175 26.889640
1071  1  1.415244 21.228664  1.415244
1072  1  1.415244 21.228664  4.245733
1073  1  1.415244 21.228664  7.076221
1074  1  1.415244 21.228664  9.906710
1075  1  1.415244 21.228664 12.737198
1076  1  1.415244 21.228664 15.567687
1077  1  1.415244 21.228664 18.398175
1078  1  1.415244 21.228664 21.228664
1079  1  1.415244 21.228664 24.059152
1080  1  1.415244 21.228664 26.889640
1081  1  1.415244 24.059152  1.415244
1082  1  1.415244 24.059152  4.245733
1083  1  1.415244 24.059152  7.076221
1084  1  1.415244 24.059152  9.906710
1085  1  1.415244 24.059152 12.737198
1086  1  1.415244 24.059152 15.567687
1087  1  1.415244 24.059152 18.398175
1088  1  1.415244 24.059152 21.228664
1089  1  1.415244 24.059152 24.059152
1090  1  1.415244 24.059152 26.889640
1091  1  1.415244 26.889640  1.415244
1092  1  1.415244 26.889640  4.245733
1093  1  1.415244 26.889640  7.076221
1094  1  1.415244 26.889640  9.906710
1095  1  1.415244 26.889640 12.737198
1096  1  1.415244 26.889640 15.567687
1097  1  1.415244 26.889640 18.398175
1098  1  1.415244 26.889640 21.228664
1099  1  1.415244 26.889640 24.059152
1100  1  1.415244 26.889640 26.889640
1101  1  4.245733  1.415244  1.415244
1102  1  4.245733  1.415244  4.245733
1103  1  4.245733  1.415244  7.076221
1104  1  4.245733  1.415244  9.906710
1105  1  4.245733  1.415244 12.737198
1106  1  4.245733  1.415244 15.567687
1107  1  4.245733  1.415244 18.398175
1108  1  4.245733  1.415244 21.228664
1109  1  4.245733  1.415244 24.059152
1110  1  4.245733  1.415244 26.889640
1111  1  4.245733  4.245733  1.415244
1112  1  4.245733  4.245733  4.245733
1113  1  4.245733  4.245733  7.076221
1114  1  4.245733  4.245733  9.906710
1115  1  4.245733  4.245733 12.737198
1116  1  4.245733  4.245733 15.567687
1117  1  4.245733  4.245733 18.398175
1118  1  4.245733  4.245733 21.228664
1119  1  4.245733  4.245733 24.059152
1120  1  4.245733  4.245733 26.889640
1121  1  4.245733  7.076221  1.415244
1122  1  4.245733  7.076221  4.245733
1123  1  4.245733  7.076221  7.076221
1124  1  4.245733  7.076221  9.906710
1125  1  4.245733  7.076221 12.737198
1126  1  4.245733  7.076221 15.567687
1127  1  4.245733  7.076221 18.398175
1128  1  4.245733  7.076221 21.228664
1129  1  4.245733  7.076221 24.059152
1130  1  4.245733  7.076221 26.889640
1131  1  4.245733  9.906710  1.415244
1132  1  4.245733  9.906710  4.245733
1133  1  4.245733  9.906710  7.076221
1134  1  4.245733  9.906710  9.906710
1135  1  4.245733  9.906710 12.737198
1136  1  4.245733  9.906710 15.567687
1137  1  4.245733  9.906710 18.398175
1138  1  4.245733  9.906710 21.228664
1139  1  4.245733  9.906710 24.059152
1140  1  4.245733  9.906710 26.889640
1141  1  4.245733 12.737198  1.415244
1142  1  4.245733 12.737198  4.245733
1143  1  4.245733 12.737198  7.076221
1144  1  4.245733 12.737198  9.906710
1145  1  4.245733 12.737198 12.737198
1146  1  4.245733 12.737198 15.567687
1147  1  4.245733 12.737198 18.398175
1148  1  4.245733 12.737198 21.228664
1149  1  4.245733 12.737198 24.059152
1150  1  4.245733 12.737198 26.889640
1151  1  4.245733 15.567687  1.415244
1152  1  4.245733 15.567687  4.245733
1153  1  4.245733 15.567687  7.076221
1154  1  4.245733 15.567687  9.906710
1155  1  4.245733 15.567687 12.737198
1156  1  4.245733 15.567687 15.567687
1157  1  4.245733 15.567687 18.398175
1158  1  4.245733 15.567687 21.228664
1159  1  4.245733 15.567687 24.059152
1160  1  4.245733 15.567687 26.889640
1161  1  4.245733 18.398175  1.415244
1162  1  4.245733 18.398175  4.245733
1163  1  4.245733 18.398175  7.076221
1164  1  4.245733 18.398175  9.906710
1165  1  4.245733 18.398175 12.737198
1166  1  4.245733 18.398175 15.567687
1167  1  4.245733 18.398175 18.398175
1168  1  4.245733 18.398175 21.228664
1169  1  4.245733 18.398175 24.059152
1170  1  4.245733 18.398175 26.889640
1171  1  4.245733 21.228664  1.415244
1172  1  4.245733 21.228664  4.245733
1173  1  4.245733 21.228664  7.076221
1174  1  4.245733 21.228664  9.906710
1175  1  4.245733 21.228664 12.737198
1176  1  4.245733 21.228664 15.567687
1177  1  4.245733 21.228664 18.398175
1178  1  4.245733 21.228664 21.228664
1179  1  4.245733 21.228664 24.059152
1180  1  4.245733 21.228664 26.889640
1181  1  4.245733 24.059152  1.415244
1182  1  4.245733 24.059152  4.245733
1183  1  4.245733 24.059152  7.076221
1184  1  4.245733 24.059152  9.906710
1185  1  4.245733 24.059152 12.737198
1186  1  4.245733 24.059152 15.567687
1187  1  4.245733 24.059152 18.398175
1188  1  4.245733 24.059152 21.228664
1189  1  4.245733 24.059152 24.059152
1190  1  4.245733 24.059152 26.889640
1191  1  4.245733 26.889640  1.415244
1192  1  4.245733 26.889640  4.245733
1193  1  4.245733 26.889640  7.076221
1194  1  4.245733 26.889640  9.906710
1195  1  4.245733 26.889640 12.737198
1196  1  4.245733 26.889640 15.567687
1197  1  4.245733 26.889640 18.398175
1198  1  4.245733 26.889640 21.228664
1199  1  4.245733 26.889640 24.059152
1200  1  4.245733 26.889640 26.889640
1201  1  7.076221  1.415244  1.415244
1202  1  7.076221  1.415244  4.245733
1203  1  7.076221  1.415244  7.076221
1204  1  7.076221  1.415244  9.906710
1205  1  7.076221  1.415244 12.737198
1206  1  7.076221  1.415244 15.567687
1207  1  7.076221  1.415244 18.398175
1208  1  7.076221  1.415244 21.228664
1209  1  7.076221  1.415244 24.059152
1210  1  7.076221  1.415244 26.889640
1211  1  7.076221  4.245733  1.415244
1212  1  7.076221  4.245733  4.245733
1213  1  7.076221  4.245733  7.076221
1214  1  7.076221  4.245733  9.906710
1215  1  7.076221  4.245733 12.737198
1216  1  7.076221  4.245733 15.567687
1217  1  7.076221  4.245733 18.398175
1218  1  7.076221  4.245733 21.228664
1219  1  7.076221  4.245733 24.059152
1220  1  7.076221  4.245733 26.889640
1221  1  7.076221  7.076221  1.415244
1222  1  7.076221  7.076221  4.245733
1223  1  7.076221  7.076221  7.076221
1224  1  7.076221  7.076221  9.906710
1225  1  7.076221  7.076221 12.737198
1226  1  7.076221  7.076221 15.567687
1227  1  7.076221  7.076221 18.398175
1228  1  7.076221  7.076221 21.228664
1229  1  7.076221  7.076221 24.059152
1230  1  7.076221  7.076221 26.889640
1231  1  7.076221  9.906710  1.415244
1232  1  7.076221  9.906710  4.245733
1233  1  7.076221  9.906710  7.076221
1234  1  7.076221  9.906710  9.906710
1235  1  7.076221  9.906710 12.737198
1236  1  7.076221  9.906710 15.567687
1237  1  7.076221  9.906710 18.398175
1238  1  7.076221  9.906710 21.228664
1239  1  7.076221  9.906710 24.059152
1240  1  7.076221  9.906710 26.889640
1241  1  7.076221 12.737198  1.415244
1242  1  7.076221 12.737198  4.245733
1243  1  7.076221 12.737198  7.076221
1244  1  7.076221 12.737198  9.906710
1245  1  7.076221 12.737198 12.737198
1246  1  7.076221 12.737198 15.567687
1247  1  7.076221 12.737198 18.398175
1248  1  7.076221 12.737198 21.228664
1249  1  7.076221 12.737198 24.059152
1250  1  7.076221 12.737198 26.889640
1251  1  7.076221 15.567687  1.415244
1252  1  7.076221 15.567687  4.245733
1253  1  7.076221 15.567687  7.076221
1254  1  7.076221 15.567687  9.906710
1255  1  7.076221 15.567687 12.737198
1256  1  7.076221 15.567687 15.567687
1257  1  7.076221 15.567687 18.398175
1258  1  7.076221 15.567687 21.228664
1259  1  7.076221 15.567687 24.059152
1260  1  7.076221 15.567687 26.889640
1261  1  7.076221 18.398175  1.415244
1262  1  7.076221 18.398175  4.245733
1263  1  7.076221 18.398175  7.076221
1264  1  7.076221 18.398175  9.906710
1265  1  7.076221 18.398175 12.737198
1266  1  7.076221 18.398175 15.567687
1267  1  7.076221 18.398175 18.398175
1268  1  7.076221 18.398175 21.228664
1269  1  7.076221 18.398175 24.059152
1270  1  7.076221 18.398175 26.889640
1271  1  7.076221 21.228664  1.415244
1272  1  7.076221 21.228664  4.245733
1273  1  7.076221 21.228664  7.076221
1274  1  7.076221 21.228664  9.906710
1275  1  7.076221 21.228664 12.737198
1276  1  7.076221 21.228664 15.567687
1277  1  7.076221 21.228664 18.398175
1278  1  7.076221 21.228664 21.228664
1279  1  7.076221 21.228664 24.059152
1280  1  7.076221 21.228664 26.889640
1281  1  7.076221 24.059152  1.415244
1282  1  7.076221 24.059152  4.245733
1283  1  7.076221 24.059152  7.076221
1284  1  7.076221 24.059152  9.906710
1285  1  7.076221 24.059152 12.737198
1286  1  7.076221 24.059152 15.567687
1287  1  7.076221 24.059152 18.398175
1288  1  7.076221 24.059152 21.228664
1289  1  7.076221 24.059152 24.059152
1290  1  7.076221 24.059152 26.889640
1291  1  7.076221 26.889640  1.415244
1292  1  7.076221 26.889640  4.245733
1293  1  7.076221 26.889640  7.076221
1294  1  7.076221 26.889640  9.906710
1295  1  7.076221 26.889640 12.737198
1296  1  7.076221 26.889640 15.567687
1297  1  7.076221 26.889640 18.398175
1298  1  7.076221 26.889640 21.228664
1299  1  7.076221 26.889640 24.059152
1300  1  7.076221 26.889640 26.889640
1301  1  9.906710  1.415244  1.415244
1302  1  9.906710  1.415244  4.245733
1303  1  9.906710  1.415244  7.076221
1304  1  9.906710  1.415244  9.906710
1305  1  9.906710  1.415244 12.737198
1306  1  9.906710  1.415244 15.567687
1307  1  9.906710  1.415244 18.398175
1308  1  9.906710  1.415244 21.228664
1309  1  9.906710  1.415244 24.059152
1310  1  9.906710  1.415244 26.889640
1311  1  9.906710  4.245733  1.415244
1312  1  9.906710  4.245733  4.245733
1313  1  9.906710  4.245733  7.076221
1314  1  9.906710  4.245733  9.906710
1315  1  9.906710  4.245733 12.737198
1316  1  9.906710  4.245733 15.567687
1317  1  9.906710  4.245733 18.398175
1318  1  9.906710  4.245733 21.228664
1319  1  9.906710  4.245733 24.059152
1320  1  9.906710  4.245733 26.889640
1321  1  9.906710  7.076221  1.415244
1322  1  9.906710  7.076221  4.245733
1323  1  9.906710  7.076221  7.076221
1324  1  9.906710  7.076221  9.906710
1325  1  9.906710  7.076221 12.737198
1326  1  9.906710  7.076221 15.567687
1327  1  9.906710  7.076221 18.398175
1328  1  9.906710  7.076221 21.228664
1329  1  9.906710  7.076221 24.059152
1330  1  9.906710  7.076221 26.889640
1331  1  9.906710  9.906710  1.415244
1332  1  9.906710  9.906710  4.245733
1333  1  9.906710  9.906710  7.076221
1334  1  9.906710  9.906710  9.906710
1335  1  9.906710  9.906710 12.737198
1336  1  9.906710  9.906710 15.567687
1337  1  9.906710  9.906710 18.398175
1338  1  9.906710  9.906710 21.228664
1339  1  9.906710  9.906710 24.059152
1340  1  9.906710  9.906710 26.889640
1341  1  9.906710 12.737198  1.415244
1342  1  9.906710 12.737198  4.245733
1343  1  9.906710 12.737198  7.076221
1344  1  9.906710 12.737198  9.906710
1345  1  9.906710 12.737198 12.737198
1346  1  9.906710 12.737198 15.567687
1347  1  9.906710 12.737198 18.398175
1348  1  9.906710 12.737198 21.228664
1349  1  9.906710 12.737198 24.059152
1350  1  9.906710 12.737198 26.889640
1351  1  9.906710 15.567687  1.415244
1352  1  9.906710 15.567687  4.245733
1353  1  9.906710 15.567687  7.076221
1354  1  9.906710 15.567687  9.906710
1355  1  9.906710 15.567687 12.737198
1356  1  9.906710 15.567687 15.567687
1357  1  9.906710 15.567687 18.398175
1358  1  9.906710 15.567687 21.228664
1359  1  9.906710 15.567687 24.059152
1360  1  9.906710 15.567687 26.889640
1361  1  9.906710 18.398175  1.415244
1362  1  9.906710 18.398175  4.245733
1363  1  9.906710 18.398175  7.076221
1364  1  9.906710 18.398175  9.906710
1365  1  9.906710 18.398175 12.737198
1366  1  9.906710 18.398175 15.567687
1367  1  9.906710 18.398175 18.398175
1368  1  9.906710 18.398175 21.228664
1369  1  9.906710 18.398175 24.059152
1370  1  9.906710 18.398175 26.889640
1371  1  9.906710 21.228664  1.415244
1372  1  9.906710 21.228664  4.245733
1373  1  9.906710 21.228664  7.076221
1374  1  9.906710 21.228664  9.906710
1375  1  9.906710 21.228664 12.737198
1376  1  9.906710 21.228664 15.567687
1377  1  9.906710 21.228664 18.398175
1378  1  9.906710 21.228664 21.228664
1379  1  9.906710 21.228664 24.059152
1380  1  9.906710 21.228664 26.889640
1381  1  9.906710 24.059152  1.415244
1382  1  9.906710 24.059152  4.245733
1383  1  9.906710 24.059152  7.076221
1384  1  9.906710 24.059152  9.906710
1385  1  9.906710 24.059152 12.737198
1386  1  9.906710 24.059152 15.567687
1387  1  9.906710 24.059152 18.398175
1388  1  9.906710 24.059152 21.228664
1389  1  9.906710 24.059152 24.059152
1390  1  9.906710 24.059152 26.889640
1391  1  9.906710 26.889640  1.415244
1392  1  9.906710 26.889640  4.245733
1393  1  9.906710 26.889640  7.076221
1394  1  9.906710 26.889640  9.906710
1395  1  9.906710 26.889640 12.737198
1396  1  9.906710 26.889640 15.567687
1397  1  9.906710 26.889640 18.398175
1398  1  9.906710 26.889640 21.228664
1399  1  9.906710 26.889640 24.059152
1400  1  9.906710 26.889640 26.889640
1401  1 12.737198  1.415244  1.415244
1402  1 12.737198  1.415244  4.245733
1403  1 12.737198  1.415244  7.076221
1404  1 12.737198  1.415244  9.906710
1405  1 12.737198  1.415244 12.737198
1406  1 12.737198  1.415244 15.567687
1407  1 12.737198  1.415244 18.398175
1408  1 12.737198  1.415244 21.228664
1409  1 12.737198  1.415244 24.059152
1410  1 12.737198  1.415244 26.889640
1411  1 12.737198  4.245733  1.415244
1412  1 12.737198  4.245733  4.245733
1413  1 12.737198  4.245733  7.076221
1414  1 12.737198  4.245733  9.906710
1415  1 12.737198  4.245733 12.737198
1416  1 12.737198  4.245733 15.567687
1417  1 12.737198  4.245733 18.398175
1418  1 12.737198  4.245733 21.228664
1419  1 12.737198  4.245733 24.059152
1420  1 12.737198  4.245733 26.889640
1421  1 12.737198  7.076221  1.415244
1422  1 12.737198  7.076221  4.245733
1423  1 12.737198  7.076221  7.076221
1424  1 12.737198  7.076221  9.906710
1425  1 12.737198  7.076221 12.737198
1426  1 12.737198  7.076221 15.567687
1427  1 12.737198  7.076221 18.398175
1428  1 12.737198  7.076221 21.228664
1429  1 12.737198  7.076221 24.059152
1430  1 12.737198  7.076221 26.889640
1431  1 12.737198  9.906710  1.415244
1432  1 12.737198  9.906710  4.245733
1433  1 12.737198  9.906710  7.076221
1434  1 12.737198  9.906710  9.906710
1435  1 12.737198  9.906710 12.737198
1436  1 12.737198  9.906710 15.567687
1437  1 12.737198  9.906710 18.398175
1438  1 12.737198  9.906710 21.228664
1439  1 12.737198  9.906710 24.059152
1440  1 12.737198  9.906710 26.889640
1441  1 12.737198 12.737198  1.415244
1442  1 12.737198 12.737198  4.245733
1443  1 12.737198 12.737198  7.076221
1444  1 12.737198 12.737198  9.906710
1445  1 12.737198 12.737198 12.737198
1446  1 12.737198 12.737198 15.567687
1447  1 12.737198 12.737198 18.398175
1448  1 12.737198 12.737198 21.228664
1449  1 12.737198 12.737198 24.059152
1450  1 12.737198 12.737198 26.889640
1451  1 12.737198 15.567687  1.415244
1452  1 12.737198 15.567687  4.245733
1453  1 12.737198 15.567687  7.076221
1454  1 12.737198 15.567687  9.906710
1455  1 12.737198 15.567687 12.737198
1456  1 12.737198 15.567687 15.567687
1457  1 12.737198 15.567687 18.398175
1458  1 12.737198 15.567687 21.228664
1459  1 12.737198 15.567687 24.059152
1460  1 12.737198 15.567687 26.889640
1461  1 12.737198 18.398175  1.415244
1462  1 12.737198 18.398175  4.245733
1463  1 12.737198 18.398175  7.076221
1464  1 12.737198 18.398175  9.906710
1465  1 12.737198 18.398175 12.737198
1466  1 12.737198 18.398175 15.567687
1467  1 12.737198 18.398175 18.398175
1468  1 12.737198 18.398175 21.228664
1469  1 12.737198 18.398175 24.059152
1470  1 12.737198 18.398175 26.889640
1471  1 12.737198 21.228664  1.415244
1472  1 12.737198 21.228664  4.245733
1473  1 12.737198 21.228664  7.076221
1474  1 12.737198 21.228664  9.906710
1475  1 12.737198 21.228664 12.737198
1476  1 12.737198 21.228664 15.567687
1477  1 12.737198 21.228664 18.398175
1478  1 12.737198 21.228664 21.228664
1479  1 12.737198 21.228664 24.059152
1480  1 12.737198 21.228664 26.889640
1481  1 12.737198 24.059152  1.415244
1482  1 12.737198 24.059152  4.245733
1483  1 12.737198 24.059152  7.076221
1484  1 12.737198 24.059152  9.906710
1485  1 12.737198 24.059152 12.737198
1486  1 12.737198 24.059152 15.567687
1487  1 12.737198 24.059152 18.398175
1488  1 12.737198 24.059152 21.228664
1489  1 12.737198 24.059152 24.059152
1490  1 12.737198 24.059152 26.889640
1491  1 12.737198 26.889640  1.415244
1492  1 12.737198 26.889640  4.245733
1493  1 12.737198 26.889640  7.076221
1494  1 12.737198 26.889640  9.906710
1495  1 12.737198 26.889640 12.737198
1496  1 12.737198 26.889640 15.567687
1497  1 12.737198 26.889640 18.398175
1498  1 12.737198 26.889640 21.228664
1499  1 12.737198 26.889640 24.059152
1500  1 12.737198 26.889640 26.889640
1501  1 15.567687  1.415244  1.415244
1502  1 15.567687  1.415244  4.245733
1503  1 15.567687  1.415244  7.076221
1504  1 15.567687  1.415244  9.906710
1505  1 15.567687  1.415244 12.737198
1506  1 15.567687  1.415244 15.567687
1507  1 15.567687  1.415244 18.398175
1508  1 15.567687  1.415244 21.228664
1509  1 15.567687  1.415244 24.059152
1510  1 15.567687  1.415244 26.889640
1511  1 15.567687  4.245733  1.415244
1512  1 15.567687  4.245733  4.245733
1513  1 15.567687  4.245733  7.076221
1514  1 15.567687  4.245733  9.906710
1515  1 15.567687  4.245733 12.737198
1516  1 15.567687  4.245733 15.567687
1517  1 15.567687  4.245733 18.398175
1518  1 15.567687  4.245733 21.228664
1519  1 15.567687  4.245733 24.059152
1520  1 15.567687  4.245733 26.889640
1521  1 15.567687  7.076221  1.415244
1522  1 15.567687  7.076221  4.245733
1523  1 15.567687  7.076221  7.076221
1524  1 15.567687  7.076221  9.906710
1525  1 15.567687  7.076221 12.737198
1526  1 15.567687  7.076221 15.567687
1527  1 15.567687  7.076221 18.398175
1528  1 15.567687  7.076221 21.228664
1529  1 15.567687  7.076221 24.059152
1530  1 15.567687  7.076221 26.889640
1531  1 15.567687  9.906710  1.415244
1532  1 15.567687  9.906710  4.245733
1533  1 15.567687  9.906710  7.076221
1534  1 15.567687  9.906710  9.906710
1535  1 15.567687  9.906710 12.737198
1536  1 15.567687  9.906710 15.567687
1537  1 15.567687  9.906710 18.398175
1538  1 15.567687  9.906710 21.228664
1539  1 15.567687  9.906710 24.059152
1540  1 15.567687  9.906710 26.889640
1541  1 15.567687 12.737198  1.415244
1542  1 15.567687 12.737198  4.245733
1543  1 15.567687 12.737198  7.076221
1544  1 15.567687 12.737198  9.906710
1545  1 15.567687 12.737198 12.737198
1546  1 15.567687 12.737198 15.567687
1547  1 15.567687 12.737198 18.398175
1548  1 15.567687 12.737198 21.228664
1549  1 15.567687 12.737198 24.059152
1550  1 15.567687 12.737198 26.889640
1551  1 15.567687 15.567687  1.415244
1552  1 15.567687 15.567687  4.245733
1553  1 15.567687 15.567687  7.076221
1554  1 15.567687 15.567687  9.906710
1555  1 15.567687 15.567687 12.737198
1556  1 15.567687 15.567687 15.567687
1557  1 15.567687 15.567687 18.398175
1558  1 15.567687 15.567687 21.228664
1559  1 15.567687 15.567687 24.059152
1560  1 15.567687 15.567687 26.889640
1561  1 15.567687 18.398175  1.415244
1562  1 15.567687 18.398175  4.245733
1563  1 15.567687 18.398175  7.076221
1564  1 15.567687 18.398175  9.906710
1565  1 15.567687 18.398175 12.737198
1566  1 15.567687 18.398175 15.567687
1567  1 15.567687 18.398175 18.398175
1568  1 15.567687 18.398175 21.228664
1569  1 15.567687 18.398175 24.059152
1570  1 15.567687 18.398175 26.889640
1571  1 15.567687 21.228664  1.415244
1572  1 15.567687 21.228664  4.245733
1573  1 15.567687 21.228664  7.076221
1574  1 15.567687 21.228664  9.906710
1575  1 15.567687 21.228664 12.737198
1576  1 15.567687 21.228664 15.567687
1577  1 15.567687 21.228664 18.398175
1578  1 15.567687 21.228664 21.228664
1579  1 15.567687 21.228664 24.059152
1580  1 15.567687 21.228664 26.889640
1581  1 15.567687 24.059152  1.415244
1582  1 15.567687 24.059152  4.245733
1583  1 15.567687 24.059152  7.076221
1584  1 15.567687 24.059152  9.906710
1585  1 15.567687 24.059152 12.737198
1586  1 15.567687 24.059152 15.567687
1587  1 15.567687 24.059152 18.398175
1588  1 15.567687 24.059152 21.228664
1589  1 15.567687 24.059152 24.059152
1590  1 15.567687 24.059152 26.889640
1591  1 15.567687 26.889640  1.415244
1592  1 15.567687 26.889640  4.245733
1593  1 15.567687 26.889640  7.076221
1594  1 15.567687 26.889640  9.906710
1595  1 15.567687 26.889640 12.737198
1596  1 15.567687 26.889640 15.567687
1597  1 15.567687 26.889640 18.398175
1598  1 15.567687 26.889640 21.228664
1599  1 15.567687 26.889640 24.059152
1600  1 15.567687 26.889640 26.889640
1601  1 18.398175  1.415244  1.415244
1602  1 18.398175  1.415244  4.245733
1603  1 18.398175  1.415244  7.076221
1604  1 18.398175  1.415244  9.906710
1605  1 18.398175  1.415244 12.737198
1606  1 18.398175  1.415244 15.567687
1607  1 18.398175  1.415244 18.398175
1608  1 18.398175  1.415244 21.228664
1609  1 18.398175  1.415244 24.059152
1610  1 18.398175  1.415244 26.889640
1611  1 18.398175  4.245733  1.415244
1612  1 18.398175  4.245733  4.245733
1613  1 18.398175  4.245733  7.076221
1614  1 18.398175  4.245733  9.906710
1615  1 18.398175  4.245733 12.737198
1616  1 18.398175  4.245733 15.567687
1617  1 18.398175  4.245733 18.398175
1618  1 18.398175  4.245733 21.228664
1619  1 18.398175  4.245733 24.059152
1620  1 18.398175  4.245733 26.889640
1621  1 18.398175  7.076221  1.415244
1622  1 18.398175  7.076221  4.245733
1623  1 18.398175  7.076221  7.076221
1624  1 18.398175  7.076221  9.906710
1625  1 18.398175  7.076221 12.737198
1626  1 18.398175  7.076221 15.567687
1627  1 18.398175  7.076221 18.398175
1628  1 18.398175  7.076221 21.228664
1629  1 18.398175  7.076221 24.059152
1630  1 18.398175  7.076221 26.889640
1631  1 18.398175  9.906710  1.415244
1632  1 18.398175  9.906710  4.245733
1633  1 18.398175  9.906710  7.076221
1634  1 18.398175  9.906710  9.906710
1635  1 18.398175  9.906710 12.737198
1636  1 18.398175  9.906710 15.567687
1637  1 18.398175  9.906710 18.398175
1638  1 18.398175  9.906710 21.228664
1639  1 18.398175  9.906710 24.059152
1640  1 18.398175  9.906710 26.889640
1641  1 18.398175 12.737198  1.415244
1642  1 18.398175 12.737198  4.245733
1643  1 18.398175 12.737198  7.076221
1644  1 18.398175 12.737198  9.906710
1645  1 18.398175 12.737198 12.737198
1646  1 18.398175 12.737198 15.567687
1647  1 18.398175 12.737198 18.398175
1648  1 18.398175 12.737198 21.228664
1649  1 18.398175 12.737198 24.059152
1650  1 18.398175 12.737198 26.889640
1651  1 18.398175 15.567687  1.415244
1652  1 18.398175 15.567687  4.245733
1653  1 18.398175 15.567687  7.076221
1654  1 18.398175 15.567687  9.906710
1655  1 18.398175 15.567687 12.737198
1656  1 18.398175 15.567687 15.567687
1657  1 18.398175 15.567687 18.398175
1658  1 18.398175 15.567687 21.228664
1659  1 18.398175 15.567687 24.059152
1660  1 18.398175 15.567687 26.889640
1661  1 18.398175 18.398175  1.415244
1662  1 18.398175 18.398175  4.245733
1663  1 18.398175 18.398175  7.076221
1664  1 18.398175 18.398175  9.906710
1665  1 18.398175 18.398175 12.737198
1666  1 18.398175 18.398175 15.567687
1667  1 18.398175 18.398175 18.398175
1668  1 18.398175 18.398175 21.228664
1669  1 18.398175 18.398175 24.059152
1670  1 18.398175 18.398175 26.889640
1671  1 18.398175 21.228664  1.415244
1672  1 18.398175 21.228664  4.245733
1673  1 18.398175 21.228664  7.076221
1674  1 18.398175 21.228664  9.906710
1675  1 18.398175 21.228664 12.737198
1676  1 18.398175 21.228664 15.567687
1677  1 18.398175 21.228664 18.398175
1678  1 18.398175 21.228664 21.228664
1679  1 18.398175 21.228664 24.059152
1680  1 18.398175 21.228664 26.889640
1681  1 18.398175 24.059152  1.415244
1682  1 18.398175 24.059152  4.245733
1683  1 18.398175 24.059152  7.076221
1684  1 18.398175 24.059152  9.906710
1685  1 18.398175 24.059152 12.737198
1686  1 18.398175 24.059152 15.567687
1687  1 18.398175 24.059152 18.398175
1688  1 18.398175 24.059152 21.228664
1689  1 18.398175 24.059152 24.059152
1690  1 18.398175 24.059152 26.889640
1691  1 18.398175 26.889640  1.415244
1692  1 18.398175 26.889640  4.245733
1693  1 18.398175 26.889640  7.076221
1694  1 18.398175 26.889640  9.906710
1695  1 18.398175 26.889640 12.737198
1696  1 18.398175 26.889640 15.567687
1697  1 18.398175 26.889640 18.398175
1698  1 18.398175 26.889640 21.228664
1699  1 18.398175 26.889640 24.059152
1700  1 18.398175 26.889640 26.889640
1701  1 21.228664  1.415244  1.415244
1702  1 21.228664  1.415244  4.245733
1703  1 21.228664  1.415244  7.076221
1704  1 21.228664  1.415244  9.906710
1705  1 21.228664  1.415244 12.737198
1706  1 21.228664  1.415244 15.567687
1707  1 21.228664  1.415244 18.398175
1708  1 21.228664  1.415244 21.228664
1709  1 21.228664  1.415244 24.059152
1710  1 21.228664  1.415244 26.889640
1711  1 21.228664  4.245733  1.415244
1712  1 21.228664  4.245733  4.245733
1713  1 21.228664  4.245733  7.076221
1714  1 21.228664  4.245733  9.906710
1715  1 21.228664  4.245733 12.737198
1716  1 21.228664  4.245733 15.567687
1717  1 21.228664  4.245733 18.398175
1718  1 21.228664  4.245733 21.228664
1719  1 21.228664  4.245733 24.059152
1720  1 21.228664  4.245733 26.889640
1721  1 21.228664  7.076221  1.415244
1722  1 21.228664  7.076221  4.245733
1723  1 21.228664  7.076221  7.076221
1724  1 21.228664  7.076221  9.906710
1725  1 21.228664  7.076221 12.737198
1726  1 21.228664  7.076221 15.567687
1727  1 21.228664  7.076221 18.398175
1728  1 21.228664  7.076221 21.228664
1729  1 21.228664  7.076221 24.059152
1730  1 21.228664  7.076221 26.889640
1731  1 21.228664  9.906710  1.415244
1732  1 21.228664  9.906710  4.245733
1733  1 21.228664  9.906710  7.076221
1734  1 21.228664  9.906710  9.906710
1735  1 21.228664  9.906710 12.737198
1736  1 21.228664  9.906710 15.567687
1737  1 21.228664  9.906710 18.398175
1738  1 21.228664  9.906710 21.228664
1739  1 21.228664  9.906710 24.059152
1740  1 21.228664  9.906710 26.889640
1741  1 21.228664 12.737198  1.415244
1742  1 21.228664 12.737198  4.245733
1743  1 21.228664 12.737198  7.076221
1744  1 21.228664 12.737198  9.906710
1745  1 21.228664 12.737198 12.737198
1746  1 21.228664 12.737198 15.567687
1747  1 21.228664 12.737198 18.398175
1748  1 21.228664 12.737198 21.228664
1749  1 21.228664 12.737198 24.059152
1750  1 21.228664 12.737198 26.889640
1751  1 21.228664 15.567687  1.415244
1752  1 21.228664 15.567687  4.245733
1753  1 21.228664 15.567687  7.076221
1754  1 21.228664 15.567687  9.906710
1755  1 21.228664 15.567687 12.737198
1756  1 21.228664 15.567687 15.567687
1757  1 21.228664 15.567687 18.398175
1758  1 21.228664 15.567687 21.228664
1759  1 21.228664 15.567687 24.059152
1760  1 21.228664 15.567687 26.889640
1761  1 21.228664 18.398175  1.415244
1762  1 21.228664 18.398175  4.245733
1763  1 21.228664 18.398175  7.076221
1764  1 21.228664 18.398175  9.906710
1765  1 21.228664 18.398175 12.737198
1766  1 21.228664 18.398175 15.567687
1767  1 21.228664 18.398175 18.398175
1768  1 21.228664 18.398175 21.228664
1769  1 21.228664 18.398175 24.059152
1770  1 21.228664 18.398175 26.889640
1771  1 21.228664 21.228664  1.415244
1772  1 21.228664 21.228664  4.245733
1773  1 21.228664 21.228664  7.076221
1774  1 21.228664 21.228664  9.906710
1775  1 21.228664 21.228664 12.737198
1776  1 21.228664 21.228664 15.567687
1777  1 21.228664 21.228664 18.398175
1778  1 21.228664 21.228664 21.228664
1779  1 21.228664 21.228664 24.059152
1780  1 21.228664 21.228664 26.889640
1781  1 21.228664 24.059152  1.415244
1782  1 21.228664 24.059152  4.245733
1783  1 21.228664 24.059152  7.076221
1784  1 21.228664 24.059152  9.906710
1785  1 21.228664 24.059152 12.737198
1786  1 21.228664 24.059152 15.567687
1787  1 21.228664 24.059152 18.398175
1788  1 21.228664 24.059152 21.228664
1789  1 21.228664 24.059152 24.059152
1790  1 21.228664 24.059152 26.889640
1791  1 21.228664 26.889640  1.415244
1792  1 21.228664 26.889640  4.245733
1793  1 21.228664 26.889640  7.076221
1794  1 21.228664 26.889640  9.906710
1795  1 21.228664 26.889640 12.737198
1796  1 21.228664 26.889640 15.567687
1797  1 21.228664 26.889640 18.398175
1798  1 21.228664 26.889640 21.228664
1799  1 21.228664 26.889640 24.059152
1800  1 21.228664 26.889640 26.889640
1801  1 24.059152  1.415244  1.415244
1802  1 24.059152  1.415244  4.245733
1803  1 24.059152  1.415244  7.076221
1804  1 24.059152  1.415244  9.906710
1805  1 24.059152  1.415244 12.737198
1806  1 24.059152  1.415244 15.567687
1807  1 24.059152  1.415244 18.398175
1808  1 24.059152  1.415244 21.228664
1809  1 24.059152  1.415244 24.059152
1810  1 24.059152  1.415244 26.889640
1811  1 24.059152  4.245733  1.415244
1812  1 24.059152  4.245733  4.245733
1813  1 24.059152  4.245733  7.076221
1814  1 24.059152  4.245733  9.906710
1815  1 24.059152  4.245733 12.737198
1816  1 24.059152  4.245733 15.567687
1817  1 24.059152  4.245733 18.398175
1818  1 24.059152  4.245733 21.228664
1819  1 24.059152  4.245733 24.059152
1820  1 24.059152  4.245733 26.889640
1821  1 24.059152  7.076221  1.415244
1822  1 24.059152  7.076221  4.245733
1823  1 24.059152  7.076221  7.076221
1824  1 24.059152  7.076221  9.906710
1825  1 24.059152  7.076221 12.737198
1826  1 24.059152  7.076221 15.567687
1827  1 24.059152  7.076221 18.398175
1828  1 24.059152  7.076221 21.228664
1829  1 24.059152  7.076221 24.059152
1830  1 24.059152  7.076221 26.889640
1831  1 24.059152  9.906710  1.415244
1832  1 24.059152  9.906710  4.245733
1833  1 24.059152  9.906710  7.076221
1834  1 24.059152  9.906710  9.906710
1835  1 24.059152  9.906710 12.737198
1836  1 24.059152  9.906710 15.567687
1837  1 24.059152  9.906710 18.398175
1838  1 24.059152  9.906710 21.228664
1839  1 24.059152  9.906710 24.059152
1840  1 24.059152  9.906710 26.889640
1841  1 24.059152 12.737198  1.415244
1842  1 24.059152 12.737198  4.245733
1843  1 24.059152 12.737198  7.076221
1844  1 24.059152 12.737198  9.906710
1845  1 24.059152 12.737198 12.737198
1846  1 24.059152 12.737198 15.567687
1847  1 24.059152 12.737198 18.398175
1848  1 24.059152 12.737198 21.228664
1849  1 24.059152 12.737198 24.059152
1850  1 24.059152 12.737198 26.889640
1851  1 24.059152 15.567687  1.415244
1852  1 24.059152 15.567687  4.245733
1853  1 24.059152 15.567687  7.076221
1854  1 24.059152 15.567687  9.906710
1855  1 24.059152 15.567687 12.737198
1856  1 24.059152 15.567687 15.567687
1857  1 24.059152 15.567687 18.398175
1858  1 24.059152 15.567687 21.228664
1859  1 24.059152 15.567687 24.059152
1860  1 24.059152 15.567687 26.889640
1861  1 24.059152 18.398175  1.415244
1862  1 24.059152 18.398175  4.245733
1863  1 24.059152 18.398175  7.076221
1864  1 24.059152 18.398175  9.906710
1865  1 24.059152 18.398175 12.737198
1866  1 24.059152 18.398175 15.567687
1867  1 24.059152 18.398175 18.398175
1868  1 24.059152 18.398175 21.228664
1869  1 24.059152 18.398175 24.059152
1870  1 24.059152 18.398175 26.889640
1871  1 24.059152 21.228664  1.415244
1872  1 24.059152 21.228664  4.245733
1873  1 24.059152 21.228664  7.076221
1874  1 24.059152 21.228664  9.906710
1875  1 24.059152 21.228664 12.737198
1876  1 24.059152 21.228664 15.567687
1877  1 24.059152 21.228664 18.398175
1878  1 24.059152 21.228664 21.228664
1879  1 24.059152 21.228664 24.059152
1880  1 24.059152 21.228664 26.889640
1881  1 24.059152 24.059152  1.415244
1882  1 24.059152 24.059152  4.245733
1883  1 24.059152 24.059152  7.076221
1884  1 24.059152 24.059152  9.906710
1885  1 24.059152 24.059152 12.737198
1886  1 24.059152 24.059152 15.567687
1887  1 24.059152 24.059152 18.398175
1888  1 24.059152 24.059152 21.228664
1889  1 24.059152 24.059152 24.059152
1890  1 24.059152 24.059152 26.889640
1891  1 24.059152 26.889640  1.415244
1892  1 24.059152 26.889640  4.245733
1893  1 24.059152 26.889640  7.076221
1894  1 24.059152 26.889640  9.906710
1895  1 24.059152 26.889640 12.737198
1896  1 24.059152 26.889640 15.567687
1897  1 24.059152 26.889640 18.398175
1898  1 24.059152 26.889640 21.228664
1899  1 24.059152 26.889640 24.059152
1900  1 24.059152 26.889640 26.889640
1901  1 26.889640  1.415244  1.415244
1902  1 26.889640  1.415244  4.245733
1903  1 26.889640  1.415244  7.076221
1904  1 26.889640  1.415244  9.906710
1905  1 26.889640  1.415244 12.737198
1906  1 26.889640  1.415244 15.567687
1907  1 26.889640  1.415244 18.398175
1908  1 26.889640  1.415244 21.228664
1909  1 26.889640  1.415244 24.059152
1910  1 26.889640  1.415244 26.889640
1911  1 26.889640  4.245733  1.415244
1912  1 26.889640  4.245733  4.245733
1913  1 26.889640  4.245733  7.076221
1914  1 26.889640  4.245733  9.906710
1915  1 26.889640  4.245733 12.737198
1916  1 26.889640  4.245733 15.567687
1917  1 26.889640  4.245733 18.398175
1918  1 26.889640  4.245733 21.228664
1919  1 26.889640  4.245733 24.059152
1920  1 26.889640  4.245733 26.889640
1921  1 26.889640  7.076221  1.415244
1922  1 26.889640  7.076221  4.245733
1923  1 26.889640  7.076221  7.076221
1924  1 26.889640  7.076221  9.906710
1925  1 26.889640  7.076221 12.737198
1926  1 26.889640  7.076221 15.567687
1927  1 26.889640  7.076221 18.398175
1928  1 26.889640  7.076221 21.228664
1929  1 26.889640  7.076221 24.059152
1930  1 26.889640  7.076221 26.889640
1931  1 26.889640  9.906710  1.415244
1932  1 26.889640  9.906710  4.245733
1933  1 26.889640  9.906710  7.076221
1934  1 26.889640  9.906710  9.906710
1935  1 26.889640  9.906710 12.737198
1936  1 26.889640  9.906710 15.567687
1937  1 26.889640  9.906710 18.398175
1938  1 26.889640  9.906710 21.228664
1939  1 26.889640  9.906710 24.059152
1940  1 26.889640  9.906710 26.889640
1941  1 26.889640 12.737198  1.415244
1942  1 26.889640 12.737198  4.245733
1943  1 26.889640 12.737198  7.076221
1944  1 26.889640 12.737198  9.906710
1945  1 26.889640 12.737198 12.737198
1946  1 26.889640 12.737198 15.567687
1947  1 26.889640 12.737198 18.398175
1948  1 26.889640 12.737198 21.228664
1949  1 26.889640 12.737198 24.059152
1950  1 26.889640 12.737198 26.889640
1951  1 26.889640 15.567687  1.415244
1952  1 26.889640 15.567687  4.245733
1953  1 26.889640 15.567687  7.076221
1954  1 26.889640 15.567687  9.906710
1955  1 26.889640 15.567687 12.737198
1956  1 26.889640 15.567687 15.567687
1957  1 26.889640 15.567687 18.398175
1958  1 26.889640 15.567687 21.228664
1959  1 26.889640 15.567687 24.059152
1960  1 26.889640 15.567687 26.889640
1961  1 26.889640 18.398175  1.415244
1962  1 26.889640 18.398175  4.245733
1963  1 26.889640 18.398175  7.076221
1964  1 26.889640 18.398175  9.906710
1965  1 26.889640 18.398175 12.737198
1966  1 26.889640 18.398175 15.567687
1967  1 26.889640 18.398175 18.398175
1968  1 26.889640 18.398175 21.228664
1969  1 26.889640 18.398175 24.059152
1970  1 26.889640 18.398175 26.889640
1971  1 26.889640 21.228664  1.415244
1972  1 26.889640 21.228664  4.245733
1973  1 26.889640 21.228664  7.076221
1974  1 26.889640 21.228664  9.906710
1975  1 26.889640 21.228664 12.737198
1976  1 26.889640 21.228664 15.567687
1977  1 26.889640 21.228664 18.398175
1978  1 26.889640 21.228664 21.228664
1979  1 26.889640 21.228664 24.059152
1980  1 26.889640 21.228664 26.889640
1981  1 26.889640 24.059152  1.415244
1982  1 26.889640 24.059152  4.245733
1983  1 26.889640 24.059152  7.076221
1984  1 26.889640 24.059152  9.906710
1985  1 26.889640 24.059152 12.737198
1986  1 26.889640 24.059152 15.567687
1987  1 26.889640 24.059152 18.398175
1988  1 26.889640 24.059152 21.228664
1989  1 26.889640 24.059152 24.059152
1990  1 26.889640 24.059152 26.889640
1991  1 26.889640 26.889640  1.415244
1992  1 26.889640 26.889640  4.245733
1993  1 26.889640 26.889640  7.076221
1994  1 26.889640 26.889640  9.906710
1995  1 26.889640 26.889640 12.737198
1996  1 26.889640 26.889640 15.567687
1997  1 26.889640 26.889640 18.398175
1998  1 26.889640 26.889640 21.228664
1999  1 26.889640 26.889640 24.059152
2000  1 26.889640 26.889640 26.889640

