Fe16
1.0
   6.0000000000000000    0.0000000000000000    0.0000000000000000
   0.0000000000000000    6.0000000000000000    0.0000000000000000
   0.0000000000000000    0.0000000000000000    6.0000000000000000
Fe
16
direct
   0.5000000000000000    0.5000000000000000    0.5000000000000000 Fe
   0.0000000000000000    0.0000000000000000    0.5000000000000000 Fe
   0.0000000000000000    0.5000000000000000    0.0000000000000000 Fe
   0.5000000000000000    0.0000000000000000    0.0000000000000000 Fe
   0.2500000000000000    0.7500000000000000    0.2500000000000000 Fe
   0.7500000000000000    0.2500000000000000    0.2500000000000000 Fe
   0.2500000000000000    0.2500000000000000    0.7500000000000000 Fe
   0.7500000000000000    0.7500000000000000    0.7500000000000000 Fe
   0.0000000000000000    0.0000000000000000    0.0000000000000000 Fe
   0.0000000000000000    0.5000000000000000    0.5000000000000000 Fe
   0.5000000000000000    0.0000000000000000    0.5000000000000000 Fe
   0.5000000000000000    0.5000000000000000    0.0000000000000000 Fe
   0.2500000000000000    0.2500000000000000    0.2500000000000000 Fe
   0.7500000000000000    0.7500000000000000    0.2500000000000000 Fe
   0.2500000000000000    0.7500000000000000    0.7500000000000000 Fe
   0.7500000000000000    0.2500000000000000    0.7500000000000000 Fe
