Fe8 Fe16
1.0
   6.00000000    0.00000000    0.00000000
   0.00000000    6.00000000    0.00000000
   0.00000000    0.00000000    6.00000000
Fe Fe
8 16
direct
   0.50000000    0.50000000    0.50000000 Fe
   0.50000000    0.00000000    0.00000000 Fe
   0.00000000    0.00000000    0.50000000 Fe
   0.00000000    0.50000000    0.00000000 Fe
   0.25000000    0.75000000    0.25000000 Fe
   0.75000000    0.25000000    0.25000000 Fe
   0.25000000    0.25000000    0.75000000 Fe
   0.75000000    0.75000000    0.75000000 Fe
   0.37500000    0.12500000    0.37500000 Fe
   0.37500000    0.87500000    0.62500000 Fe
   0.12500000    0.87500000    0.87500000 Fe
   0.12500000    0.62500000    0.62500000 Fe
   0.37500000    0.62500000    0.87500000 Fe
   0.37500000    0.37500000    0.12500000 Fe
   0.12500000    0.37500000    0.37500000 Fe
   0.12500000    0.12500000    0.12500000 Fe
   0.87500000    0.12500000    0.87500000 Fe
   0.87500000    0.87500000    0.12500000 Fe
   0.62500000    0.87500000    0.37500000 Fe
   0.62500000    0.62500000    0.12500000 Fe
   0.87500000    0.62500000    0.37500000 Fe
   0.87500000    0.37500000    0.62500000 Fe
   0.62500000    0.37500000    0.87500000 Fe
   0.62500000    0.12500000    0.62500000 Fe
