Fe8 Fe16
5.6
   1.00000000    0.00000000    0.00000000
   0.00000000    1.00000000    0.00000000
   0.00000000    0.00000000    1.00000000
Fe
24
direct
   0.0000000000000000    0.0000000000000000    0.0000000000000000 Fe
   0.0000000000000000    0.5000000000000000    0.5000000000000000 Fe
   0.5000000000000000    0.0000000000000000    0.5000000000000000 Fe
   0.5000000000000000    0.5000000000000000    0.0000000000000000 Fe
   0.2500000000000000    0.2500000000000000    0.2500000000000000 Fe
   0.7500000000000000    0.7500000000000000    0.2500000000000000 Fe
   0.2500000000000000    0.7500000000000000    0.7500000000000000 Fe
   0.7500000000000000    0.2500000000000000    0.7500000000000000 Fe
   0.25000000    0.75000000    0.25000000 Fe
   0.75000000    0.25000000    0.25000000 Fe
   0.25000000    0.25000000    0.75000000 Fe
   0.75000000    0.75000000    0.75000000 Fe
   0.37500000    0.37500000    0.12500000 Fe
   0.12500000    0.37500000    0.37500000 Fe
   0.37500000    0.12500000    0.37500000 Fe
   0.62500000    0.62500000    0.12500000 Fe
   0.62500000    0.87500000    0.37500000 Fe
   0.87500000    0.62500000    0.37500000 Fe
   0.37500000    0.62500000    0.87500000 Fe
   0.37500000    0.87500000    0.62500000 Fe
   0.12500000    0.62500000    0.62500000 Fe
   0.62500000    0.37500000    0.87500000 Fe
   0.87500000    0.37500000    0.62500000 Fe
   0.62500000    0.12500000    0.62500000 Fe
