Fe12
1.0
   6.00000000    0.00000000    0.00000000
   0.00000000    6.00000000    0.00000000
   0.00000000    0.00000000    6.00000000
Fe
12
direct
   0.37500000    0.37500000    0.12500000 Fe
   0.12500000    0.37500000    0.37500000 Fe
   0.37500000    0.12500000    0.37500000 Fe
   0.62500000    0.62500000    0.12500000 Fe
   0.62500000    0.87500000    0.37500000 Fe
   0.87500000    0.62500000    0.37500000 Fe
   0.37500000    0.62500000    0.87500000 Fe
   0.37500000    0.87500000    0.62500000 Fe
   0.12500000    0.62500000    0.62500000 Fe
   0.62500000    0.37500000    0.87500000 Fe
   0.87500000    0.37500000    0.62500000 Fe
   0.62500000    0.12500000    0.62500000 Fe
