Ta32 Ti34 Nb32 W10                      
   1.00000000000000     
     9.1216997255111210    0.0000000000000000    0.0000000000000000
     0.0000000000000000    8.3788097184575001    0.0000000000000000
     0.0000000000000000    0.0000000000000000   23.6988662189480195
   Ta   Ti   Nb   W 
    32    34    32    10
Direct
  0.4994571676000188  0.2222724271065520  0.2221844125832531
  0.0007011838891362  0.2220545098711041  0.2222969547399315
  0.2495600548973154  0.2219808073786751  0.0552218671863136
  0.4999658814041453  0.7775905453697426  0.1106250486140423
  0.0000479543384657  0.4446843941741609  0.1107595639448087
  0.0014814358292294  0.4448616624194111  0.4441870424789326
  0.2504715557544857  0.7774287044735712  0.6108685672411064
  0.0006088878015314  0.6665951219688603  0.0000564157924039
  0.7506980600066611  0.5553766427508324  0.7223370811846666
  0.4998717066019088  0.6667754918198314  0.3332488289665618
  0.2497759176542704  0.8886013219851306  0.7219820401393814
 -0.0001538777245262  0.4451289160174866  0.7776772436159904
  0.0005745086022187  0.3337520233871847  0.6665706801487549
  0.2495106240223294  0.6669077821474518  0.8333599043358831
  0.7497640967820619  0.1110273617760402  0.6113127594073537
  0.0012324422402965  0.6663767338770308  0.6667589202653420
  0.2498146343417189  0.7778808049419761  0.2778721876399690
  0.4992161048643543  0.6670732047535052  0.6663259174694898
  0.5003964755988403  0.7780107963528858  0.7779960255058993
  0.4996118710759145 -0.0011898538253416  0.0002092495871261
  0.5001801896752340  0.1110750101897228  0.7777102048961968
  0.4999855333282915  0.3330726462240890  0.3335002845253261
  0.0003203214657926  0.8889585353473137  0.2222758329792449
  0.2491167970940612  0.5557488998875582  0.3892463970274340
  0.4995821383535909  0.6669809689161162  0.0000962085192487
  0.7502763096117065  0.4453118987079716  0.6108467221356219
  0.7504420632422223  0.7775326269303356  0.6109905865278419
  0.0002089534286128  0.1110766638437440  0.1106420942708451
  0.2497824446881278 -0.0002933177302098  0.8332720978506815
  0.5009183035403245  0.5558076609571151  0.8896547066660992
 -0.0002256248757224  0.8900128466043863  0.8894052059858857
  0.2499611531302305  0.4440520675297828  0.2777786518139822
  0.4993217237138038  0.5557954330311395  0.5558412334762918
  0.0006181661184688  0.8889658502236464  0.5556698044370203
  0.5000270802090673  0.3328561714445448  0.6666470210034283
  0.7503350559090847  0.2219781816537967  0.0554064020510288
  0.5001069796275747  0.1113223801788951  0.4442993439930025
  0.7500853215986627  0.7777180083227531  0.2778550345578690
  0.7501204241673179  0.1110497874094459  0.2779134634888824
  0.7498964864102219 -0.0001292150996172  0.1665200910555622
 -0.0000511899232333  0.5558270728479344  0.8887023250580404
  0.7485847158406278  0.8898554163342209  0.3890418402806057
  0.5000746504558943  0.8881926258750514  0.8896041809652653
  0.4998462243517313  0.3339880056526710 -0.0000119449792834
  0.5002779828903824  0.2223285069596149  0.8889666155683655
  0.0004289236194867  0.6669682512799793  0.3334865845305007
  0.7492359320902069  0.2219424740348987  0.3892039890393464
  0.4990507496593882  0.7789199182344448  0.4445007074576242
  0.7504724678271102  0.1111558270092957  0.9444180717995361
  0.7502944376332240  0.8894536019184568  0.7222225599458374
  0.2495517935165419  0.5554722214728531  0.7218703431924005
  0.2492706110137771  0.8892108242250811  0.3894639861429106
  0.0004841176504550  0.2222184645827146  0.5558272347654556
  0.4998581739266997  0.1108533811737418  0.1107399222769636
  0.7495056616346190  0.5554175849494184  0.3890133779922089
  0.7498974037428944  0.7777851859602998  0.9442398911268397
  0.7502289433568059  0.6669164623718062  0.4998680576375514
  0.2498951653222598  0.3332369760807905  0.8333550674743501
  0.0007319690377400 -0.0002403134426772  0.3333241389969968
  0.5005552856449084  0.5554270796937931  0.2219207200823024
  0.7498102399859732  0.3330945808141647  0.4999738191343904
  0.5003063270432624  0.4442582016947981  0.7778945817211680
  0.0003011545578601  0.3332009653944712  0.3333297782578192
  0.2500659537346776  0.3333697154340524  0.1666646156521340
  0.0004593157159999  0.5554943552271272  0.5556994616071530
  0.7499589664007379  0.4446196611862018  0.2778279007604584
  0.0034042081272116  0.7780540620641595  0.4443379516513961
 -0.0007955497985423  0.2199869616147104  0.8889021362158044
  0.4998168687279926  0.4450374937338577  0.1108445805938887
  0.2529331584649590 -0.0016756014725804  0.4991768249129459
  0.4975832870308235  0.2208476664973822  0.5556765570889035
  0.2514682671844912  0.2222673144706412  0.7228563909179352
  0.7498894854668198 -0.0001727204525119  0.4999650255851754
 -0.0000199308522110  0.0001091796733582 -0.0001746784517552
  0.7503600807643558  0.6669337785343944  0.8337254542792183
  0.7513694862986319  0.2207498516220602  0.7229465459648500
  0.2501330520519929  0.6679104300834353  0.4998775633385416
  0.2504580636488039  0.7771374640912481  0.9442539053911181
  0.2492790023416740  0.3319686323316219  0.4994514799096101
  0.0009289644364851  0.3332964167903972 -0.0000259359246489
 -0.0000702346542182  0.7775053993904431  0.1113915522971861
  0.7487214725870281  0.8899315416191778  0.0557467007561002
  0.5005938200933709 -0.0000235575396867  0.3337247156851078
  0.5008810097877678  0.4462056418891578  0.4439628845172769
  0.7495892499498003  0.3329251729835234  0.8331660554124599
  0.7500503501359640 -0.0027519037526545  0.8334601901535476
  0.0003188102599387  0.5555772344924732  0.2220188481800910
 -0.0013161395295951 -0.0009501647364017  0.6670689401932420
  0.7498685242076365  0.5557779198470625  0.0555269802144306
  0.4996707942471540  0.8885731841932565  0.2222487277888262
  0.7498829497651244  0.3336502712137951  0.1665311362689704
  0.4957225303476437  0.8900152688797164  0.5552737998694196
  0.2511062279074470  0.8890306493254816  0.0552915934497340
  0.0012608868751333  0.1108208110333519  0.4442796182522068
  0.2500160050277864 -0.0000092066283500  0.1666748385297163
  0.2483608885329880  0.4475117442131624  0.6106357076716401
  0.2507630857270932  0.1107111887736188  0.6104611992979505
  0.7475495221513715  0.4448255294013445  0.9445207599043236
  0.2500587314067091  0.5556023311809044  0.0553548956246068
  0.2494184020951366  0.1109815939134877  0.9448121444358643
  0.2502745500970799  0.6666466127873246  0.1666768861842307
  0.2494411266852071  0.1120148037834750  0.2777928376900672
 -0.0000370588735282  0.7769373398549010  0.7778233066028648
  0.2493584891262904  0.2213866239682489  0.3895648227731495
 -0.0004602528333926  0.1113789224635112  0.7776907264989417
  0.2498069767961148  0.4447119998533747  0.9448492218075095
  0.7499436562060972  0.6665024807111433  0.1665267452015047
  0.4996546992342818  0.0010100870191573  0.6665379891809189
 
  0.00000000E+00  0.00000000E+00  0.00000000E+00
  0.00000000E+00  0.00000000E+00  0.00000000E+00
  0.00000000E+00  0.00000000E+00  0.00000000E+00
  0.00000000E+00  0.00000000E+00  0.00000000E+00
  0.00000000E+00  0.00000000E+00  0.00000000E+00
  0.00000000E+00  0.00000000E+00  0.00000000E+00
  0.00000000E+00  0.00000000E+00  0.00000000E+00
  0.00000000E+00  0.00000000E+00  0.00000000E+00
  0.00000000E+00  0.00000000E+00  0.00000000E+00
  0.00000000E+00  0.00000000E+00  0.00000000E+00
  0.00000000E+00  0.00000000E+00  0.00000000E+00
  0.00000000E+00  0.00000000E+00  0.00000000E+00
  0.00000000E+00  0.00000000E+00  0.00000000E+00
  0.00000000E+00  0.00000000E+00  0.00000000E+00
  0.00000000E+00  0.00000000E+00  0.00000000E+00
  0.00000000E+00  0.00000000E+00  0.00000000E+00
  0.00000000E+00  0.00000000E+00  0.00000000E+00
  0.00000000E+00  0.00000000E+00  0.00000000E+00
  0.00000000E+00  0.00000000E+00  0.00000000E+00
  0.00000000E+00  0.00000000E+00  0.00000000E+00
  0.00000000E+00  0.00000000E+00  0.00000000E+00
  0.00000000E+00  0.00000000E+00  0.00000000E+00
  0.00000000E+00  0.00000000E+00  0.00000000E+00
  0.00000000E+00  0.00000000E+00  0.00000000E+00
  0.00000000E+00  0.00000000E+00  0.00000000E+00
  0.00000000E+00  0.00000000E+00  0.00000000E+00
  0.00000000E+00  0.00000000E+00  0.00000000E+00
  0.00000000E+00  0.00000000E+00  0.00000000E+00
  0.00000000E+00  0.00000000E+00  0.00000000E+00
  0.00000000E+00  0.00000000E+00  0.00000000E+00
  0.00000000E+00  0.00000000E+00  0.00000000E+00
  0.00000000E+00  0.00000000E+00  0.00000000E+00
  0.00000000E+00  0.00000000E+00  0.00000000E+00
  0.00000000E+00  0.00000000E+00  0.00000000E+00
  0.00000000E+00  0.00000000E+00  0.00000000E+00
  0.00000000E+00  0.00000000E+00  0.00000000E+00
  0.00000000E+00  0.00000000E+00  0.00000000E+00
  0.00000000E+00  0.00000000E+00  0.00000000E+00
  0.00000000E+00  0.00000000E+00  0.00000000E+00
  0.00000000E+00  0.00000000E+00  0.00000000E+00
  0.00000000E+00  0.00000000E+00  0.00000000E+00
  0.00000000E+00  0.00000000E+00  0.00000000E+00
  0.00000000E+00  0.00000000E+00  0.00000000E+00
  0.00000000E+00  0.00000000E+00  0.00000000E+00
  0.00000000E+00  0.00000000E+00  0.00000000E+00
  0.00000000E+00  0.00000000E+00  0.00000000E+00
  0.00000000E+00  0.00000000E+00  0.00000000E+00
  0.00000000E+00  0.00000000E+00  0.00000000E+00
  0.00000000E+00  0.00000000E+00  0.00000000E+00
  0.00000000E+00  0.00000000E+00  0.00000000E+00
  0.00000000E+00  0.00000000E+00  0.00000000E+00
  0.00000000E+00  0.00000000E+00  0.00000000E+00
  0.00000000E+00  0.00000000E+00  0.00000000E+00
  0.00000000E+00  0.00000000E+00  0.00000000E+00
  0.00000000E+00  0.00000000E+00  0.00000000E+00
  0.00000000E+00  0.00000000E+00  0.00000000E+00
  0.00000000E+00  0.00000000E+00  0.00000000E+00
  0.00000000E+00  0.00000000E+00  0.00000000E+00
  0.00000000E+00  0.00000000E+00  0.00000000E+00
  0.00000000E+00  0.00000000E+00  0.00000000E+00
  0.00000000E+00  0.00000000E+00  0.00000000E+00
  0.00000000E+00  0.00000000E+00  0.00000000E+00
  0.00000000E+00  0.00000000E+00  0.00000000E+00
  0.00000000E+00  0.00000000E+00  0.00000000E+00
  0.00000000E+00  0.00000000E+00  0.00000000E+00
  0.00000000E+00  0.00000000E+00  0.00000000E+00
  0.00000000E+00  0.00000000E+00  0.00000000E+00
  0.00000000E+00  0.00000000E+00  0.00000000E+00
  0.00000000E+00  0.00000000E+00  0.00000000E+00
  0.00000000E+00  0.00000000E+00  0.00000000E+00
  0.00000000E+00  0.00000000E+00  0.00000000E+00
  0.00000000E+00  0.00000000E+00  0.00000000E+00
  0.00000000E+00  0.00000000E+00  0.00000000E+00
  0.00000000E+00  0.00000000E+00  0.00000000E+00
  0.00000000E+00  0.00000000E+00  0.00000000E+00
  0.00000000E+00  0.00000000E+00  0.00000000E+00
  0.00000000E+00  0.00000000E+00  0.00000000E+00
  0.00000000E+00  0.00000000E+00  0.00000000E+00
  0.00000000E+00  0.00000000E+00  0.00000000E+00
  0.00000000E+00  0.00000000E+00  0.00000000E+00
  0.00000000E+00  0.00000000E+00  0.00000000E+00
  0.00000000E+00  0.00000000E+00  0.00000000E+00
  0.00000000E+00  0.00000000E+00  0.00000000E+00
  0.00000000E+00  0.00000000E+00  0.00000000E+00
  0.00000000E+00  0.00000000E+00  0.00000000E+00
  0.00000000E+00  0.00000000E+00  0.00000000E+00
  0.00000000E+00  0.00000000E+00  0.00000000E+00
  0.00000000E+00  0.00000000E+00  0.00000000E+00
  0.00000000E+00  0.00000000E+00  0.00000000E+00
  0.00000000E+00  0.00000000E+00  0.00000000E+00
  0.00000000E+00  0.00000000E+00  0.00000000E+00
  0.00000000E+00  0.00000000E+00  0.00000000E+00
  0.00000000E+00  0.00000000E+00  0.00000000E+00
  0.00000000E+00  0.00000000E+00  0.00000000E+00
  0.00000000E+00  0.00000000E+00  0.00000000E+00
  0.00000000E+00  0.00000000E+00  0.00000000E+00
  0.00000000E+00  0.00000000E+00  0.00000000E+00
  0.00000000E+00  0.00000000E+00  0.00000000E+00
  0.00000000E+00  0.00000000E+00  0.00000000E+00
  0.00000000E+00  0.00000000E+00  0.00000000E+00
  0.00000000E+00  0.00000000E+00  0.00000000E+00
  0.00000000E+00  0.00000000E+00  0.00000000E+00
  0.00000000E+00  0.00000000E+00  0.00000000E+00
  0.00000000E+00  0.00000000E+00  0.00000000E+00
  0.00000000E+00  0.00000000E+00  0.00000000E+00
  0.00000000E+00  0.00000000E+00  0.00000000E+00
  0.00000000E+00  0.00000000E+00  0.00000000E+00
  0.00000000E+00  0.00000000E+00  0.00000000E+00
