       N       E                     dE             d eps       ncg     rms          rms(c)
DAV:   1    -0.395367640894E+05   -0.39537E+05   -0.91483E+05 33696   0.209E+03
DAV:   2    -0.584067893569E+05   -0.18870E+05   -0.18068E+05 36768   0.112E+03
DAV:   3    -0.612609990865E+05   -0.28542E+04   -0.26937E+04 38400   0.458E+02
DAV:   4    -0.622034436423E+05   -0.94244E+03   -0.87581E+03 38400   0.236E+02
DAV:   5    -0.627218811908E+05   -0.51844E+03   -0.49236E+03 38400   0.162E+02    0.132E+04
DAV:   6    -0.228491124040E+05    0.39873E+05   -0.23579E+05 33792   0.811E+02    0.130E+04
DAV:   7    -0.129775822321E+05    0.98715E+04   -0.23082E+05 37440   0.981E+02    0.579E+03
DAV:   8    -0.172689679334E+05   -0.42914E+04   -0.30981E+05 38400   0.109E+03    0.480E+03
DAV:   9    -0.566808299446E+04    0.11601E+05   -0.20152E+05 36672   0.732E+02    0.411E+03
DAV:  10    -0.530187463031E+04    0.36621E+03   -0.84922E+04 34560   0.488E+02    0.400E+03
DAV:  11    -0.317461751878E+04    0.21273E+04   -0.19701E+04 33360   0.264E+02    0.417E+03
DAV:  12    -0.450143493520E+04   -0.13268E+04   -0.70316E+03 32640   0.127E+02    0.425E+03
DAV:  13    -0.524053504573E+04   -0.73910E+03   -0.22273E+03 34464   0.647E+01    0.424E+03
DAV:  14    -0.501273866129E+04    0.22780E+03   -0.22070E+03 32448   0.857E+01    0.416E+03
DAV:  15    -0.510556393311E+04   -0.92825E+02   -0.65419E+02 32928   0.331E+01    0.417E+03
DAV:  16    -0.570712349385E+04   -0.60156E+03   -0.91591E+02 32640   0.807E+01    0.404E+03
DAV:  17    -0.635528204856E+04   -0.64816E+03   -0.15611E+03 34848   0.770E+01    0.380E+03
DAV:  18    -0.656999205962E+04   -0.21471E+03   -0.53038E+02 35472   0.533E+01    0.374E+03
DAV:  19    -0.655585148924E+04    0.14141E+02   -0.18944E+02 36432   0.164E+01    0.392E+03
DAV:  20    -0.657918965372E+04   -0.23338E+02   -0.65020E+01 32784   0.120E+01    0.392E+03
DAV:  21    -0.647048389710E+04    0.10871E+03   -0.38688E+02 33696   0.198E+01    0.392E+03
DAV:  22    -0.614996004331E+04    0.32052E+03   -0.45695E+02 30480   0.382E+01    0.366E+03
DAV:  23    -0.618449061738E+04   -0.34531E+02   -0.42445E+02 33792   0.267E+01    0.366E+03
DAV:  24    -0.660405362992E+04   -0.41956E+03   -0.39814E+02 30576   0.283E+01    0.372E+03
DAV:  25    -0.658001241929E+04    0.24041E+02   -0.12851E+02 33984   0.132E+01    0.383E+03
DAV:  26    -0.655196508489E+04    0.28047E+02   -0.15343E+01 33072   0.468E+00    0.392E+03
DAV:  27    -0.671399308014E+04   -0.16203E+03   -0.59965E+02 27744   0.315E+01    0.341E+03
DAV:  28    -0.704267258980E+04   -0.32868E+03   -0.13162E+03 28752   0.713E+01    0.379E+03
DAV:  29    -0.716142717663E+04   -0.11875E+03   -0.75704E+02 25968   0.391E+01    0.353E+03
DAV:  30    -0.854464055436E+04   -0.13832E+04   -0.34875E+03 32304   0.973E+01
   1 F= -.85446406E+04 E0= -.85445996E+04  d E =-.854464E+04
       N       E                     dE             d eps       ncg     rms          rms(c)
DAV:   1    -0.104382099676E+05   -0.32768E+04   -0.81758E+03 31728   0.145E+02    0.269E+03
DAV:   2    -0.200284746392E+05   -0.95903E+04   -0.29925E+05 37920   0.576E+02    0.225E+03
DAV:   3    -0.106247988520E+05    0.94037E+04   -0.37990E+05 38256   0.945E+02    0.142E+03
DAV:   4    -0.101728906484E+05    0.45191E+03   -0.28175E+05 35616   0.817E+02    0.144E+03
DAV:   5    -0.442089284815E+04    0.57520E+04   -0.45716E+04 35472   0.441E+02    0.954E+02
DAV:   6    -0.582593749270E+04   -0.14050E+04   -0.11069E+05 36720   0.410E+02    0.897E+02
DAV:   7    -0.209736487060E+04    0.37286E+04   -0.41172E+04 36384   0.305E+02    0.800E+02
DAV:   8    -0.632419973570E+04   -0.42268E+04   -0.72710E+04 36528   0.301E+02    0.755E+02
DAV:   9    -0.770864971282E+04   -0.13844E+04   -0.70981E+04 35568   0.509E+02    0.102E+03
DAV:  10    -0.733148845827E+04    0.37716E+03   -0.10348E+04 32592   0.202E+02    0.175E+03
DAV:  11    -0.728731936226E+04    0.44169E+02   -0.14960E+03 33312   0.583E+01    0.257E+03
DAV:  12    -0.720455314472E+04    0.82766E+02   -0.30315E+02 36816   0.229E+01    0.315E+03
DAV:  13    -0.720732070288E+04   -0.27676E+01   -0.63519E+01 34176   0.950E+00    0.330E+03
DAV:  14    -0.719831429393E+04    0.90064E+01   -0.16090E+01 36480   0.351E+00    0.354E+03
DAV:  15    -0.715555660167E+04    0.42758E+02   -0.33770E+00 32544   0.240E+00    0.354E+03
DAV:  16    -0.446328311633E+04    0.26923E+04   -0.47649E+03 25344   0.121E+02    0.241E+03
DAV:  17    -0.370764003583E+04    0.75564E+03   -0.24492E+03 30528   0.657E+01    0.218E+03
DAV:  18    -0.233533214582E+04    0.13723E+04   -0.70867E+03 33456   0.118E+02    0.101E+03
DAV:  19    -0.210220073572E+04    0.23313E+03   -0.48506E+03 34608   0.127E+02    0.939E+02
DAV:  20    -0.144474392785E+04    0.65746E+03   -0.49567E+03 36240   0.115E+02    0.839E+02
DAV:  21    -0.140525049897E+04    0.39493E+02   -0.14676E+03 34224   0.573E+01    0.783E+02
DAV:  22    -0.137008375596E+04    0.35167E+02   -0.34973E+02 27360   0.341E+01    0.713E+02
DAV:  23    -0.122146782077E+04    0.14862E+03   -0.57708E+02 29472   0.506E+01    0.547E+02
DAV:  24    -0.121287090256E+04    0.85969E+01   -0.42357E+02 32928   0.369E+01    0.373E+02
DAV:  25    -0.117702063855E+04    0.35850E+02   -0.37014E+02 28848   0.401E+01    0.282E+02
DAV:  26    -0.116656391072E+04    0.10457E+02   -0.17762E+02 27840   0.224E+01    0.241E+02
DAV:  27    -0.115000805200E+04    0.16556E+02   -0.12459E+02 28128   0.201E+01    0.233E+02
DAV:  28    -0.113246308970E+04    0.17545E+02   -0.50405E+01 27888   0.136E+01    0.251E+02
DAV:  29    -0.112578291734E+04    0.66802E+01   -0.20770E+01 29712   0.760E+00    0.265E+02
DAV:  30    -0.112182792427E+04    0.39550E+01   -0.12877E+01 28032   0.567E+00
   2 F= -.11218279E+04 E0= -.11217330E+04  d E =0.742281E+04
       N       E                     dE             d eps       ncg     rms          rms(c)
DAV:   1    -0.111891287843E+04    0.68700E+01   -0.17301E+01 26928   0.677E+00    0.281E+02
DAV:   2    -0.135957668500E+04   -0.24066E+03   -0.12019E+03 28896   0.725E+01    0.190E+02
DAV:   3    -0.562200902377E+04   -0.42624E+04   -0.46475E+04 34560   0.244E+02    0.358E+02
DAV:   4    -0.242931478397E+04    0.31927E+04   -0.76535E+03 26880   0.180E+02    0.157E+02
DAV:   5    -0.148594747758E+04    0.94337E+03   -0.13352E+04 34272   0.785E+01    0.150E+02
DAV:   6    -0.156136564242E+04   -0.75418E+02   -0.57987E+03 31680   0.122E+02    0.100E+02
DAV:   7    -0.145318045052E+04    0.10819E+03   -0.18544E+03 31680   0.658E+01    0.852E+01
DAV:   8    -0.125423236639E+04    0.19895E+03   -0.81461E+02 30864   0.471E+01    0.627E+01
DAV:   9    -0.119576392866E+04    0.58468E+02   -0.31703E+02 29328   0.227E+01    0.517E+01
DAV:  10    -0.116911308505E+04    0.26651E+02   -0.82460E+01 30672   0.120E+01    0.466E+01
DAV:  11    -0.113657959295E+04    0.32533E+02   -0.31378E+01 28896   0.917E+00    0.377E+01
DAV:  12    -0.111727602536E+04    0.19304E+02   -0.28754E+01 27168   0.846E+00    0.302E+01
DAV:  13    -0.110177717263E+04    0.15499E+02   -0.43201E+01 26928   0.982E+00    0.187E+01
DAV:  14    -0.109769647355E+04    0.40807E+01   -0.17412E+01 27360   0.661E+00    0.139E+01
DAV:  15    -0.109705228146E+04    0.64419E+00   -0.69722E+00 29136   0.396E+00    0.124E+01
DAV:  16    -0.109687871090E+04    0.17357E+00   -0.34114E+00 27312   0.275E+00    0.117E+01
DAV:  17    -0.109636825660E+04    0.51045E+00   -0.23650E+00 27696   0.250E+00    0.100E+01
DAV:  18    -0.109613556622E+04    0.23269E+00   -0.17835E+00 28992   0.207E+00    0.888E+00
DAV:  19    -0.109568511230E+04    0.45045E+00   -0.13321E+00 28992   0.186E+00    0.705E+00
DAV:  20    -0.109564944141E+04    0.35671E-01   -0.61253E-01 28176   0.122E+00    0.637E+00
DAV:  21    -0.109542340389E+04    0.22604E+00   -0.53105E-01 27264   0.112E+00    0.506E+00
DAV:  22    -0.109534682403E+04    0.76580E-01   -0.22928E-01 27792   0.774E-01    0.426E+00
DAV:  23    -0.109533270264E+04    0.14121E-01   -0.98621E-02 29376   0.440E-01    0.385E+00
DAV:  24    -0.109529453238E+04    0.38170E-01   -0.53589E-02 27168   0.368E-01    0.325E+00
DAV:  25    -0.109526707418E+04    0.27458E-01   -0.93535E-02 26976   0.480E-01    0.265E+00
DAV:  26    -0.109524606084E+04    0.21013E-01   -0.43994E-02 27552   0.335E-01    0.202E+00
DAV:  27    -0.109523362827E+04    0.12433E-01   -0.42190E-02 26976   0.328E-01    0.141E+00
DAV:  28    -0.109522822897E+04    0.53993E-02   -0.37268E-02 27408   0.297E-01    0.962E-01
DAV:  29    -0.109522502193E+04    0.32070E-02   -0.16625E-02 26976   0.219E-01    0.654E-01
DAV:  30    -0.109522344709E+04    0.15748E-02   -0.62348E-03 29328   0.119E-01
   3 F= -.10952234E+04 E0= -.10951147E+04  d E =0.744942E+04
       N       E                     dE             d eps       ncg     rms          rms(c)
DAV:   1    -0.109522328356E+04    0.17384E-02   -0.53302E-03 27072   0.120E-01    0.306E-01
DAV:   2    -0.109524849820E+04   -0.25215E-01   -0.85136E-02 26928   0.481E-01    0.108E+00
DAV:   3    -0.109523574513E+04    0.12753E-01   -0.10158E-01 29664   0.557E-01    0.724E-01
DAV:   4    -0.109522311400E+04    0.12631E-01   -0.36605E-02 26784   0.336E-01    0.238E-01
DAV:   5    -0.109522718942E+04   -0.40754E-02   -0.18541E-02 28608   0.222E-01    0.473E-01
DAV:   6    -0.109522319532E+04    0.39941E-02   -0.16754E-02 27024   0.213E-01    0.216E-01
DAV:   7    -0.109522307754E+04    0.11779E-03   -0.48499E-03 27888   0.114E-01    0.154E-01
DAV:   8    -0.109522258647E+04    0.49106E-03   -0.23352E-03 27024   0.951E-02    0.909E-02
DAV:   9    -0.109522251084E+04    0.75635E-04   -0.11668E-03 28320   0.541E-02    0.647E-02
DAV:  10    -0.109522247524E+04    0.35596E-04   -0.47631E-04 27120   0.333E-02    0.386E-02
DAV:  11    -0.109522245792E+04    0.17326E-04   -0.14888E-04 27360   0.201E-02    0.245E-02
DAV:  12    -0.109522245309E+04    0.48220E-05   -0.67068E-05 25104   0.142E-02    0.171E-02
DAV:  13    -0.109522245276E+04    0.33043E-06   -0.41355E-05 25584   0.109E-02    0.137E-02
DAV:  14    -0.109522245094E+04    0.18264E-05   -0.24142E-05 24960   0.874E-03    0.972E-03
DAV:  15    -0.109522244943E+04    0.15039E-05   -0.11619E-05 23664   0.609E-03    0.589E-03
DAV:  16    -0.109522244900E+04    0.43234E-06   -0.43098E-06 18768   0.373E-03
   4 F= -.10952224E+04 E0= -.10951137E+04  d E =0.744942E+04
       N       E                     dE             d eps       ncg     rms          rms(c)
DAV:   1    -0.109522255814E+04   -0.10871E-03   -0.29703E-05 22464   0.103E-02    0.274E-03
DAV:   2    -0.109522256043E+04   -0.22847E-05   -0.85954E-06 23232   0.602E-03    0.956E-03
DAV:   3    -0.109522255931E+04    0.11198E-05   -0.85897E-06 14496   0.576E-03    0.683E-03
DAV:   4    -0.109522255833E+04    0.97963E-06   -0.32165E-06 15648   0.360E-03    0.223E-03
DAV:   5    -0.109522255859E+04   -0.26256E-06   -0.14525E-06 12480   0.218E-03    0.363E-03
DAV:   6    -0.109522255832E+04    0.26925E-06   -0.97137E-07 12480   0.210E-03    0.128E-03
DAV:   7    -0.109522255831E+04    0.97498E-08   -0.17424E-07 12480   0.916E-04    0.942E-04
DAV:   8    -0.109522255831E+04    0.18408E-08   -0.11058E-07 12480   0.797E-04    0.821E-04
DAV:   9    -0.109522255831E+04   -0.58208E-10   -0.61382E-08 12480   0.588E-04    0.546E-04
DAV:  10    -0.109522255831E+04   -0.10696E-08   -0.36199E-08 12480   0.425E-04
   5 F= -.10952226E+04 E0= -.10951138E+04  d E =0.744942E+04
       N       E                     dE             d eps       ncg     rms          rms(c)
DAV:   1    -0.109522259732E+04   -0.39006E-04   -0.33676E-06 16464   0.349E-03    0.620E-04
DAV:   2    -0.109522259737E+04   -0.51354E-07   -0.40797E-07 12480   0.162E-03    0.140E-03
DAV:   3    -0.109522259740E+04   -0.28500E-07   -0.28905E-07 12480   0.129E-03    0.137E-03
DAV:   4    -0.109522259735E+04    0.43357E-07   -0.15793E-07 12480   0.873E-04    0.504E-04
DAV:   5    -0.109522259735E+04    0.28813E-08   -0.38395E-08 12480   0.450E-04    0.441E-04
DAV:   6    -0.109522259736E+04   -0.79672E-08   -0.42873E-08 12480   0.422E-04    0.673E-04
DAV:   7    -0.109522259735E+04    0.89567E-08   -0.29959E-08 12480   0.355E-04    0.231E-04
DAV:   8    -0.109522259735E+04    0.57480E-09   -0.81085E-09 12480   0.173E-04    0.247E-04
DAV:   9    -0.109522259735E+04    0.13752E-08   -0.63404E-09 12480   0.174E-04    0.163E-04
DAV:  10    -0.109522259735E+04    0.96770E-09   -0.51649E-09 12480   0.145E-04
   6 F= -.10952226E+04 E0= -.10951139E+04  d E =0.744942E+04
       N       E                     dE             d eps       ncg     rms          rms(c)
DAV:   1    -0.109522261128E+04   -0.13932E-04   -0.37170E-07 12480   0.124E-03    0.488E-04
DAV:   2    -0.109522261129E+04   -0.11547E-07   -0.99785E-08 12480   0.868E-04    0.653E-04
DAV:   3    -0.109522261133E+04   -0.43990E-07   -0.16325E-07 12480   0.805E-04    0.137E-03
DAV:   4    -0.109522261129E+04    0.42026E-07   -0.12515E-07 12480   0.734E-04    0.454E-04
DAV:   5    -0.109522261129E+04   -0.58935E-09   -0.23446E-08 12480   0.340E-04    0.432E-04
DAV:   6    -0.109522261129E+04    0.35507E-08   -0.16870E-08 12480   0.262E-04    0.201E-04
DAV:   7    -0.109522261129E+04    0.11205E-08   -0.54401E-09 12480   0.149E-04    0.182E-04
DAV:   8    -0.109522261129E+04    0.96043E-09   -0.30799E-09 12480   0.106E-04    0.115E-04
DAV:   9    -0.109522261129E+04   -0.65484E-10   -0.24224E-09 12480   0.715E-05    0.114E-04
DAV:  10    -0.109522261129E+04   -0.77853E-09   -0.21548E-09 12480   0.762E-05
   7 F= -.10952226E+04 E0= -.10951139E+04  d E =0.744942E+04
       N       E                     dE             d eps       ncg     rms          rms(c)
DAV:   1    -0.109522261627E+04   -0.49795E-05   -0.47302E-08 12480   0.438E-04    0.156E-04
DAV:   2    -0.109522261627E+04   -0.16298E-08   -0.13288E-08 12480   0.306E-04    0.215E-04
DAV:   3    -0.109522261627E+04   -0.18626E-08   -0.95342E-09 12480   0.218E-04    0.230E-04
DAV:   4    -0.109522261627E+04   -0.34925E-09   -0.85693E-09 12480   0.187E-04    0.207E-04
DAV:   5    -0.109522261627E+04    0.84401E-09   -0.40973E-09 12480   0.124E-04    0.910E-05
DAV:   6    -0.109522261627E+04    0.10186E-08   -0.25821E-09 12480   0.776E-05    0.107E-04
DAV:   7    -0.109522261627E+04    0.23283E-09   -0.20147E-09 12480   0.659E-05    0.710E-05
DAV:   8    -0.109522261627E+04   -0.73487E-09   -0.14719E-09 12480   0.388E-05    0.567E-05
DAV:   9    -0.109522261627E+04    0.60390E-09   -0.14526E-09 12480   0.351E-05    0.482E-05
DAV:  10    -0.109522261627E+04    0.15280E-09   -0.13241E-09 12480   0.311E-05
   8 F= -.10952226E+04 E0= -.10951139E+04  d E =0.744942E+04
       N       E                     dE             d eps       ncg     rms          rms(c)
DAV:   1    -0.109522261805E+04   -0.17802E-05   -0.71302E-09 12480   0.159E-04    0.589E-05
DAV:   2    -0.109522261805E+04   -0.37835E-09   -0.31713E-09 12480   0.120E-04    0.108E-04
DAV:   3    -0.109522261805E+04    0.45839E-09   -0.37000E-09 12480   0.105E-04    0.148E-04
DAV:   4    -0.109522261805E+04   -0.14552E-10   -0.28182E-09 12480   0.877E-05    0.578E-05
DAV:   5    -0.109522261805E+04   -0.74942E-09   -0.18881E-09 12480   0.521E-05    0.878E-05
DAV:   6    -0.109522261805E+04    0.53114E-09   -0.16403E-09 12480   0.474E-05    0.273E-05
DAV:   7    -0.109522261805E+04   -0.21828E-09   -0.12925E-09 12480   0.214E-05    0.300E-05
DAV:   8    -0.109522261805E+04   -0.18190E-09   -0.12891E-09 12480   0.198E-05    0.203E-05
DAV:   9    -0.109522261805E+04    0.47294E-09   -0.12669E-09 12480   0.134E-05    0.188E-05
DAV:  10    -0.109522261805E+04    0.46566E-09   -0.11970E-09 12480   0.136E-05
   9 F= -.10952226E+04 E0= -.10951139E+04  d E =0.744942E+04
       N       E                     dE             d eps       ncg     rms          rms(c)
DAV:   1    -0.109522261868E+04   -0.63598E-06   -0.19193E-09 12480   0.568E-05    0.212E-05
DAV:   2    -0.109522261868E+04    0.15134E-08   -0.13514E-09 12480   0.418E-05    0.326E-05
DAV:   3    -0.109522261868E+04   -0.24738E-09   -0.14981E-09 12480   0.361E-05    0.607E-05
DAV:   4    -0.109522261868E+04   -0.65484E-10   -0.14135E-09 12480   0.334E-05    0.185E-05
DAV:   5    -0.109522261868E+04    0.24011E-09   -0.12446E-09 12480   0.156E-05    0.205E-05
DAV:   6    -0.109522261868E+04   -0.38563E-09   -0.11356E-09 12480   0.136E-05    0.115E-05
DAV:   7    -0.109522261868E+04   -0.12369E-09   -0.12477E-09 12480   0.870E-06    0.106E-05
DAV:   8    -0.109522261868E+04   -0.52387E-09   -0.12150E-09 12480   0.703E-06    0.741E-06
DAV:   9    -0.109522261868E+04    0.25466E-09   -0.11720E-09 12480   0.495E-06    0.657E-06
DAV:  10    -0.109522261868E+04   -0.12369E-09   -0.12370E-09 12480   0.473E-06
  10 F= -.10952226E+04 E0= -.10951139E+04  d E =0.744942E+04
       N       E                     dE             d eps       ncg     rms          rms(c)
DAV:   1    -0.109522261891E+04   -0.22755E-06   -0.12265E-09 12480   0.203E-05    0.795E-06
DAV:   2    -0.109522261891E+04    0.24738E-09   -0.11652E-09 12480   0.155E-05    0.119E-05
DAV:   3    -0.109522261891E+04   -0.32014E-09   -0.12424E-09 12480   0.128E-05    0.187E-05
DAV:   4    -0.109522261891E+04    0.48021E-09   -0.11847E-09 12480   0.115E-05    0.796E-06
DAV:   5    -0.109522261891E+04    0.28376E-09   -0.11702E-09 12480   0.622E-06    0.807E-06
DAV:   6    -0.109522261891E+04    0.64028E-09   -0.11151E-09 12480   0.530E-06    0.379E-06
DAV:   7    -0.109522261891E+04   -0.82946E-09   -0.10899E-09 12480   0.313E-06    0.359E-06
DAV:   8    -0.109522261891E+04    0.64028E-09   -0.11739E-09 12480   0.268E-06    0.248E-06
DAV:   9    -0.109522261891E+04    0.52387E-09   -0.11864E-09 12480   0.187E-06    0.222E-06
DAV:  10    -0.109522261891E+04   -0.60390E-09   -0.11494E-09 12480   0.183E-06
  11 F= -.10952226E+04 E0= -.10951139E+04  d E =0.744942E+04
       N       E                     dE             d eps       ncg     rms          rms(c)
DAV:   1    -0.109522261899E+04   -0.81956E-07   -0.12025E-09 12480   0.732E-06    0.278E-06
DAV:   2    -0.109522261899E+04   -0.88767E-09   -0.11620E-09 12480   0.568E-06    0.489E-06
DAV:   3    -0.109522261899E+04    0.72760E-10   -0.12067E-09 12480   0.488E-06    0.758E-06
DAV:   4    -0.109522261899E+04    0.29104E-10   -0.11465E-09 12480   0.435E-06    0.249E-06
DAV:   5    -0.109522261899E+04   -0.48021E-09   -0.12135E-09 12480   0.246E-06    0.375E-06
DAV:   6    -0.109522261899E+04    0.80036E-09   -0.11540E-09 12480   0.220E-06    0.141E-06
DAV:   7    -0.109522261899E+04    0.65484E-10   -0.11710E-09 12384   0.115E-06    0.135E-06
DAV:   8    -0.109522261899E+04   -0.77853E-09   -0.11308E-09 12336   0.991E-07    0.956E-07
DAV:   9    -0.109522261899E+04    0.36380E-09   -0.10779E-09 12336   0.695E-07    0.849E-07
DAV:  10    -0.109522261899E+04   -0.17462E-09   -0.11736E-09 12336   0.703E-07
  12 F= -.10952226E+04 E0= -.10951139E+04  d E =0.744942E+04
       N       E                     dE             d eps       ncg     rms          rms(c)
DAV:   1    -0.109522261902E+04   -0.28267E-07   -0.11759E-09 12240   0.261E-06    0.972E-07
DAV:   2    -0.109522261902E+04   -0.29831E-09   -0.12444E-09 12192   0.193E-06    0.125E-06
DAV:   3    -0.109522261902E+04    0.12369E-09   -0.11776E-09 12192   0.152E-06    0.242E-06
DAV:   4    -0.109522261902E+04   -0.69122E-09   -0.12252E-09 12192   0.144E-06    0.866E-07
DAV:   5    -0.109522261902E+04    0.62573E-09   -0.11758E-09 12096   0.690E-07    0.735E-07
DAV:   6    -0.109522261902E+04    0.42201E-09   -0.11013E-09 12048   0.621E-07    0.565E-07
DAV:   7    -0.109522261902E+04   -0.39290E-09   -0.12255E-09 12048   0.450E-07    0.471E-07
DAV:   8    -0.109522261902E+04   -0.15280E-09   -0.11101E-09 12048   0.372E-07    0.346E-07
DAV:   9    -0.109522261902E+04   -0.55297E-09   -0.11496E-09 12048   0.269E-07    0.300E-07
DAV:  10    -0.109522261902E+04    0.50932E-09   -0.11330E-09 11952   0.265E-07
  13 F= -.10952226E+04 E0= -.10951139E+04  d E =0.744942E+04
       N       E                     dE             d eps       ncg     rms          rms(c)
DAV:   1    -0.109522261903E+04   -0.10208E-07   -0.11302E-09 11904   0.950E-07    0.351E-07
DAV:   2    -0.109522261903E+04    0.13097E-09   -0.10830E-09 11904   0.745E-07    0.644E-07
DAV:   3    -0.109522261903E+04    0.10841E-08   -0.11340E-09 11904   0.619E-07    0.872E-07
DAV:   4    -0.109522261903E+04   -0.10186E-09   -0.10857E-09 11904   0.540E-07    0.345E-07
DAV:   5    -0.109522261903E+04    0.87311E-10   -0.11278E-09 11904   0.337E-07    0.537E-07
DAV:   6    -0.109522261903E+04   -0.97498E-09   -0.12615E-09 11904   0.314E-07    0.177E-07
DAV:   7    -0.109522261903E+04    0.38563E-09   -0.11704E-09 11904   0.155E-07    0.182E-07
DAV:   8    -0.109522261903E+04   -0.21100E-09   -0.11870E-09 11808   0.146E-07    0.135E-07
DAV:   9    -0.109522261903E+04   -0.30559E-09   -0.11352E-09 11760   0.102E-07    0.116E-07
DAV:  10    -0.109522261903E+04    0.88767E-09   -0.10474E-09 11760   0.103E-07
  14 F= -.10952226E+04 E0= -.10951139E+04  d E =0.744942E+04
       N       E                     dE             d eps       ncg     rms          rms(c)
DAV:   1    -0.109490744465E+04    0.31517E+00   -0.64416E+01 20640   0.149E+01    0.219E+00
DAV:   2    -0.109566698356E+04   -0.75954E+00   -0.59335E+00 29568   0.534E+00    0.443E+00
DAV:   3    -0.109588254507E+04   -0.21556E+00   -0.29112E+00 28512   0.303E+00    0.477E+00
DAV:   4    -0.109539494311E+04    0.48760E+00   -0.18042E+00 28848   0.234E+00    0.216E+00
DAV:   5    -0.109543275333E+04   -0.37810E-01   -0.54990E-01 27120   0.131E+00    0.237E+00
DAV:   6    -0.109534309194E+04    0.89661E-01   -0.44281E-01 28272   0.115E+00    0.141E+00
DAV:   7    -0.109531914054E+04    0.23951E-01   -0.13472E-01 28368   0.601E-01    0.863E-01
DAV:   8    -0.109532604508E+04   -0.69045E-02   -0.77205E-02 28992   0.496E-01    0.935E-01
DAV:   9    -0.109531863613E+04    0.74090E-02   -0.86783E-02 28800   0.486E-01    0.618E-01
DAV:  10    -0.109531454619E+04    0.40899E-02   -0.43747E-02 30240   0.370E-01    0.446E-01
DAV:  11    -0.109531258011E+04    0.19661E-02   -0.19795E-02 30864   0.225E-01    0.255E-01
DAV:  12    -0.109531181298E+04    0.76712E-03   -0.61867E-03 29184   0.136E-01    0.150E-01
DAV:  13    -0.109531157449E+04    0.23849E-03   -0.23027E-03 28512   0.801E-02    0.964E-02
DAV:  14    -0.109531154629E+04    0.28198E-04   -0.12732E-03 27504   0.603E-02    0.759E-02
DAV:  15    -0.109531153917E+04    0.71206E-05   -0.97990E-04 28704   0.517E-02    0.669E-02
DAV:  16    -0.109531147370E+04    0.65475E-04   -0.51006E-04 27168   0.376E-02    0.352E-02
DAV:  17    -0.109531145872E+04    0.14970E-04   -0.17280E-04 27696   0.218E-02    0.222E-02
DAV:  18    -0.109531145418E+04    0.45497E-05   -0.72186E-05 27312   0.126E-02    0.147E-02
DAV:  19    -0.109531145228E+04    0.18970E-05   -0.27990E-05 25008   0.827E-03    0.913E-03
DAV:  20    -0.109531145200E+04    0.27357E-06   -0.12854E-05 24144   0.596E-03    0.636E-03
DAV:  21    -0.109531145219E+04   -0.18311E-06   -0.77917E-06 22272   0.447E-03
  15 F= -.10953115E+04 E0= -.10952029E+04  d E =0.744933E+04
