Ta32 Ti34 Nb32 W10
1.0
   9.121699725511120960    0.000000000000000000    0.000000000000000000
   0.000000000000000000    8.378809718457500111    0.000000000000000000
   0.000000000000000000    0.000000000000000000   23.698866218948019480
Ta Ti Nb W
32 34 32 10
direct
   0.500000000000000000    0.222222222222222265    0.222222176861305826 Ta
   0.000000000000000000    0.222222222222222265    0.222222176861305826 Ta
   0.250000000000000000    0.222222222222222265    0.055555510194639203 Ta
   0.500000000000000000    0.777777777777777901    0.111111156472027503 Ta
   0.000000000000000000    0.444444444444444531    0.111111156472027503 Ta
   0.000000000000000000    0.444444444444444531    0.444444489805360776 Ta
   0.250000000000000000    0.777777777777777901    0.611111020389278448 Ta
   0.000000000000000000    0.666666666666666741    0.000000000000000000 Ta
   0.749999999999999889    0.555555555555555469    0.722222176861305853 Ta
   0.500000000000000000    0.666666666666666741    0.333333333333333370 Ta
   0.250000000000000000    0.888888888888889062    0.722222176861305853 Ta
   0.000000000000000000    0.444444444444444531    0.777777823138694147 Ta
   0.000000000000000000    0.333333333333333426    0.666666666666666741 Ta
   0.250000000000000000    0.666666666666666741    0.833333333333333370 Ta
   0.749999999999999889    0.111111111111111133    0.611111020389278448 Ta
   0.000000000000000000    0.666666666666666741    0.666666666666666741 Ta
   0.250000000000000000    0.777777777777777901    0.277777687055945077 Ta
   0.500000000000000000    0.666666666666666741    0.666666666666666741 Ta
   0.500000000000000000    0.777777777777777901    0.777777823138694147 Ta
   0.500000000000000000    0.000000000000000000    0.000000000000000000 Ta
   0.500000000000000000    0.111111111111111133    0.777777823138694147 Ta
   0.500000000000000000    0.333333333333333426    0.333333333333333370 Ta
   0.000000000000000000    0.888888888888889062    0.222222176861305826 Ta
   0.250000000000000000    0.555555555555555469    0.388888843527972539 Ta
   0.500000000000000000    0.666666666666666741    0.000000000000000000 Ta
   0.749999999999999889    0.444444444444444531    0.611111020389278448 Ta
   0.749999999999999889    0.777777777777777901    0.611111020389278448 Ta
   0.000000000000000000    0.111111111111111133    0.111111156472027503 Ta
   0.250000000000000000    0.000000000000000000    0.833333333333333370 Ta
   0.500000000000000000    0.555555555555555469    0.888888843527972483 Ta
   0.000000000000000000    0.888888888888889062    0.888888843527972483 Ta
   0.250000000000000000    0.444444444444444531    0.277777687055945077 Ta
   0.500000000000000000    0.555555555555555469    0.555555510194639113 Ti
   0.000000000000000000    0.888888888888889062    0.555555510194639113 Ti
   0.500000000000000000    0.333333333333333426    0.666666666666666741 Ti
   0.749999999999999889    0.222222222222222265    0.055555510194639203 Ti
   0.500000000000000000    0.111111111111111133    0.444444489805360776 Ti
   0.749999999999999889    0.777777777777777901    0.277777687055945077 Ti
   0.749999999999999889    0.111111111111111133    0.277777687055945077 Ti
   0.749999999999999889    0.000000000000000000    0.166666666666666768 Ti
   0.000000000000000000    0.555555555555555469    0.888888843527972483 Ti
   0.749999999999999889    0.888888888888889062    0.388888843527972539 Ti
   0.500000000000000000    0.888888888888889062    0.888888843527972483 Ti
   0.500000000000000000    0.333333333333333426    0.000000000000000000 Ti
   0.500000000000000000    0.222222222222222265    0.888888843527972483 Ti
   0.000000000000000000    0.666666666666666741    0.333333333333333370 Ti
   0.749999999999999889    0.222222222222222265    0.388888843527972539 Ti
   0.500000000000000000    0.777777777777777901    0.444444489805360776 Ti
   0.749999999999999889    0.111111111111111133    0.944444353722612040 Ti
   0.749999999999999889    0.888888888888889062    0.722222176861305853 Ti
   0.250000000000000000    0.555555555555555469    0.722222176861305853 Ti
   0.250000000000000000    0.888888888888889062    0.388888843527972539 Ti
   0.000000000000000000    0.222222222222222265    0.555555510194639113 Ti
   0.500000000000000000    0.111111111111111133    0.111111156472027503 Ti
   0.749999999999999889    0.555555555555555469    0.388888843527972539 Ti
   0.749999999999999889    0.777777777777777901    0.944444353722612040 Ti
   0.749999999999999889    0.666666666666666741    0.499999999999999944 Ti
   0.250000000000000000    0.333333333333333426    0.833333333333333370 Ti
   0.000000000000000000    0.000000000000000000    0.333333333333333370 Ti
   0.500000000000000000    0.555555555555555469    0.222222176861305826 Ti
   0.749999999999999889    0.333333333333333426    0.499999999999999944 Ti
   0.500000000000000000    0.444444444444444531    0.777777823138694147 Ti
   0.000000000000000000    0.333333333333333426    0.333333333333333370 Ti
   0.250000000000000000    0.333333333333333426    0.166666666666666768 Ti
   0.000000000000000000    0.555555555555555469    0.555555510194639113 Ti
   0.749999999999999889    0.444444444444444531    0.277777687055945077 Ti
   0.000000000000000000    0.777777777777777901    0.444444489805360776 Nb
   0.000000000000000000    0.222222222222222265    0.888888843527972483 Nb
   0.500000000000000000    0.444444444444444531    0.111111156472027503 Nb
   0.250000000000000000    0.000000000000000000    0.499999999999999944 Nb
   0.500000000000000000    0.222222222222222265    0.555555510194639113 Nb
   0.250000000000000000    0.222222222222222265    0.722222176861305853 Nb
   0.749999999999999889    0.000000000000000000    0.499999999999999944 Nb
   0.000000000000000000    0.000000000000000000    0.000000000000000000 Nb
   0.749999999999999889    0.666666666666666741    0.833333333333333370 Nb
   0.749999999999999889    0.222222222222222265    0.722222176861305853 Nb
   0.250000000000000000    0.666666666666666741    0.499999999999999944 Nb
   0.250000000000000000    0.777777777777777901    0.944444353722612040 Nb
   0.250000000000000000    0.333333333333333426    0.499999999999999944 Nb
   0.000000000000000000    0.333333333333333426    0.000000000000000000 Nb
   0.000000000000000000    0.777777777777777901    0.111111156472027503 Nb
   0.749999999999999889    0.888888888888889062    0.055555510194639203 Nb
   0.500000000000000000    0.000000000000000000    0.333333333333333370 Nb
   0.500000000000000000    0.444444444444444531    0.444444489805360776 Nb
   0.749999999999999889    0.333333333333333426    0.833333333333333370 Nb
   0.749999999999999889    0.000000000000000000    0.833333333333333370 Nb
   0.000000000000000000    0.555555555555555469    0.222222176861305826 Nb
   0.000000000000000000    0.000000000000000000    0.666666666666666741 Nb
   0.749999999999999889    0.555555555555555469    0.055555510194639203 Nb
   0.500000000000000000    0.888888888888889062    0.222222176861305826 Nb
   0.749999999999999889    0.333333333333333426    0.166666666666666768 Nb
   0.500000000000000000    0.888888888888889062    0.555555510194639113 Nb
   0.250000000000000000    0.888888888888889062    0.055555510194639203 Nb
   0.000000000000000000    0.111111111111111133    0.444444489805360776 Nb
   0.250000000000000000    0.000000000000000000    0.166666666666666768 Nb
   0.250000000000000000    0.444444444444444531    0.611111020389278448 Nb
   0.250000000000000000    0.111111111111111133    0.611111020389278448 Nb
   0.749999999999999889    0.444444444444444531    0.944444353722612040 Nb
   0.250000000000000000    0.555555555555555469    0.055555510194639203 W
   0.250000000000000000    0.111111111111111133    0.944444353722612040 W
   0.250000000000000000    0.666666666666666741    0.166666666666666768 W
   0.250000000000000000    0.111111111111111133    0.277777687055945077 W
   0.000000000000000000    0.777777777777777901    0.777777823138694147 W
   0.250000000000000000    0.222222222222222265    0.388888843527972539 W
   0.000000000000000000    0.111111111111111133    0.777777823138694147 W
   0.250000000000000000    0.444444444444444531    0.944444353722612040 W
   0.749999999999999889    0.666666666666666741    0.166666666666666768 W
   0.500000000000000000    0.000000000000000000    0.666666666666666741 W
