unknown system                          
           1
     9.121700    0.000000    0.000000
     0.000000    8.378810    0.000000
     0.000000    0.000000   23.698866
   Ta   Ti   Nb   W 
  32  34  32  10
Direct configuration=     1
   0.50000000  0.22222222  0.22222218
   0.00000000  0.22222222  0.22222218
   0.25000000  0.22222222  0.05555551
   0.50000000  0.77777778  0.11111116
   0.00000000  0.44444444  0.11111116
   0.00000000  0.44444444  0.44444449
   0.25000000  0.77777778  0.61111102
   0.00000000  0.66666667  0.00000000
   0.75000000  0.55555556  0.72222218
   0.50000000  0.66666667  0.33333333
   0.25000000  0.88888889  0.72222218
   0.00000000  0.44444444  0.77777782
   0.00000000  0.33333333  0.66666667
   0.25000000  0.66666667  0.83333333
   0.75000000  0.11111111  0.61111102
   0.00000000  0.66666667  0.66666667
   0.25000000  0.77777778  0.27777769
   0.50000000  0.66666667  0.66666667
   0.50000000  0.77777778  0.77777782
   0.50000000  0.00000000  0.00000000
   0.50000000  0.11111111  0.77777782
   0.50000000  0.33333333  0.33333333
   0.00000000  0.88888889  0.22222218
   0.25000000  0.55555556  0.38888884
   0.50000000  0.66666667  0.00000000
   0.75000000  0.44444444  0.61111102
   0.75000000  0.77777778  0.61111102
   0.00000000  0.11111111  0.11111116
   0.25000000  0.00000000  0.83333333
   0.50000000  0.55555556  0.88888884
   0.00000000  0.88888889  0.88888884
   0.25000000  0.44444444  0.27777769
   0.50000000  0.55555556  0.55555551
   0.00000000  0.88888889  0.55555551
   0.50000000  0.33333333  0.66666667
   0.75000000  0.22222222  0.05555551
   0.50000000  0.11111111  0.44444449
   0.75000000  0.77777778  0.27777769
   0.75000000  0.11111111  0.27777769
   0.75000000  0.00000000  0.16666667
   0.00000000  0.55555556  0.88888884
   0.75000000  0.88888889  0.38888884
   0.50000000  0.88888889  0.88888884
   0.50000000  0.33333333  0.00000000
   0.50000000  0.22222222  0.88888884
   0.00000000  0.66666667  0.33333333
   0.75000000  0.22222222  0.38888884
   0.50000000  0.77777778  0.44444449
   0.75000000  0.11111111  0.94444435
   0.75000000  0.88888889  0.72222218
   0.25000000  0.55555556  0.72222218
   0.25000000  0.88888889  0.38888884
   0.00000000  0.22222222  0.55555551
   0.50000000  0.11111111  0.11111116
   0.75000000  0.55555556  0.38888884
   0.75000000  0.77777778  0.94444435
   0.75000000  0.66666667  0.50000000
   0.25000000  0.33333333  0.83333333
   0.00000000  0.00000000  0.33333333
   0.50000000  0.55555556  0.22222218
   0.75000000  0.33333333  0.50000000
   0.50000000  0.44444444  0.77777782
   0.00000000  0.33333333  0.33333333
   0.25000000  0.33333333  0.16666667
   0.00000000  0.55555556  0.55555551
   0.75000000  0.44444444  0.27777769
   0.00000000  0.77777778  0.44444449
   0.00000000  0.22222222  0.88888884
   0.50000000  0.44444444  0.11111116
   0.25000000  0.00000000  0.50000000
   0.50000000  0.22222222  0.55555551
   0.25000000  0.22222222  0.72222218
   0.75000000  0.00000000  0.50000000
   0.00000000  0.00000000  0.00000000
   0.75000000  0.66666667  0.83333333
   0.75000000  0.22222222  0.72222218
   0.25000000  0.66666667  0.50000000
   0.25000000  0.77777778  0.94444435
   0.25000000  0.33333333  0.50000000
   0.00000000  0.33333333  0.00000000
   0.00000000  0.77777778  0.11111116
   0.75000000  0.88888889  0.05555551
   0.50000000  0.00000000  0.33333333
   0.50000000  0.44444444  0.44444449
   0.75000000  0.33333333  0.83333333
   0.75000000  0.00000000  0.83333333
   0.00000000  0.55555556  0.22222218
   0.00000000  0.00000000  0.66666667
   0.75000000  0.55555556  0.05555551
   0.50000000  0.88888889  0.22222218
   0.75000000  0.33333333  0.16666667
   0.50000000  0.88888889  0.55555551
   0.25000000  0.88888889  0.05555551
   0.00000000  0.11111111  0.44444449
   0.25000000  0.00000000  0.16666667
   0.25000000  0.44444444  0.61111102
   0.25000000  0.11111111  0.61111102
   0.75000000  0.44444444  0.94444435
   0.25000000  0.55555556  0.05555551
   0.25000000  0.11111111  0.94444435
   0.25000000  0.66666667  0.16666667
   0.25000000  0.11111111  0.27777769
   0.00000000  0.77777778  0.77777782
   0.25000000  0.22222222  0.38888884
   0.00000000  0.11111111  0.77777782
   0.25000000  0.44444444  0.94444435
   0.75000000  0.66666667  0.16666667
   0.50000000  0.00000000  0.66666667
Direct configuration=     2
   0.49945717  0.22227243  0.22218441
   0.00070118  0.22205451  0.22229695
   0.24956005  0.22198081  0.05522187
   0.49996588  0.77759055  0.11062505
   0.00004795  0.44468439  0.11075956
   0.00148144  0.44486166  0.44418704
   0.25047156  0.77742870  0.61086857
   0.00060889  0.66659512  0.00005642
   0.75069806  0.55537664  0.72233708
   0.49987171  0.66677549  0.33324883
   0.24977592  0.88860132  0.72198204
  -0.00015388  0.44512892  0.77767724
   0.00057451  0.33375202  0.66657068
   0.24951062  0.66690778  0.83335990
   0.74976410  0.11102736  0.61131276
   0.00123244  0.66637673  0.66675892
   0.24981463  0.77788080  0.27787219
   0.49921610  0.66707320  0.66632592
   0.50039648  0.77801080  0.77799603
   0.49961187 -0.00118985  0.00020925
   0.50018019  0.11107501  0.77771020
   0.49998553  0.33307265  0.33350028
   0.00032032  0.88895854  0.22227583
   0.24911680  0.55574890  0.38924640
   0.49958214  0.66698097  0.00009621
   0.75027631  0.44531190  0.61084672
   0.75044206  0.77753263  0.61099059
   0.00020895  0.11107666  0.11064209
   0.24978244 -0.00029332  0.83327210
   0.50091830  0.55580766  0.88965471
  -0.00022562  0.89001285  0.88940521
   0.24996115  0.44405207  0.27777865
   0.49932172  0.55579543  0.55584123
   0.00061817  0.88896585  0.55566980
   0.50002708  0.33285617  0.66664702
   0.75033506  0.22197818  0.05540640
   0.50010698  0.11132238  0.44429934
   0.75008532  0.77771801  0.27785503
   0.75012042  0.11104979  0.27791346
   0.74989649 -0.00012922  0.16652009
  -0.00005119  0.55582707  0.88870233
   0.74858472  0.88985542  0.38904184
   0.50007465  0.88819263  0.88960418
   0.49984622  0.33398801 -0.00001194
   0.50027798  0.22232851  0.88896662
   0.00042892  0.66696825  0.33348658
   0.74923593  0.22194247  0.38920399
   0.49905075  0.77891992  0.44450071
   0.75047247  0.11115583  0.94441807
   0.75029444  0.88945360  0.72222256
   0.24955179  0.55547222  0.72187034
   0.24927061  0.88921082  0.38946399
   0.00048412  0.22221846  0.55582723
   0.49985817  0.11085338  0.11073992
   0.74950566  0.55541758  0.38901338
   0.74989740  0.77778519  0.94423989
   0.75022894  0.66691646  0.49986806
   0.24989517  0.33323698  0.83335507
   0.00073197 -0.00024031  0.33332414
   0.50055529  0.55542708  0.22192072
   0.74981024  0.33309458  0.49997382
   0.50030633  0.44425820  0.77789458
   0.00030115  0.33320097  0.33332978
   0.25006595  0.33336972  0.16666462
   0.00045932  0.55549436  0.55569946
   0.74995897  0.44461966  0.27782790
   0.00340421  0.77805406  0.44433795
  -0.00079555  0.21998696  0.88890214
   0.49981687  0.44503749  0.11084458
   0.25293316 -0.00167560  0.49917682
   0.49758329  0.22084767  0.55567656
   0.25146827  0.22226731  0.72285639
   0.74988949 -0.00017272  0.49996503
  -0.00001993  0.00010918 -0.00017468
   0.75036008  0.66693378  0.83372545
   0.75136949  0.22074985  0.72294655
   0.25013305  0.66791043  0.49987756
   0.25045806  0.77713746  0.94425391
   0.24927900  0.33196863  0.49945148
   0.00092896  0.33329642 -0.00002594
  -0.00007023  0.77750540  0.11139155
   0.74872147  0.88993154  0.05574670
   0.50059382 -0.00002356  0.33372472
   0.50088101  0.44620564  0.44396288
   0.74958925  0.33292517  0.83316606
   0.75005035 -0.00275190  0.83346019
   0.00031881  0.55557723  0.22201885
  -0.00131614 -0.00095016  0.66706894
   0.74986852  0.55577792  0.05552698
   0.49967079  0.88857318  0.22224873
   0.74988295  0.33365027  0.16653114
   0.49572253  0.89001527  0.55527380
   0.25110623  0.88903065  0.05529159
   0.00126089  0.11082081  0.44427962
   0.25001601 -0.00000921  0.16667484
   0.24836089  0.44751174  0.61063571
   0.25076309  0.11071119  0.61046120
   0.74754952  0.44482553  0.94452076
   0.25005873  0.55560233  0.05535490
   0.24941840  0.11098159  0.94481214
   0.25027455  0.66664661  0.16667689
   0.24944113  0.11201480  0.27779284
  -0.00003706  0.77693734  0.77782331
   0.24935849  0.22138662  0.38956482
  -0.00046025  0.11137892  0.77769073
   0.24980698  0.44471200  0.94484922
   0.74994366  0.66650248  0.16652675
   0.49965470  0.00101009  0.66653799
Direct configuration=     3
   0.49945564  0.22227257  0.22218431
   0.00070316  0.22205404  0.22229717
   0.24955881  0.22198013  0.05522093
   0.49996579  0.77759002  0.11062368
   0.00004809  0.44468507  0.11075857
   0.00148562  0.44486284  0.44418632
   0.25047289  0.77742772  0.61086788
   0.00061061  0.66659492  0.00005657
   0.75070003  0.55537614  0.72233741
   0.49987134  0.66677580  0.33324859
   0.24977529  0.88860051  0.72198136
  -0.00015431  0.44513085  0.77767696
   0.00057613  0.33375320  0.66657041
   0.24950924  0.66690846  0.83335998
   0.74976343  0.11102713  0.61131333
   0.00123592  0.66637592  0.66675918
   0.24981411  0.77788110  0.27787245
   0.49921389  0.66707435  0.66632496
   0.50039759  0.77801145  0.77799664
   0.49961078 -0.00119321  0.00020984
   0.50018070  0.11107491  0.77771001
   0.49998549  0.33307191  0.33350076
   0.00032123  0.88895873  0.22227598
   0.24911431  0.55574945  0.38924741
   0.49958096  0.66698186  0.00009648
   0.75027709  0.44531435  0.61084598
   0.75044331  0.77753194  0.61099025
   0.00020954  0.11107657  0.11064077
   0.24978183 -0.00029415  0.83327193
   0.50092089  0.55580837  0.88965687
  -0.00022626  0.89001602  0.88940666
   0.24996104  0.44405096  0.27777865
   0.49931981  0.55579611  0.55584204
   0.00061991  0.88896607  0.55567013
   0.50002716  0.33285483  0.66664697
   0.75033600  0.22197749  0.05540598
   0.50010728  0.11132298  0.44429893
   0.75008556  0.77771784  0.27785525
   0.75012076  0.11104961  0.27791385
   0.74989619 -0.00012958  0.16651968
  -0.00005133  0.55582784  0.88870180
   0.74858072  0.88985814  0.38904227
   0.50007486  0.88819066  0.88960620
   0.49984579  0.33398985 -0.00001198
   0.50027877  0.22232881  0.88896684
   0.00043013  0.66696910  0.33348702
   0.74923378  0.22194168  0.38920488
   0.49904807  0.77892314  0.44450087
   0.75047380  0.11115595  0.94441800
   0.75029527  0.88945520  0.72222256
   0.24955053  0.55547199  0.72186935
   0.24926855  0.88921173  0.38946561
   0.00048548  0.22221845  0.55582800
   0.49985777  0.11085265  0.11073887
   0.74950427  0.55541720  0.38901373
   0.74989711  0.77778521  0.94423931
   0.75022959  0.66691717  0.49986769
   0.24989487  0.33323670  0.83335513
   0.00073403 -0.00024099  0.33332411
   0.50055685  0.55542672  0.22191987
   0.74980970  0.33309391  0.49997375
   0.50030719  0.44425768  0.77789491
   0.00030200  0.33320059  0.33332977
   0.25006614  0.33336982  0.16666461
   0.00046061  0.55549418  0.55569987
   0.74995885  0.44462016  0.27782804
   0.00341381  0.77805484  0.44433765
  -0.00079779  0.21998065  0.88890217
   0.49981635  0.44503917  0.11084383
   0.25294143 -0.00168033  0.49917450
   0.49757647  0.22084379  0.55567690
   0.25147241  0.22226744  0.72285818
   0.74988917 -0.00017321  0.49996493
  -0.00001999  0.00010949 -0.00017517
   0.75036110  0.66693453  0.83372656
   0.75137335  0.22074570  0.72294859
   0.25013343  0.66791394  0.49987722
   0.25045936  0.77713566  0.94425337
   0.24927697  0.33196478  0.49944993
   0.00093159  0.33329631 -0.00002601
  -0.00007043  0.77750463  0.11139234
   0.74871787  0.88993448  0.05574724
   0.50059550 -0.00002362  0.33372582
   0.50088350  0.44621061  0.44396153
   0.74958809  0.33292402  0.83316558
   0.75005049 -0.00275967  0.83346055
   0.00031971  0.55557730  0.22201827
  -0.00131985 -0.00095285  0.66707008
   0.74986815  0.55577855  0.05552690
   0.49966987  0.88857229  0.22224880
   0.74988262  0.33365117  0.16653075
   0.49571046  0.89001845  0.55527301
   0.25110935  0.88903105  0.05529085
   0.00126444  0.11081999  0.44427915
   0.25001605 -0.00000923  0.16667486
   0.24835626  0.44752040  0.61063437
   0.25076524  0.11071006  0.61045937
   0.74754261  0.44482660  0.94452098
   0.25005890  0.55560246  0.05535433
   0.24941676  0.11098123  0.94481318
   0.25027532  0.66664656  0.16667692
   0.24943955  0.11201735  0.27779288
  -0.00003716  0.77693497  0.77782343
   0.24935668  0.22138427  0.38956673
  -0.00046155  0.11137968  0.77769048
   0.24980643  0.44471275  0.94485036
   0.74994350  0.66650202  0.16652635
   0.49965372  0.00101294  0.66653763
Direct configuration=     4
   0.49945662  0.22227248  0.22218437
   0.00070190  0.22205434  0.22229703
   0.24955961  0.22198056  0.05522153
   0.49996585  0.77759035  0.11062455
   0.00004800  0.44468464  0.11075921
   0.00148294  0.44486209  0.44418678
   0.25047204  0.77742835  0.61086832
   0.00060951  0.66659505  0.00005647
   0.75069877  0.55537646  0.72233720
   0.49987158  0.66677560  0.33324874
   0.24977569  0.88860103  0.72198180
  -0.00015403  0.44512961  0.77767714
   0.00057509  0.33375245  0.66657058
   0.24951013  0.66690803  0.83335993
   0.74976386  0.11102728  0.61131296
   0.00123370  0.66637644  0.66675901
   0.24981445  0.77788091  0.27787228
   0.49921531  0.66707362  0.66632557
   0.50039688  0.77801103  0.77799625
   0.49961148 -0.00119106  0.00020946
   0.50018037  0.11107497  0.77771014
   0.49998552  0.33307238  0.33350045
   0.00032065  0.88895861  0.22227589
   0.24911590  0.55574910  0.38924676
   0.49958171  0.66698129  0.00009631
   0.75027659  0.44531278  0.61084645
   0.75044251  0.77753238  0.61099046
   0.00020917  0.11107663  0.11064162
   0.24978222 -0.00029362  0.83327204
   0.50091924  0.55580792  0.88965549
  -0.00022585  0.89001399  0.88940573
   0.24996111  0.44405167  0.27777865
   0.49932103  0.55579568  0.55584152
   0.00061880  0.88896593  0.55566992
   0.50002711  0.33285569  0.66664700
   0.75033540  0.22197793  0.05540625
   0.50010709  0.11132260  0.44429920
   0.75008541  0.77771795  0.27785511
   0.75012055  0.11104973  0.27791360
   0.74989638 -0.00012935  0.16651994
  -0.00005124  0.55582735  0.88870214
   0.74858328  0.88985640  0.38904200
   0.50007473  0.88819192  0.88960491
   0.49984607  0.33398867 -0.00001196
   0.50027827  0.22232862  0.88896669
   0.00042936  0.66696856  0.33348674
   0.74923515  0.22194219  0.38920431
   0.49904978  0.77892108  0.44450076
   0.75047295  0.11115587  0.94441805
   0.75029474  0.88945418  0.72222256
   0.24955134  0.55547214  0.72186999
   0.24926987  0.88921115  0.38946457
   0.00048461  0.22221846  0.55582751
   0.49985803  0.11085312  0.11073954
   0.74950516  0.55541744  0.38901350
   0.74989730  0.77778519  0.94423968
   0.75022918  0.66691672  0.49986792
   0.24989506  0.33323688  0.83335509
   0.00073271 -0.00024056  0.33332413
   0.50055585  0.55542695  0.22192041
   0.74981005  0.33309434  0.49997379
   0.50030664  0.44425801  0.77789470
   0.00030146  0.33320083  0.33332977
   0.25006602  0.33336975  0.16666461
   0.00045978  0.55549429  0.55569961
   0.74995892  0.44461984  0.27782795
   0.00340767  0.77805434  0.44433784
  -0.00079636  0.21998469  0.88890215
   0.49981668  0.44503810  0.11084431
   0.25293614 -0.00167731  0.49917599
   0.49758083  0.22084627  0.55567668
   0.25146976  0.22226736  0.72285704
   0.74988937 -0.00017290  0.49996499
  -0.00001995  0.00010929 -0.00017486
   0.75036045  0.66693405  0.83372585
   0.75137088  0.22074835  0.72294728
   0.25013319  0.66791170  0.49987744
   0.25045853  0.77713681  0.94425371
   0.24927827  0.33196724  0.49945092
   0.00092991  0.33329638 -0.00002596
  -0.00007031  0.77750512  0.11139184
   0.74872017  0.88993260  0.05574690
   0.50059442 -0.00002358  0.33372511
   0.50088191  0.44620743  0.44396239
   0.74958883  0.33292476  0.83316589
   0.75005040 -0.00275470  0.83346032
   0.00031913  0.55557726  0.22201864
  -0.00131748 -0.00095113  0.66706935
   0.74986839  0.55577815  0.05552695
   0.49967046  0.88857286  0.22224875
   0.74988283  0.33365059  0.16653100
   0.49571818  0.89001641  0.55527351
   0.25110735  0.88903079  0.05529132
   0.00126217  0.11082052  0.44427945
   0.25001602 -0.00000922  0.16667485
   0.24835922  0.44751486  0.61063522
   0.25076386  0.11071078  0.61046054
   0.74754703  0.44482592  0.94452084
   0.25005879  0.55560238  0.05535469
   0.24941781  0.11098146  0.94481252
   0.25027483  0.66664659  0.16667690
   0.24944056  0.11201572  0.27779285
  -0.00003710  0.77693648  0.77782335
   0.24935784  0.22138577  0.38956551
  -0.00046072  0.11137919  0.77769064
   0.24980678  0.44471227  0.94484963
   0.74994360  0.66650231  0.16652660
   0.49965435  0.00101111  0.66653786
Direct configuration=     5
   0.49945697  0.22227245  0.22218440
   0.00070144  0.22205445  0.22229698
   0.24955990  0.22198072  0.05522175
   0.49996587  0.77759048  0.11062487
   0.00004797  0.44468448  0.11075944
   0.00148197  0.44486181  0.44418695
   0.25047173  0.77742858  0.61086848
   0.00060911  0.66659510  0.00005644
   0.75069831  0.55537658  0.72233712
   0.49987166  0.66677553  0.33324880
   0.24977584  0.88860122  0.72198195
  -0.00015393  0.44512916  0.77767721
   0.00057472  0.33375218  0.66657065
   0.24951045  0.66690787  0.83335991
   0.74976401  0.11102733  0.61131283
   0.00123289  0.66637663  0.66675895
   0.24981457  0.77788084  0.27787222
   0.49921582  0.66707335  0.66632579
   0.50039662  0.77801088  0.77799610
   0.49961173 -0.00119029  0.00020933
   0.50018026  0.11107500  0.77771018
   0.49998553  0.33307255  0.33350035
   0.00032044  0.88895856  0.22227585
   0.24911648  0.55574897  0.38924653
   0.49958199  0.66698108  0.00009624
   0.75027641  0.44531221  0.61084663
   0.75044222  0.77753254  0.61099054
   0.00020903  0.11107665  0.11064192
   0.24978237 -0.00029342  0.83327208
   0.50091864  0.55580775  0.88965498
  -0.00022571  0.89001325  0.88940539
   0.24996114  0.44405192  0.27777865
   0.49932148  0.55579552  0.55584134
   0.00061839  0.88896588  0.55566985
   0.50002709  0.33285600  0.66664701
   0.75033518  0.22197809  0.05540635
   0.50010702  0.11132246  0.44429929
   0.75008535  0.77771799  0.27785506
   0.75012047  0.11104977  0.27791351
   0.74989645 -0.00012926  0.16652004
  -0.00005121  0.55582717  0.88870226
   0.74858420  0.88985577  0.38904190
   0.50007468  0.88819237  0.88960444
   0.49984617  0.33398824 -0.00001195
   0.50027808  0.22232855  0.88896664
   0.00042908  0.66696836  0.33348664
   0.74923565  0.22194237  0.38920410
   0.49905040  0.77892033  0.44450073
   0.75047264  0.11115584  0.94441806
   0.75029454  0.88945381  0.72222256
   0.24955163  0.55547219  0.72187022
   0.24927035  0.88921094  0.38946420
   0.00048429  0.22221846  0.55582733
   0.49985812  0.11085329  0.11073979
   0.74950548  0.55541753  0.38901342
   0.74989737  0.77778519  0.94423982
   0.75022903  0.66691655  0.49986801
   0.24989513  0.33323694  0.83335508
   0.00073223 -0.00024040  0.33332414
   0.50055549  0.55542703  0.22192061
   0.74981017  0.33309449  0.49997381
   0.50030644  0.44425813  0.77789462
   0.00030126  0.33320092  0.33332978
   0.25006598  0.33336973  0.16666461
   0.00045948  0.55549433  0.55569951
   0.74995895  0.44461972  0.27782792
   0.00340544  0.77805416  0.44433791
  -0.00079584  0.21998615  0.88890214
   0.49981680  0.44503771  0.11084448
   0.25293422 -0.00167621  0.49917653
   0.49758241  0.22084717  0.55567660
   0.25146880  0.22226733  0.72285662
   0.74988945 -0.00017278  0.49996501
  -0.00001994  0.00010922 -0.00017474
   0.75036021  0.66693388  0.83372560
   0.75136998  0.22074932  0.72294681
   0.25013310  0.66791088  0.49987752
   0.25045823  0.77713723  0.94425384
   0.24927874  0.33196814  0.49945128
   0.00092930  0.33329640 -0.00002595
  -0.00007026  0.77750530  0.11139165
   0.74872101  0.88993192  0.05574677
   0.50059404 -0.00002357  0.33372486
   0.50088133  0.44620628  0.44396271
   0.74958910  0.33292502  0.83316599
   0.75005037 -0.00275290  0.83346024
   0.00031893  0.55557724  0.22201877
  -0.00131662 -0.00095051  0.66706909
   0.74986848  0.55577800  0.05552697
   0.49967067  0.88857307  0.22224874
   0.74988291  0.33365039  0.16653109
   0.49572098  0.89001568  0.55527370
   0.25110663  0.88903070  0.05529150
   0.00126134  0.11082071  0.44427956
   0.25001601 -0.00000921  0.16667484
   0.24836029  0.44751286  0.61063554
   0.25076336  0.11071104  0.61046096
   0.74754863  0.44482567  0.94452079
   0.25005875  0.55560235  0.05535482
   0.24941819  0.11098155  0.94481228
   0.25027465  0.66664661  0.16667689
   0.24944092  0.11201513  0.27779284
  -0.00003707  0.77693703  0.77782332
   0.24935826  0.22138632  0.38956507
  -0.00046042  0.11137902  0.77769069
   0.24980691  0.44471210  0.94484937
   0.74994364  0.66650242  0.16652669
   0.49965457  0.00101045  0.66653794
Direct configuration=     6
   0.49945710  0.22227243  0.22218441
   0.00070127  0.22205449  0.22229696
   0.24956000  0.22198078  0.05522182
   0.49996588  0.77759052  0.11062499
   0.00004796  0.44468443  0.11075952
   0.00148163  0.44486172  0.44418701
   0.25047162  0.77742866  0.61086854
   0.00060897  0.66659511  0.00005642
   0.75069815  0.55537662  0.72233710
   0.49987169  0.66677551  0.33324882
   0.24977589  0.88860128  0.72198201
  -0.00015390  0.44512900  0.77767723
   0.00057458  0.33375208  0.66657067
   0.24951056  0.66690781  0.83335991
   0.74976407  0.11102735  0.61131279
   0.00123260  0.66637670  0.66675893
   0.24981461  0.77788082  0.27787220
   0.49921600  0.66707326  0.66632587
   0.50039653  0.77801083  0.77799605
   0.49961182 -0.00119001  0.00020928
   0.50018021  0.11107501  0.77771020
   0.49998553  0.33307261  0.33350031
   0.00032036  0.88895854  0.22227584
   0.24911668  0.55574892  0.38924644
   0.49958208  0.66698101  0.00009622
   0.75027635  0.44531201  0.61084669
   0.75044212  0.77753260  0.61099057
   0.00020898  0.11107666  0.11064203
   0.24978242 -0.00029336  0.83327209
   0.50091842  0.55580769  0.88965481
  -0.00022565  0.89001299  0.88940527
   0.24996115  0.44405202  0.27777865
   0.49932164  0.55579546  0.55584127
   0.00061825  0.88896586  0.55566982
   0.50002708  0.33285611  0.66664702
   0.75033510  0.22197815  0.05540638
   0.50010699  0.11132241  0.44429933
   0.75008533  0.77771800  0.27785504
   0.75012044  0.11104978  0.27791348
   0.74989647 -0.00012923  0.16652007
  -0.00005120  0.55582711  0.88870230
   0.74858453  0.88985554  0.38904186
   0.50007466  0.88819254  0.88960427
   0.49984620  0.33398809 -0.00001195
   0.50027802  0.22232852  0.88896663
   0.00042898  0.66696829  0.33348660
   0.74923583  0.22194244  0.38920403
   0.49905063  0.77892007  0.44450071
   0.75047253  0.11115583  0.94441807
   0.75029448  0.88945368  0.72222256
   0.24955174  0.55547221  0.72187030
   0.24927052  0.88921087  0.38946406
   0.00048418  0.22221846  0.55582727
   0.49985816  0.11085335  0.11073987
   0.74950560  0.55541757  0.38901339
   0.74989739  0.77778519  0.94423986
   0.75022897  0.66691649  0.49986804
   0.24989515  0.33323696  0.83335507
   0.00073206 -0.00024034  0.33332414
   0.50055536  0.55542706  0.22192068
   0.74981022  0.33309455  0.49997382
   0.50030637  0.44425818  0.77789460
   0.00030119  0.33320095  0.33332978
   0.25006596  0.33336972  0.16666462
   0.00045938  0.55549435  0.55569948
   0.74995896  0.44461968  0.27782791
   0.00340465  0.77805410  0.44433794
  -0.00079565  0.21998667  0.88890214
   0.49981684  0.44503757  0.11084455
   0.25293354 -0.00167582  0.49917672
   0.49758297  0.22084749  0.55567657
   0.25146846  0.22226732  0.72285647
   0.74988947 -0.00017274  0.49996502
  -0.00001993  0.00010919 -0.00017470
   0.75036013  0.66693381  0.83372551
   0.75136966  0.22074966  0.72294664
   0.25013307  0.66791059  0.49987755
   0.25045812  0.77713738  0.94425388
   0.24927891  0.33196846  0.49945141
   0.00092908  0.33329641 -0.00002594
  -0.00007024  0.77750536  0.11139159
   0.74872131  0.88993168  0.05574673
   0.50059390 -0.00002356  0.33372477
   0.50088112  0.44620587  0.44396282
   0.74958920  0.33292512  0.83316603
   0.75005036 -0.00275226  0.83346021
   0.00031885  0.55557724  0.22201882
  -0.00131631 -0.00095029  0.66706899
   0.74986851  0.55577795  0.05552698
   0.49967075  0.88857314  0.22224873
   0.74988293  0.33365031  0.16653112
   0.49572198  0.89001542  0.55527376
   0.25110637  0.88903067  0.05529156
   0.00126105  0.11082077  0.44427960
   0.25001601 -0.00000921  0.16667484
   0.24836068  0.44751214  0.61063565
   0.25076318  0.11071114  0.61046111
   0.74754920  0.44482558  0.94452077
   0.25005874  0.55560234  0.05535487
   0.24941833  0.11098158  0.94481219
   0.25027459  0.66664661  0.16667689
   0.24944105  0.11201492  0.27779284
  -0.00003706  0.77693723  0.77782331
   0.24935841  0.22138652  0.38956491
  -0.00046031  0.11137896  0.77769072
   0.24980695  0.44471203  0.94484927
   0.74994365  0.66650246  0.16652673
   0.49965465  0.00101022  0.66653797
Direct configuration=     7
   0.49945714  0.22227243  0.22218441
   0.00070122  0.22205450  0.22229696
   0.24956003  0.22198080  0.05522185
   0.49996588  0.77759054  0.11062503
   0.00004796  0.44468441  0.11075955
   0.00148150  0.44486168  0.44418703
   0.25047158  0.77742869  0.61086856
   0.00060892  0.66659512  0.00005642
   0.75069809  0.55537663  0.72233709
   0.49987170  0.66677550  0.33324883
   0.24977591  0.88860131  0.72198203
  -0.00015388  0.44512895  0.77767724
   0.00057454  0.33375204  0.66657068
   0.24951060  0.66690779  0.83335991
   0.74976409  0.11102736  0.61131277
   0.00123250  0.66637672  0.66675892
   0.24981463  0.77788081  0.27787219
   0.49921607  0.66707322  0.66632590
   0.50039649  0.77801081  0.77799604
   0.49961185 -0.00118991  0.00020926
   0.50018020  0.11107501  0.77771020
   0.49998553  0.33307263  0.33350029
   0.00032034  0.88895854  0.22227584
   0.24911676  0.55574891  0.38924641
   0.49958212  0.66698098  0.00009621
   0.75027632  0.44531194  0.61084671
   0.75044208  0.77753262  0.61099058
   0.00020896  0.11107666  0.11064207
   0.24978243 -0.00029333  0.83327210
   0.50091835  0.55580767  0.88965474
  -0.00022564  0.89001290  0.88940523
   0.24996115  0.44405205  0.27777865
   0.49932169  0.55579544  0.55584125
   0.00061819  0.88896585  0.55566981
   0.50002708  0.33285615  0.66664702
   0.75033507  0.22197817  0.05540640
   0.50010698  0.11132239  0.44429934
   0.75008533  0.77771801  0.27785504
   0.75012043  0.11104978  0.27791347
   0.74989648 -0.00012922  0.16652008
  -0.00005119  0.55582709  0.88870232
   0.74858465  0.88985546  0.38904185
   0.50007465  0.88819259  0.88960421
   0.49984622  0.33398804 -0.00001195
   0.50027800  0.22232851  0.88896662
   0.00042894  0.66696827  0.33348659
   0.74923590  0.22194246  0.38920400
   0.49905071  0.77891997  0.44450071
   0.75047249  0.11115583  0.94441807
   0.75029445  0.88945363  0.72222256
   0.24955177  0.55547222  0.72187033
   0.24927058  0.88921084  0.38946401
   0.00048414  0.22221846  0.55582725
   0.49985817  0.11085337  0.11073991
   0.74950564  0.55541758  0.38901338
   0.74989740  0.77778519  0.94423988
   0.75022895  0.66691647  0.49986805
   0.24989516  0.33323697  0.83335507
   0.00073200 -0.00024032  0.33332414
   0.50055531  0.55542707  0.22192071
   0.74981023  0.33309457  0.49997382
   0.50030634  0.44425819  0.77789459
   0.00030117  0.33320096  0.33332978
   0.25006596  0.33336972  0.16666462
   0.00045934  0.55549435  0.55569947
   0.74995896  0.44461967  0.27782790
   0.00340437  0.77805407  0.44433795
  -0.00079559  0.21998686  0.88890214
   0.49981686  0.44503752  0.11084457
   0.25293329 -0.00167568  0.49917679
   0.49758318  0.22084760  0.55567656
   0.25146834  0.22226732  0.72285642
   0.74988948 -0.00017273  0.49996502
  -0.00001993  0.00010918 -0.00017469
   0.75036010  0.66693379  0.83372547
   0.75136955  0.22074978  0.72294658
   0.25013306  0.66791049  0.49987756
   0.25045808  0.77713743  0.94425390
   0.24927897  0.33196857  0.49945145
   0.00092901  0.33329642 -0.00002594
  -0.00007024  0.77750539  0.11139157
   0.74872141  0.88993159  0.05574671
   0.50059385 -0.00002356  0.33372473
   0.50088105  0.44620572  0.44396286
   0.74958923  0.33292515  0.83316605
   0.75005035 -0.00275203  0.83346020
   0.00031883  0.55557724  0.22201884
  -0.00131620 -0.00095021  0.66706896
   0.74986852  0.55577793  0.05552698
   0.49967078  0.88857317  0.22224873
   0.74988294  0.33365029  0.16653113
   0.49572233  0.89001532  0.55527379
   0.25110628  0.88903066  0.05529158
   0.00126095  0.11082080  0.44427961
   0.25001601 -0.00000921  0.16667484
   0.24836081  0.44751189  0.61063569
   0.25076312  0.11071117  0.61046117
   0.74754941  0.44482555  0.94452076
   0.25005873  0.55560233  0.05535489
   0.24941838  0.11098159  0.94481216
   0.25027456  0.66664661  0.16667689
   0.24944110  0.11201485  0.27779284
  -0.00003706  0.77693730  0.77782331
   0.24935846  0.22138659  0.38956485
  -0.00046027  0.11137893  0.77769072
   0.24980697  0.44471201  0.94484924
   0.74994365  0.66650247  0.16652674
   0.49965468  0.00101013  0.66653798
Direct configuration=     8
   0.49945716  0.22227243  0.22218441
   0.00070120  0.22205451  0.22229696
   0.24956005  0.22198080  0.05522186
   0.49996588  0.77759054  0.11062504
   0.00004796  0.44468440  0.11075956
   0.00148146  0.44486167  0.44418704
   0.25047156  0.77742870  0.61086856
   0.00060890  0.66659512  0.00005642
   0.75069807  0.55537664  0.72233708
   0.49987170  0.66677549  0.33324883
   0.24977591  0.88860132  0.72198204
  -0.00015388  0.44512893  0.77767724
   0.00057452  0.33375203  0.66657068
   0.24951062  0.66690779  0.83335990
   0.74976409  0.11102736  0.61131276
   0.00123246  0.66637673  0.66675892
   0.24981463  0.77788081  0.27787219
   0.49921609  0.66707321  0.66632591
   0.50039648  0.77801080  0.77799603
   0.49961186 -0.00118987  0.00020925
   0.50018019  0.11107501  0.77771020
   0.49998553  0.33307264  0.33350029
   0.00032033  0.88895854  0.22227583
   0.24911678  0.55574890  0.38924640
   0.49958213  0.66698097  0.00009621
   0.75027631  0.44531191  0.61084672
   0.75044207  0.77753262  0.61099058
   0.00020896  0.11107666  0.11064209
   0.24978244 -0.00029332  0.83327210
   0.50091832  0.55580767  0.88965472
  -0.00022563  0.89001287  0.88940521
   0.24996115  0.44405206  0.27777865
   0.49932171  0.55579544  0.55584124
   0.00061818  0.88896585  0.55566981
   0.50002708  0.33285616  0.66664702
   0.75033506  0.22197818  0.05540640
   0.50010698  0.11132238  0.44429934
   0.75008532  0.77771801  0.27785504
   0.75012043  0.11104979  0.27791347
   0.74989648 -0.00012922  0.16652009
  -0.00005119  0.55582708  0.88870232
   0.74858469  0.88985543  0.38904184
   0.50007465  0.88819261  0.88960419
   0.49984622  0.33398802 -0.00001195
   0.50027799  0.22232851  0.88896662
   0.00042893  0.66696826  0.33348659
   0.74923592  0.22194247  0.38920399
   0.49905073  0.77891994  0.44450071
   0.75047248  0.11115583  0.94441807
   0.75029444  0.88945361  0.72222256
   0.24955179  0.55547222  0.72187034
   0.24927060  0.88921083  0.38946400
   0.00048413  0.22221846  0.55582724
   0.49985817  0.11085338  0.11073992
   0.74950565  0.55541758  0.38901338
   0.74989740  0.77778519  0.94423989
   0.75022895  0.66691647  0.49986806
   0.24989516  0.33323697  0.83335507
   0.00073198 -0.00024032  0.33332414
   0.50055529  0.55542708  0.22192072
   0.74981024  0.33309458  0.49997382
   0.50030633  0.44425820  0.77789458
   0.00030116  0.33320096  0.33332978
   0.25006595  0.33336972  0.16666462
   0.00045932  0.55549435  0.55569946
   0.74995897  0.44461966  0.27782790
   0.00340426  0.77805407  0.44433795
  -0.00079556  0.21998692  0.88890214
   0.49981687  0.44503750  0.11084458
   0.25293321 -0.00167563  0.49917681
   0.49758325  0.22084764  0.55567656
   0.25146829  0.22226732  0.72285640
   0.74988948 -0.00017272  0.49996503
  -0.00001993  0.00010918 -0.00017468
   0.75036009  0.66693378  0.83372546
   0.75136951  0.22074983  0.72294656
   0.25013305  0.66791045  0.49987756
   0.25045807  0.77713745  0.94425390
   0.24927899  0.33196861  0.49945147
   0.00092898  0.33329642 -0.00002594
  -0.00007024  0.77750539  0.11139156
   0.74872145  0.88993156  0.05574670
   0.50059383 -0.00002356  0.33372472
   0.50088102  0.44620567  0.44396288
   0.74958924  0.33292517  0.83316605
   0.75005035 -0.00275195  0.83346019
   0.00031882  0.55557723  0.22201884
  -0.00131616 -0.00095018  0.66706895
   0.74986852  0.55577792  0.05552698
   0.49967079  0.88857318  0.22224873
   0.74988295  0.33365028  0.16653113
   0.49572246  0.89001529  0.55527380
   0.25110625  0.88903065  0.05529159
   0.00126091  0.11082081  0.44427962
   0.25001601 -0.00000921  0.16667484
   0.24836086  0.44751179  0.61063570
   0.25076310  0.11071118  0.61046119
   0.74754948  0.44482554  0.94452076
   0.25005873  0.55560233  0.05535489
   0.24941839  0.11098159  0.94481215
   0.25027455  0.66664661  0.16667689
   0.24944112  0.11201482  0.27779284
  -0.00003706  0.77693733  0.77782331
   0.24935848  0.22138661  0.38956483
  -0.00046026  0.11137893  0.77769073
   0.24980697  0.44471200  0.94484923
   0.74994366  0.66650248  0.16652674
   0.49965469  0.00101010  0.66653799
Direct configuration=     9
   0.49945716  0.22227243  0.22218441
   0.00070119  0.22205451  0.22229696
   0.24956005  0.22198081  0.05522187
   0.49996588  0.77759054  0.11062505
   0.00004795  0.44468440  0.11075956
   0.00148144  0.44486166  0.44418704
   0.25047156  0.77742870  0.61086857
   0.00060889  0.66659512  0.00005642
   0.75069806  0.55537664  0.72233708
   0.49987171  0.66677549  0.33324883
   0.24977592  0.88860132  0.72198204
  -0.00015388  0.44512892  0.77767724
   0.00057451  0.33375203  0.66657068
   0.24951062  0.66690778  0.83335990
   0.74976410  0.11102736  0.61131276
   0.00123245  0.66637673  0.66675892
   0.24981463  0.77788081  0.27787219
   0.49921610  0.66707321  0.66632592
   0.50039648  0.77801080  0.77799603
   0.49961187 -0.00118986  0.00020925
   0.50018019  0.11107501  0.77771020
   0.49998553  0.33307264  0.33350029
   0.00032032  0.88895854  0.22227583
   0.24911679  0.55574890  0.38924640
   0.49958214  0.66698097  0.00009621
   0.75027631  0.44531190  0.61084672
   0.75044207  0.77753263  0.61099059
   0.00020895  0.11107666  0.11064209
   0.24978244 -0.00029332  0.83327210
   0.50091831  0.55580766  0.88965471
  -0.00022563  0.89001285  0.88940521
   0.24996115  0.44405207  0.27777865
   0.49932172  0.55579543  0.55584124
   0.00061817  0.88896585  0.55566981
   0.50002708  0.33285617  0.66664702
   0.75033506  0.22197818  0.05540640
   0.50010698  0.11132238  0.44429934
   0.75008532  0.77771801  0.27785504
   0.75012042  0.11104979  0.27791346
   0.74989649 -0.00012922  0.16652009
  -0.00005119  0.55582707  0.88870232
   0.74858471  0.88985542  0.38904184
   0.50007465  0.88819262  0.88960419
   0.49984622  0.33398801 -0.00001195
   0.50027798  0.22232851  0.88896662
   0.00042893  0.66696825  0.33348659
   0.74923593  0.22194247  0.38920399
   0.49905074  0.77891992  0.44450071
   0.75047247  0.11115583  0.94441807
   0.75029444  0.88945361  0.72222256
   0.24955179  0.55547222  0.72187034
   0.24927061  0.88921083  0.38946399
   0.00048412  0.22221846  0.55582724
   0.49985817  0.11085338  0.11073992
   0.74950566  0.55541758  0.38901338
   0.74989740  0.77778519  0.94423989
   0.75022894  0.66691646  0.49986806
   0.24989516  0.33323698  0.83335507
   0.00073197 -0.00024031  0.33332414
   0.50055529  0.55542708  0.22192072
   0.74981024  0.33309458  0.49997382
   0.50030633  0.44425820  0.77789458
   0.00030116  0.33320096  0.33332978
   0.25006595  0.33336972  0.16666462
   0.00045932  0.55549435  0.55569946
   0.74995897  0.44461966  0.27782790
   0.00340423  0.77805406  0.44433795
  -0.00079555  0.21998695  0.88890214
   0.49981687  0.44503750  0.11084458
   0.25293318 -0.00167561  0.49917682
   0.49758327  0.22084766  0.55567656
   0.25146828  0.22226731  0.72285639
   0.74988948 -0.00017272  0.49996503
  -0.00001993  0.00010918 -0.00017468
   0.75036008  0.66693378  0.83372546
   0.75136949  0.22074984  0.72294655
   0.25013305  0.66791044  0.49987756
   0.25045807  0.77713746  0.94425390
   0.24927900  0.33196862  0.49945148
   0.00092897  0.33329642 -0.00002594
  -0.00007024  0.77750540  0.11139155
   0.74872147  0.88993155  0.05574670
   0.50059382 -0.00002356  0.33372472
   0.50088101  0.44620565  0.44396288
   0.74958925  0.33292517  0.83316605
   0.75005035 -0.00275192  0.83346019
   0.00031881  0.55557723  0.22201885
  -0.00131615 -0.00095017  0.66706894
   0.74986852  0.55577792  0.05552698
   0.49967079  0.88857318  0.22224873
   0.74988295  0.33365027  0.16653114
   0.49572251  0.89001528  0.55527380
   0.25110623  0.88903065  0.05529159
   0.00126089  0.11082081  0.44427962
   0.25001601 -0.00000921  0.16667484
   0.24836088  0.44751176  0.61063570
   0.25076309  0.11071119  0.61046120
   0.74754951  0.44482553  0.94452076
   0.25005873  0.55560233  0.05535489
   0.24941840  0.11098159  0.94481215
   0.25027455  0.66664661  0.16667689
   0.24944112  0.11201481  0.27779284
  -0.00003706  0.77693733  0.77782331
   0.24935849  0.22138662  0.38956483
  -0.00046026  0.11137892  0.77769073
   0.24980698  0.44471200  0.94484922
   0.74994366  0.66650248  0.16652674
   0.49965470  0.00101009  0.66653799
Direct configuration=    10
   0.49945717  0.22227243  0.22218441
   0.00070119  0.22205451  0.22229695
   0.24956005  0.22198081  0.05522187
   0.49996588  0.77759054  0.11062505
   0.00004795  0.44468439  0.11075956
   0.00148144  0.44486166  0.44418704
   0.25047156  0.77742870  0.61086857
   0.00060889  0.66659512  0.00005642
   0.75069806  0.55537664  0.72233708
   0.49987171  0.66677549  0.33324883
   0.24977592  0.88860132  0.72198204
  -0.00015388  0.44512892  0.77767724
   0.00057451  0.33375202  0.66657068
   0.24951062  0.66690778  0.83335990
   0.74976410  0.11102736  0.61131276
   0.00123244  0.66637673  0.66675892
   0.24981463  0.77788081  0.27787219
   0.49921610  0.66707321  0.66632592
   0.50039648  0.77801080  0.77799603
   0.49961187 -0.00118986  0.00020925
   0.50018019  0.11107501  0.77771020
   0.49998553  0.33307265  0.33350028
   0.00032032  0.88895854  0.22227583
   0.24911680  0.55574890  0.38924640
   0.49958214  0.66698097  0.00009621
   0.75027631  0.44531190  0.61084672
   0.75044206  0.77753263  0.61099059
   0.00020895  0.11107666  0.11064209
   0.24978244 -0.00029332  0.83327210
   0.50091831  0.55580766  0.88965471
  -0.00022563  0.89001285  0.88940521
   0.24996115  0.44405207  0.27777865
   0.49932172  0.55579543  0.55584123
   0.00061817  0.88896585  0.55566980
   0.50002708  0.33285617  0.66664702
   0.75033506  0.22197818  0.05540640
   0.50010698  0.11132238  0.44429934
   0.75008532  0.77771801  0.27785503
   0.75012042  0.11104979  0.27791346
   0.74989649 -0.00012922  0.16652009
  -0.00005119  0.55582707  0.88870232
   0.74858471  0.88985542  0.38904184
   0.50007465  0.88819262  0.88960418
   0.49984622  0.33398801 -0.00001195
   0.50027798  0.22232851  0.88896662
   0.00042892  0.66696825  0.33348658
   0.74923593  0.22194247  0.38920399
   0.49905075  0.77891992  0.44450071
   0.75047247  0.11115583  0.94441807
   0.75029444  0.88945360  0.72222256
   0.24955179  0.55547222  0.72187034
   0.24927061  0.88921082  0.38946399
   0.00048412  0.22221846  0.55582724
   0.49985817  0.11085338  0.11073992
   0.74950566  0.55541758  0.38901338
   0.74989740  0.77778519  0.94423989
   0.75022894  0.66691646  0.49986806
   0.24989517  0.33323698  0.83335507
   0.00073197 -0.00024031  0.33332414
   0.50055529  0.55542708  0.22192072
   0.74981024  0.33309458  0.49997382
   0.50030633  0.44425820  0.77789458
   0.00030116  0.33320097  0.33332978
   0.25006595  0.33336972  0.16666462
   0.00045932  0.55549436  0.55569946
   0.74995897  0.44461966  0.27782790
   0.00340422  0.77805406  0.44433795
  -0.00079555  0.21998696  0.88890214
   0.49981687  0.44503749  0.11084458
   0.25293316 -0.00167560  0.49917682
   0.49758328  0.22084766  0.55567656
   0.25146827  0.22226731  0.72285639
   0.74988949 -0.00017272  0.49996503
  -0.00001993  0.00010918 -0.00017468
   0.75036008  0.66693378  0.83372546
   0.75136949  0.22074985  0.72294655
   0.25013305  0.66791043  0.49987756
   0.25045806  0.77713746  0.94425390
   0.24927900  0.33196863  0.49945148
   0.00092897  0.33329642 -0.00002594
  -0.00007023  0.77750540  0.11139155
   0.74872147  0.88993154  0.05574670
   0.50059382 -0.00002356  0.33372472
   0.50088101  0.44620565  0.44396288
   0.74958925  0.33292517  0.83316606
   0.75005035 -0.00275191  0.83346019
   0.00031881  0.55557723  0.22201885
  -0.00131614 -0.00095017  0.66706894
   0.74986852  0.55577792  0.05552698
   0.49967079  0.88857318  0.22224873
   0.74988295  0.33365027  0.16653114
   0.49572252  0.89001527  0.55527380
   0.25110623  0.88903065  0.05529159
   0.00126089  0.11082081  0.44427962
   0.25001601 -0.00000921  0.16667484
   0.24836089  0.44751175  0.61063571
   0.25076309  0.11071119  0.61046120
   0.74754952  0.44482553  0.94452076
   0.25005873  0.55560233  0.05535490
   0.24941840  0.11098159  0.94481215
   0.25027455  0.66664661  0.16667689
   0.24944113  0.11201481  0.27779284
  -0.00003706  0.77693734  0.77782331
   0.24935849  0.22138662  0.38956482
  -0.00046025  0.11137892  0.77769073
   0.24980698  0.44471200  0.94484922
   0.74994366  0.66650248  0.16652674
   0.49965470  0.00101009  0.66653799
Direct configuration=    11
   0.49945717  0.22227243  0.22218441
   0.00070118  0.22205451  0.22229695
   0.24956005  0.22198081  0.05522187
   0.49996588  0.77759055  0.11062505
   0.00004795  0.44468439  0.11075956
   0.00148144  0.44486166  0.44418704
   0.25047156  0.77742870  0.61086857
   0.00060889  0.66659512  0.00005642
   0.75069806  0.55537664  0.72233708
   0.49987171  0.66677549  0.33324883
   0.24977592  0.88860132  0.72198204
  -0.00015388  0.44512892  0.77767724
   0.00057451  0.33375202  0.66657068
   0.24951062  0.66690778  0.83335990
   0.74976410  0.11102736  0.61131276
   0.00123244  0.66637673  0.66675892
   0.24981463  0.77788081  0.27787219
   0.49921610  0.66707321  0.66632592
   0.50039648  0.77801080  0.77799603
   0.49961187 -0.00118985  0.00020925
   0.50018019  0.11107501  0.77771020
   0.49998553  0.33307265  0.33350028
   0.00032032  0.88895854  0.22227583
   0.24911680  0.55574890  0.38924640
   0.49958214  0.66698097  0.00009621
   0.75027631  0.44531190  0.61084672
   0.75044206  0.77753263  0.61099059
   0.00020895  0.11107666  0.11064209
   0.24978244 -0.00029332  0.83327210
   0.50091830  0.55580766  0.88965471
  -0.00022563  0.89001285  0.88940521
   0.24996115  0.44405207  0.27777865
   0.49932172  0.55579543  0.55584123
   0.00061817  0.88896585  0.55566980
   0.50002708  0.33285617  0.66664702
   0.75033506  0.22197818  0.05540640
   0.50010698  0.11132238  0.44429934
   0.75008532  0.77771801  0.27785503
   0.75012042  0.11104979  0.27791346
   0.74989649 -0.00012922  0.16652009
  -0.00005119  0.55582707  0.88870232
   0.74858471  0.88985542  0.38904184
   0.50007465  0.88819263  0.88960418
   0.49984622  0.33398801 -0.00001194
   0.50027798  0.22232851  0.88896662
   0.00042892  0.66696825  0.33348658
   0.74923593  0.22194247  0.38920399
   0.49905075  0.77891992  0.44450071
   0.75047247  0.11115583  0.94441807
   0.75029444  0.88945360  0.72222256
   0.24955179  0.55547222  0.72187034
   0.24927061  0.88921082  0.38946399
   0.00048412  0.22221846  0.55582723
   0.49985817  0.11085338  0.11073992
   0.74950566  0.55541758  0.38901338
   0.74989740  0.77778519  0.94423989
   0.75022894  0.66691646  0.49986806
   0.24989517  0.33323698  0.83335507
   0.00073197 -0.00024031  0.33332414
   0.50055529  0.55542708  0.22192072
   0.74981024  0.33309458  0.49997382
   0.50030633  0.44425820  0.77789458
   0.00030115  0.33320097  0.33332978
   0.25006595  0.33336972  0.16666462
   0.00045932  0.55549436  0.55569946
   0.74995897  0.44461966  0.27782790
   0.00340421  0.77805406  0.44433795
  -0.00079555  0.21998696  0.88890214
   0.49981687  0.44503749  0.11084458
   0.25293316 -0.00167560  0.49917682
   0.49758329  0.22084767  0.55567656
   0.25146827  0.22226731  0.72285639
   0.74988949 -0.00017272  0.49996503
  -0.00001993  0.00010918 -0.00017468
   0.75036008  0.66693378  0.83372545
   0.75136949  0.22074985  0.72294655
   0.25013305  0.66791043  0.49987756
   0.25045806  0.77713746  0.94425391
   0.24927900  0.33196863  0.49945148
   0.00092897  0.33329642 -0.00002594
  -0.00007023  0.77750540  0.11139155
   0.74872147  0.88993154  0.05574670
   0.50059382 -0.00002356  0.33372472
   0.50088101  0.44620564  0.44396288
   0.74958925  0.33292517  0.83316606
   0.75005035 -0.00275191  0.83346019
   0.00031881  0.55557723  0.22201885
  -0.00131614 -0.00095017  0.66706894
   0.74986852  0.55577792  0.05552698
   0.49967079  0.88857318  0.22224873
   0.74988295  0.33365027  0.16653114
   0.49572253  0.89001527  0.55527380
   0.25110623  0.88903065  0.05529159
   0.00126089  0.11082081  0.44427962
   0.25001601 -0.00000921  0.16667484
   0.24836089  0.44751175  0.61063571
   0.25076309  0.11071119  0.61046120
   0.74754952  0.44482553  0.94452076
   0.25005873  0.55560233  0.05535490
   0.24941840  0.11098159  0.94481214
   0.25027455  0.66664661  0.16667689
   0.24944113  0.11201480  0.27779284
  -0.00003706  0.77693734  0.77782331
   0.24935849  0.22138662  0.38956482
  -0.00046025  0.11137892  0.77769073
   0.24980698  0.44471200  0.94484922
   0.74994366  0.66650248  0.16652675
   0.49965470  0.00101009  0.66653799
Direct configuration=    12
   0.49945717  0.22227243  0.22218441
   0.00070118  0.22205451  0.22229695
   0.24956005  0.22198081  0.05522187
   0.49996588  0.77759055  0.11062505
   0.00004795  0.44468439  0.11075956
   0.00148144  0.44486166  0.44418704
   0.25047156  0.77742870  0.61086857
   0.00060889  0.66659512  0.00005642
   0.75069806  0.55537664  0.72233708
   0.49987171  0.66677549  0.33324883
   0.24977592  0.88860132  0.72198204
  -0.00015388  0.44512892  0.77767724
   0.00057451  0.33375202  0.66657068
   0.24951062  0.66690778  0.83335990
   0.74976410  0.11102736  0.61131276
   0.00123244  0.66637673  0.66675892
   0.24981463  0.77788080  0.27787219
   0.49921610  0.66707320  0.66632592
   0.50039648  0.77801080  0.77799603
   0.49961187 -0.00118985  0.00020925
   0.50018019  0.11107501  0.77771020
   0.49998553  0.33307265  0.33350028
   0.00032032  0.88895854  0.22227583
   0.24911680  0.55574890  0.38924640
   0.49958214  0.66698097  0.00009621
   0.75027631  0.44531190  0.61084672
   0.75044206  0.77753263  0.61099059
   0.00020895  0.11107666  0.11064209
   0.24978244 -0.00029332  0.83327210
   0.50091830  0.55580766  0.88965471
  -0.00022562  0.89001285  0.88940521
   0.24996115  0.44405207  0.27777865
   0.49932172  0.55579543  0.55584123
   0.00061817  0.88896585  0.55566980
   0.50002708  0.33285617  0.66664702
   0.75033506  0.22197818  0.05540640
   0.50010698  0.11132238  0.44429934
   0.75008532  0.77771801  0.27785503
   0.75012042  0.11104979  0.27791346
   0.74989649 -0.00012922  0.16652009
  -0.00005119  0.55582707  0.88870233
   0.74858472  0.88985542  0.38904184
   0.50007465  0.88819263  0.88960418
   0.49984622  0.33398801 -0.00001194
   0.50027798  0.22232851  0.88896662
   0.00042892  0.66696825  0.33348658
   0.74923593  0.22194247  0.38920399
   0.49905075  0.77891992  0.44450071
   0.75047247  0.11115583  0.94441807
   0.75029444  0.88945360  0.72222256
   0.24955179  0.55547222  0.72187034
   0.24927061  0.88921082  0.38946399
   0.00048412  0.22221846  0.55582723
   0.49985817  0.11085338  0.11073992
   0.74950566  0.55541758  0.38901338
   0.74989740  0.77778519  0.94423989
   0.75022894  0.66691646  0.49986806
   0.24989517  0.33323698  0.83335507
   0.00073197 -0.00024031  0.33332414
   0.50055529  0.55542708  0.22192072
   0.74981024  0.33309458  0.49997382
   0.50030633  0.44425820  0.77789458
   0.00030115  0.33320097  0.33332978
   0.25006595  0.33336972  0.16666462
   0.00045932  0.55549436  0.55569946
   0.74995897  0.44461966  0.27782790
   0.00340421  0.77805406  0.44433795
  -0.00079555  0.21998696  0.88890214
   0.49981687  0.44503749  0.11084458
   0.25293316 -0.00167560  0.49917682
   0.49758329  0.22084767  0.55567656
   0.25146827  0.22226731  0.72285639
   0.74988949 -0.00017272  0.49996503
  -0.00001993  0.00010918 -0.00017468
   0.75036008  0.66693378  0.83372545
   0.75136949  0.22074985  0.72294655
   0.25013305  0.66791043  0.49987756
   0.25045806  0.77713746  0.94425391
   0.24927900  0.33196863  0.49945148
   0.00092896  0.33329642 -0.00002594
  -0.00007023  0.77750540  0.11139155
   0.74872147  0.88993154  0.05574670
   0.50059382 -0.00002356  0.33372472
   0.50088101  0.44620564  0.44396288
   0.74958925  0.33292517  0.83316606
   0.75005035 -0.00275190  0.83346019
   0.00031881  0.55557723  0.22201885
  -0.00131614 -0.00095016  0.66706894
   0.74986852  0.55577792  0.05552698
   0.49967079  0.88857318  0.22224873
   0.74988295  0.33365027  0.16653114
   0.49572253  0.89001527  0.55527380
   0.25110623  0.88903065  0.05529159
   0.00126089  0.11082081  0.44427962
   0.25001601 -0.00000921  0.16667484
   0.24836089  0.44751174  0.61063571
   0.25076309  0.11071119  0.61046120
   0.74754952  0.44482553  0.94452076
   0.25005873  0.55560233  0.05535490
   0.24941840  0.11098159  0.94481214
   0.25027455  0.66664661  0.16667689
   0.24944113  0.11201480  0.27779284
  -0.00003706  0.77693734  0.77782331
   0.24935849  0.22138662  0.38956482
  -0.00046025  0.11137892  0.77769073
   0.24980698  0.44471200  0.94484922
   0.74994366  0.66650248  0.16652675
   0.49965470  0.00101009  0.66653799
Direct configuration=    13
   0.49945717  0.22227243  0.22218441
   0.00070118  0.22205451  0.22229695
   0.24956005  0.22198081  0.05522187
   0.49996588  0.77759055  0.11062505
   0.00004795  0.44468439  0.11075956
   0.00148144  0.44486166  0.44418704
   0.25047156  0.77742870  0.61086857
   0.00060889  0.66659512  0.00005642
   0.75069806  0.55537664  0.72233708
   0.49987171  0.66677549  0.33324883
   0.24977592  0.88860132  0.72198204
  -0.00015388  0.44512892  0.77767724
   0.00057451  0.33375202  0.66657068
   0.24951062  0.66690778  0.83335990
   0.74976410  0.11102736  0.61131276
   0.00123244  0.66637673  0.66675892
   0.24981463  0.77788080  0.27787219
   0.49921610  0.66707320  0.66632592
   0.50039648  0.77801080  0.77799603
   0.49961187 -0.00118985  0.00020925
   0.50018019  0.11107501  0.77771020
   0.49998553  0.33307265  0.33350028
   0.00032032  0.88895854  0.22227583
   0.24911680  0.55574890  0.38924640
   0.49958214  0.66698097  0.00009621
   0.75027631  0.44531190  0.61084672
   0.75044206  0.77753263  0.61099059
   0.00020895  0.11107666  0.11064209
   0.24978244 -0.00029332  0.83327210
   0.50091830  0.55580766  0.88965471
  -0.00022562  0.89001285  0.88940521
   0.24996115  0.44405207  0.27777865
   0.49932172  0.55579543  0.55584123
   0.00061817  0.88896585  0.55566980
   0.50002708  0.33285617  0.66664702
   0.75033506  0.22197818  0.05540640
   0.50010698  0.11132238  0.44429934
   0.75008532  0.77771801  0.27785503
   0.75012042  0.11104979  0.27791346
   0.74989649 -0.00012922  0.16652009
  -0.00005119  0.55582707  0.88870233
   0.74858472  0.88985542  0.38904184
   0.50007465  0.88819263  0.88960418
   0.49984622  0.33398801 -0.00001194
   0.50027798  0.22232851  0.88896662
   0.00042892  0.66696825  0.33348658
   0.74923593  0.22194247  0.38920399
   0.49905075  0.77891992  0.44450071
   0.75047247  0.11115583  0.94441807
   0.75029444  0.88945360  0.72222256
   0.24955179  0.55547222  0.72187034
   0.24927061  0.88921082  0.38946399
   0.00048412  0.22221846  0.55582723
   0.49985817  0.11085338  0.11073992
   0.74950566  0.55541758  0.38901338
   0.74989740  0.77778519  0.94423989
   0.75022894  0.66691646  0.49986806
   0.24989517  0.33323698  0.83335507
   0.00073197 -0.00024031  0.33332414
   0.50055529  0.55542708  0.22192072
   0.74981024  0.33309458  0.49997382
   0.50030633  0.44425820  0.77789458
   0.00030115  0.33320097  0.33332978
   0.25006595  0.33336972  0.16666462
   0.00045932  0.55549436  0.55569946
   0.74995897  0.44461966  0.27782790
   0.00340421  0.77805406  0.44433795
  -0.00079555  0.21998696  0.88890214
   0.49981687  0.44503749  0.11084458
   0.25293316 -0.00167560  0.49917682
   0.49758329  0.22084767  0.55567656
   0.25146827  0.22226731  0.72285639
   0.74988949 -0.00017272  0.49996503
  -0.00001993  0.00010918 -0.00017468
   0.75036008  0.66693378  0.83372545
   0.75136949  0.22074985  0.72294655
   0.25013305  0.66791043  0.49987756
   0.25045806  0.77713746  0.94425391
   0.24927900  0.33196863  0.49945148
   0.00092896  0.33329642 -0.00002594
  -0.00007023  0.77750540  0.11139155
   0.74872147  0.88993154  0.05574670
   0.50059382 -0.00002356  0.33372472
   0.50088101  0.44620564  0.44396288
   0.74958925  0.33292517  0.83316606
   0.75005035 -0.00275190  0.83346019
   0.00031881  0.55557723  0.22201885
  -0.00131614 -0.00095016  0.66706894
   0.74986852  0.55577792  0.05552698
   0.49967079  0.88857318  0.22224873
   0.74988295  0.33365027  0.16653114
   0.49572253  0.89001527  0.55527380
   0.25110623  0.88903065  0.05529159
   0.00126089  0.11082081  0.44427962
   0.25001601 -0.00000921  0.16667484
   0.24836089  0.44751174  0.61063571
   0.25076309  0.11071119  0.61046120
   0.74754952  0.44482553  0.94452076
   0.25005873  0.55560233  0.05535490
   0.24941840  0.11098159  0.94481214
   0.25027455  0.66664661  0.16667689
   0.24944113  0.11201480  0.27779284
  -0.00003706  0.77693734  0.77782331
   0.24935849  0.22138662  0.38956482
  -0.00046025  0.11137892  0.77769073
   0.24980698  0.44471200  0.94484922
   0.74994366  0.66650248  0.16652675
   0.49965470  0.00101009  0.66653799
Direct configuration=    14
   0.49945717  0.22227243  0.22218441
   0.00070118  0.22205451  0.22229695
   0.24956005  0.22198081  0.05522187
   0.49996588  0.77759055  0.11062505
   0.00004795  0.44468439  0.11075956
   0.00148144  0.44486166  0.44418704
   0.25047156  0.77742870  0.61086857
   0.00060889  0.66659512  0.00005642
   0.75069806  0.55537664  0.72233708
   0.49987171  0.66677549  0.33324883
   0.24977592  0.88860132  0.72198204
  -0.00015388  0.44512892  0.77767724
   0.00057451  0.33375202  0.66657068
   0.24951062  0.66690778  0.83335990
   0.74976410  0.11102736  0.61131276
   0.00123244  0.66637673  0.66675892
   0.24981463  0.77788080  0.27787219
   0.49921610  0.66707320  0.66632592
   0.50039648  0.77801080  0.77799603
   0.49961187 -0.00118985  0.00020925
   0.50018019  0.11107501  0.77771020
   0.49998553  0.33307265  0.33350028
   0.00032032  0.88895854  0.22227583
   0.24911680  0.55574890  0.38924640
   0.49958214  0.66698097  0.00009621
   0.75027631  0.44531190  0.61084672
   0.75044206  0.77753263  0.61099059
   0.00020895  0.11107666  0.11064209
   0.24978244 -0.00029332  0.83327210
   0.50091830  0.55580766  0.88965471
  -0.00022562  0.89001285  0.88940521
   0.24996115  0.44405207  0.27777865
   0.49932172  0.55579543  0.55584123
   0.00061817  0.88896585  0.55566980
   0.50002708  0.33285617  0.66664702
   0.75033506  0.22197818  0.05540640
   0.50010698  0.11132238  0.44429934
   0.75008532  0.77771801  0.27785503
   0.75012042  0.11104979  0.27791346
   0.74989649 -0.00012922  0.16652009
  -0.00005119  0.55582707  0.88870233
   0.74858472  0.88985542  0.38904184
   0.50007465  0.88819263  0.88960418
   0.49984622  0.33398801 -0.00001194
   0.50027798  0.22232851  0.88896662
   0.00042892  0.66696825  0.33348658
   0.74923593  0.22194247  0.38920399
   0.49905075  0.77891992  0.44450071
   0.75047247  0.11115583  0.94441807
   0.75029444  0.88945360  0.72222256
   0.24955179  0.55547222  0.72187034
   0.24927061  0.88921082  0.38946399
   0.00048412  0.22221846  0.55582723
   0.49985817  0.11085338  0.11073992
   0.74950566  0.55541758  0.38901338
   0.74989740  0.77778519  0.94423989
   0.75022894  0.66691646  0.49986806
   0.24989517  0.33323698  0.83335507
   0.00073197 -0.00024031  0.33332414
   0.50055529  0.55542708  0.22192072
   0.74981024  0.33309458  0.49997382
   0.50030633  0.44425820  0.77789458
   0.00030115  0.33320097  0.33332978
   0.25006595  0.33336972  0.16666462
   0.00045932  0.55549436  0.55569946
   0.74995897  0.44461966  0.27782790
   0.00340421  0.77805406  0.44433795
  -0.00079555  0.21998696  0.88890214
   0.49981687  0.44503749  0.11084458
   0.25293316 -0.00167560  0.49917682
   0.49758329  0.22084767  0.55567656
   0.25146827  0.22226731  0.72285639
   0.74988949 -0.00017272  0.49996503
  -0.00001993  0.00010918 -0.00017468
   0.75036008  0.66693378  0.83372545
   0.75136949  0.22074985  0.72294655
   0.25013305  0.66791043  0.49987756
   0.25045806  0.77713746  0.94425391
   0.24927900  0.33196863  0.49945148
   0.00092896  0.33329642 -0.00002594
  -0.00007023  0.77750540  0.11139155
   0.74872147  0.88993154  0.05574670
   0.50059382 -0.00002356  0.33372472
   0.50088101  0.44620564  0.44396288
   0.74958925  0.33292517  0.83316606
   0.75005035 -0.00275190  0.83346019
   0.00031881  0.55557723  0.22201885
  -0.00131614 -0.00095016  0.66706894
   0.74986852  0.55577792  0.05552698
   0.49967079  0.88857318  0.22224873
   0.74988295  0.33365027  0.16653114
   0.49572253  0.89001527  0.55527380
   0.25110623  0.88903065  0.05529159
   0.00126089  0.11082081  0.44427962
   0.25001601 -0.00000921  0.16667484
   0.24836089  0.44751174  0.61063571
   0.25076309  0.11071119  0.61046120
   0.74754952  0.44482553  0.94452076
   0.25005873  0.55560233  0.05535490
   0.24941840  0.11098159  0.94481214
   0.25027455  0.66664661  0.16667689
   0.24944113  0.11201480  0.27779284
  -0.00003706  0.77693734  0.77782331
   0.24935849  0.22138662  0.38956482
  -0.00046025  0.11137892  0.77769073
   0.24980698  0.44471200  0.94484922
   0.74994366  0.66650248  0.16652675
   0.49965470  0.00101009  0.66653799
