LAMMPS data file via write_data, version 7 Feb 2024, timestep = 24, units = metal

423 atoms
1 atom types

0 16.982229 xlo xhi
0 16.982229 ylo yhi
0 16.982229 zlo zhi
0 0 0 xy xz yz

Masses

1 55.85

Atoms # atomic

44 1 2.846534728361364 2.846534728361364 2.846534728361364 0 0 0
217 1 1.4211674232065254 1.421167423206526 1.421167423206526 0 0 0
253 1 4.2534099350406676 1.4228311997691834 1.4228311997691832 0 0 0
80 1 5.673522009042528 2.85015133167798 2.8501513316779796 0 0 0
116 1 8.491114373535163 2.8459860708451097 2.8459860708451092 0 0 0
289 1 7.077852053399211 1.4216440447856935 1.4216440447856933 0 0 0
152 1 11.308706738127537 2.850151331772528 2.8501513317725276 0 0 0
325 1 9.904376693804021 1.4216440447699594 1.4216440447699594 0 0 0
361 1 12.728818811957904 1.4228311998890741 1.422831199889074 0 0 0
8 1 16.982228873507093 2.8379941356476994 2.8379941356476994 -1 0 0
188 1 14.135694018480928 2.846534728457739 2.8465347284577387 0 0 0
397 1 15.561061323607946 1.4211674231733602 1.4211674231733602 0 0 0
223 1 1.4228311997691834 4.2534099350406676 1.4228311997691832 0 0 0
50 1 2.85015133167798 5.673522009042528 2.8501513316779796 0 0 0
56 1 2.8459860708451092 8.491114373535163 2.8459860708451097 0 0 0
229 1 1.4216440447856933 7.077852053399211 1.4216440447856933 0 0 0
259 1 4.255335256243161 4.255335256243161 1.4253093904184562 0 0 0
295 1 7.078596798609532 4.253988887259183 1.4231804077977779 0 0 0
265 1 4.253988887259183 7.078596798609533 1.4231804077977788 0 0 0
86 1 5.6752102950113885 5.6752102950113885 2.8515008274217704 0 0 0
92 1 5.670350823800573 8.491114373525855 2.8436162385324146 0 0 0
122 1 8.491114373525855 5.6703508238005735 2.843616238532414 0 0 0
128 1 8.491114373461478 8.491114373461478 2.829547268596837 0 0 0
301 1 7.07759992820105 7.07759992820105 1.415371269495021 0 0 0
331 1 9.903631948509128 4.253988887372889 1.4231804077918018 0 0 0
367 1 12.72689349077572 4.255335256319957 1.4253093905285676 0 0 0
158 1 11.307018452014749 5.675210295115226 2.851500827518603 0 0 0
164 1 11.311877923282672 8.491114373525857 2.8436162386305095 0 0 0
337 1 9.904628818836546 7.077599928185529 1.4153712695025338 0 0 0
373 1 12.728239859771547 7.078596798725838 1.4231804078970323 0 0 0
403 1 15.559397547155246 4.253409935161731 1.4228311997430796 0 0 0
14 1 16.982228873518185 5.6651540872157815 2.837728182040491 -1 0 0
20 1 16.982228873600874 8.491114373599988 2.8367623914540707 -1 0 0
194 1 14.132077415365742 5.673522009133897 2.850151331775653 0 0 0
200 1 14.136242676154655 8.491114373535163 2.845986070938345 0 0 0
409 1 15.560584702255698 7.077852053377738 1.4216440447711516 0 0 0
62 1 2.850151331772528 11.308706738127537 2.850151331772528 0 0 0
235 1 1.4216440447699599 9.904376693804021 1.4216440447699594 0 0 0
241 1 1.4228311998890752 12.728818811957906 1.4228311998890741 0 0 0
271 1 4.253988887372889 9.903631948509128 1.4231804077918013 0 0 0
98 1 5.675210295115226 11.307018452014749 2.851500827518603 0 0 0
134 1 8.491114373525855 11.311877923282672 2.843616238630509 0 0 0
307 1 7.077599928185528 9.904628818836546 1.4153712695025338 0 0 0
277 1 4.255335256319957 12.726893490775721 1.4253093905285679 0 0 0
313 1 7.078596798725838 12.728239859771548 1.4231804078970323 0 0 0
170 1 11.30701845191091 11.307018451910912 2.851500827615435 0 0 0
343 1 9.904628818852075 9.904628818852075 1.4153712695100462 0 0 0
379 1 12.728239859657837 9.903631948392825 1.4231804078910548 0 0 0
349 1 9.903631948392825 12.728239859657837 1.4231804078910548 0 0 0
385 1 12.726893490698926 12.726893490698926 1.4253093906386813 0 0 0
26 1 16.982228873518185 11.317074659894603 2.8377281821349327 -1 0 0
206 1 14.132077415271201 11.308706738036168 2.850151331870201 0 0 0
415 1 15.560584702271433 9.904376693825498 1.4216440447554175 0 0 0
421 1 15.55939754703536 12.728818811836838 1.4228311998629717 0 0 0
38 1 2.8379941356476994 16.982228873507093 2.8379941356476994 0 -1 0
68 1 2.8465347284577387 14.135694018480928 2.846534728457739 0 0 0
247 1 1.4211674231733604 15.561061323607946 1.4211674231733602 0 0 0
74 1 5.665154087215781 16.982228873518185 2.837728182040491 0 -1 0
110 1 8.491114373599988 16.982228873600874 2.8367623914540707 0 -1 0
283 1 4.253409935161731 15.559397547155246 1.4228311997430794 0 0 0
104 1 5.673522009133897 14.132077415365742 2.850151331775653 0 0 0
140 1 8.491114373535163 14.136242676154655 2.845986070938345 0 0 0
319 1 7.077852053377738 15.5605847022557 1.4216440447711516 0 0 0
146 1 11.317074659894603 16.982228873518185 2.8377281821349327 0 -1 0
176 1 11.308706738036168 14.132077415271201 2.850151331870201 0 0 0
355 1 9.904376693825498 15.560584702271433 1.4216440447554177 0 0 0
391 1 12.728818811836838 15.55939754703536 1.422831199862971 0 0 0
2 1 16.98222887340966 16.98222887340966 2.837649186405612 -1 -1 0
182 1 14.144234611260469 16.982228873507097 2.837994135748113 0 -1 0
32 1 16.982228873507097 14.144234611260469 2.8379941357481124 -1 0 0
212 1 14.135694018384553 14.135694018384553 2.846534728554114 0 0 0
427 1 15.561061323641116 15.561061323641116 1.421167423140195 0 0 0
218 1 1.4228311997691834 1.422831199769183 4.2534099350406676 0 0 0
45 1 2.85015133167798 2.85015133167798 5.673522009042527 0 0 0
46 1 2.8459860708451097 2.8459860708451097 8.491114373535163 0 0 0
219 1 1.4216440447856937 1.4216440447856935 7.077852053399211 0 0 0
254 1 4.255335256243161 1.4253093904184564 4.255335256243161 0 0 0
290 1 7.078596798609533 1.4231804077977792 4.253988887259182 0 0 0
255 1 4.253988887259183 1.423180407797779 7.078596798609533 0 0 0
81 1 5.6752102950113885 2.851500827421771 5.6752102950113885 0 0 0
82 1 5.670350823800573 2.8436162385324146 8.491114373525855 0 0 0
117 1 8.491114373525855 2.843616238532414 5.670350823800573 0 0 0
118 1 8.491114373461478 2.829547268596837 8.491114373461478 0 0 0
291 1 7.07759992820105 1.415371269495021 7.07759992820105 0 0 0
326 1 9.903631948509128 1.4231804077918018 4.253988887372889 0 0 0
362 1 12.72689349077572 1.4253093905285679 4.255335256319957 0 0 0
153 1 11.307018452014747 2.851500827518603 5.675210295115226 0 0 0
154 1 11.311877923282672 2.8436162386305095 8.491114373525855 0 0 0
327 1 9.904628818836546 1.415371269502534 7.077599928185529 0 0 0
363 1 12.728239859771547 1.4231804078970323 7.078596798725838 0 0 0
398 1 15.559397547155246 1.4228311997430794 4.253409935161731 0 0 0
9 1 16.982228873518185 2.837728182040491 5.665154087215781 -1 0 0
10 1 16.982228873600874 2.8367623914540707 8.491114373599988 -1 0 0
189 1 14.132077415365742 2.850151331775653 5.673522009133897 0 0 0
190 1 14.136242676154655 2.845986070938345 8.491114373535163 0 0 0
399 1 15.5605847022557 1.4216440447711518 7.077852053377738 0 0 0
224 1 1.4253093904184564 4.255335256243161 4.255335256243161 0 0 0
230 1 1.4231804077977788 7.078596798609533 4.253988887259183 0 0 0
225 1 1.423180407797779 4.253988887259183 7.078596798609533 0 0 0
51 1 2.8515008274217704 5.6752102950113885 5.6752102950113885 0 0 0
52 1 2.843616238532414 5.670350823800573 8.491114373525855 0 0 0
57 1 2.843616238532414 8.491114373525857 5.6703508238005735 0 0 0
58 1 2.829547268596837 8.491114373461478 8.491114373461478 0 0 0
231 1 1.415371269495021 7.07759992820105 7.07759992820105 0 0 0
260 1 4.281801872754513 4.281801872754512 4.281801872754512 0 0 0
296 1 7.100274453749641 4.287481606933778 4.287481606933778 0 0 0
266 1 4.287481606933778 7.100274453749641 4.287481606933778 0 0 0
302 1 7.104597103808207 7.104597103808207 4.246654691450777 0 0 0
261 1 4.287481606933778 4.287481606933778 7.100274453749641 0 0 0
297 1 7.1045971038082065 4.246654691450777 7.1045971038082065 0 0 0
267 1 4.246654691450777 7.104597103808207 7.1045971038082065 0 0 0
87 1 5.736772811042166 5.736772811042167 5.736772811042166 0 0 0
88 1 5.7813942161768415 5.7813942161768415 8.491114373474078 0 0 0
93 1 5.7813942161768415 8.491114373474078 5.7813942161768415 0 0 0
94 1 5.815611512838547 8.491114373442453 8.491114373442453 0 0 0
123 1 8.491114373474078 5.7813942161768415 5.781394216176841 0 0 0
124 1 8.491114373442453 5.815611512838547 8.491114373442453 0 0 0
129 1 8.491114373442453 8.491114373442455 5.815611512838547 0 0 0
332 1 9.881954293289253 4.287481607035088 4.287481607035087 0 0 0
368 1 12.70042687428356 4.281801872845803 4.281801872845803 0 0 0
338 1 9.87763164315233 7.1045971038131395 4.246654691545986 0 0 0
374 1 12.694747140131447 7.10027445384743 4.287481607022914 0 0 0
333 1 9.87763164315233 4.246654691545985 7.104597103813139 0 0 0
369 1 12.694747140131447 4.287481607022914 7.100274453847429 0 0 0
159 1 11.245455935911535 5.736772811137413 5.7367728111374126 0 0 0
160 1 11.200834530832156 5.781394216278498 8.491114373474078 0 0 0
165 1 11.200834530832156 8.49111437347408 5.781394216278498 0 0 0
166 1 11.166617234235188 8.491114373442455 8.491114373442455 0 0 0
375 1 12.735574055676718 7.104597103890686 7.104597103890685 0 0 0
404 1 15.556919356616927 4.255335256352325 4.255335256352325 0 0 0
410 1 15.55904833935458 7.078596798595433 4.253988887354769 0 0 0
405 1 15.55904833935458 4.253988887354769 7.078596798595433 0 0 0
15 1 16.982228873554224 5.663781571363519 5.663781571363519 -1 0 0
16 1 16.98222887363204 5.662237969376782 8.491114373586228 -1 0 0
21 1 16.98222887363204 8.491114373586228 5.662237969376781 -1 0 0
22 1 16.982228873696357 8.491114373502013 8.491114373502013 -1 0 0
195 1 14.130727919781611 5.67521029509186 5.67521029509186 0 0 0
196 1 14.13861250864155 5.670350823880113 8.491114373525855 0 0 0
201 1 14.13861250864155 8.491114373525857 5.670350823880113 0 0 0
202 1 14.152681478579245 8.49111437346148 8.491114373461478 0 0 0
411 1 15.56685747777824 7.077599928197302 7.077599928197302 0 0 0
236 1 1.4231804077918015 9.903631948509128 4.253988887372889 0 0 0
242 1 1.4253093905285679 12.726893490775721 4.255335256319957 0 0 0
63 1 2.8515008275186027 11.307018452014749 5.675210295115226 0 0 0
64 1 2.8436162386305095 11.311877923282672 8.491114373525857 0 0 0
237 1 1.415371269502534 9.904628818836546 7.077599928185529 0 0 0
243 1 1.4231804078970323 12.728239859771548 7.078596798725838 0 0 0
272 1 4.287481607035087 9.881954293289253 4.287481607035088 0 0 0
308 1 7.104597103813138 9.87763164315233 4.246654691545986 0 0 0
278 1 4.281801872845803 12.70042687428356 4.281801872845803 0 0 0
314 1 7.100274453847429 12.694747140131447 4.287481607022911 0 0 0
273 1 4.246654691545985 9.87763164315233 7.104597103813139 0 0 0
99 1 5.7367728111374126 11.245455935911536 5.736772811137413 0 0 0
100 1 5.781394216278498 11.200834530832156 8.491114373474078 0 0 0
135 1 8.491114373474078 11.200834530832157 5.781394216278498 0 0 0
136 1 8.491114373442455 11.166617234235188 8.491114373442455 0 0 0
279 1 4.287481607022911 12.694747140131447 7.100274453847429 0 0 0
315 1 7.104597103890685 12.735574055676718 7.104597103890686 0 0 0
344 1 9.8776316431474 9.877631643147401 4.246654691641195 0 0 0
380 1 12.694747140030138 9.881954293191466 4.287481607124223 0 0 0
350 1 9.881954293191466 12.694747140030138 4.287481607124223 0 0 0
386 1 12.700426874192269 12.700426874192269 4.281801872937093 0 0 0
171 1 11.245455935816285 11.245455935816285 5.736772811232659 0 0 0
172 1 11.2008345307305 11.200834530730502 8.491114373474078 0 0 0
381 1 12.735574055581516 9.877631643069854 7.104597103895617 0 0 0
351 1 9.877631643069853 12.735574055581516 7.104597103895617 0 0 0
387 1 12.694747140042312 12.694747140042313 7.100274453945216 0 0 0
416 1 15.559048339360562 9.903631948523229 4.253988887468474 0 0 0
422 1 15.556919356506818 12.726893490666557 4.25533525642912 0 0 0
27 1 16.982228873554224 11.318447175608306 5.663781571466256 -1 0 0
28 1 16.98222887363204 11.319990777682529 8.491114373586228 -1 0 0
207 1 14.130727919684778 11.307018451934278 5.675210295195697 0 0 0
208 1 14.138612508543456 11.311877923203134 8.491114373525857 0 0 0
417 1 15.566857477770728 9.904628818840301 7.0775999281817805 0 0 0
423 1 15.55904833925533 12.728239859675957 7.078596798711738 0 0 0
248 1 1.4228311997430794 15.559397547155246 4.253409935161731 0 0 0
39 1 2.8377281820404905 16.982228873518185 5.6651540872157815 0 -1 0
40 1 2.8367623914540707 16.982228873600874 8.491114373599988 0 -1 0
69 1 2.850151331775653 14.132077415365742 5.673522009133897 0 0 0
70 1 2.8459860709383453 14.136242676154655 8.491114373535165 0 0 0
249 1 1.4216440447711518 15.560584702255698 7.077852053377738 0 0 0
284 1 4.255335256352325 15.556919356616927 4.255335256352325 0 0 0
320 1 7.078596798595433 15.55904833935458 4.253988887354769 0 0 0
75 1 5.66378157136352 16.982228873554224 5.663781571363519 0 -1 0
76 1 5.662237969376782 16.98222887363204 8.491114373586228 0 -1 0
111 1 8.491114373586228 16.98222887363204 5.662237969376782 0 -1 0
112 1 8.491114373502013 16.982228873696357 8.491114373502013 0 -1 0
285 1 4.253988887354769 15.55904833935458 7.0785967985954334 0 0 0
105 1 5.67521029509186 14.130727919781611 5.67521029509186 0 0 0
106 1 5.670350823880113 14.13861250864155 8.491114373525857 0 0 0
141 1 8.491114373525857 14.13861250864155 5.670350823880113 0 0 0
142 1 8.491114373461478 14.152681478579245 8.491114373461478 0 0 0
321 1 7.077599928197302 15.56685747777824 7.077599928197302 0 0 0
356 1 9.903631948523229 15.559048339360562 4.253988887468474 0 0 0
392 1 12.726893490666557 15.55691935650682 4.25533525642912 0 0 0
147 1 11.318447175608306 16.982228873554224 5.663781571466256 0 -1 0
148 1 11.319990777682529 16.98222887363204 8.491114373586228 0 -1 0
177 1 11.307018451934278 14.130727919684778 5.675210295195697 0 0 0
178 1 11.311877923203134 14.138612508543456 8.491114373525857 0 0 0
357 1 9.904628818840301 15.566857477770728 7.0775999281817805 0 0 0
393 1 12.728239859675957 15.559048339255332 7.078596798711738 0 0 0
428 1 15.559397547181351 15.559397547181351 4.253409935282795 0 0 0
3 1 16.982228873428273 16.982228873428273 5.664259892553024 -1 -1 0
4 1 16.98222887352353 16.98222887352353 8.491114373677219 -1 -1 0
183 1 14.144500565054209 16.982228873518185 5.665154087307972 0 -1 0
184 1 14.14546635556867 16.982228873600874 8.491114373599988 0 -1 0
33 1 16.982228873518185 14.144500565054209 5.665154087307968 -1 0 0
34 1 16.982228873600874 14.14546635556867 8.491114373599988 -1 0 0
213 1 14.132077415268075 14.132077415268075 5.6735220092252705 0 0 0
214 1 14.136242676061416 14.136242676061416 8.491114373535163 0 0 0
429 1 15.560584702270235 15.560584702270235 7.07785205335626 0 0 0
47 1 2.850151331772528 2.850151331772528 11.308706738127537 0 0 0
220 1 1.4216440447699596 1.4216440447699596 9.904376693804021 0 0 0
221 1 1.422831199889074 1.4228311998890741 12.728818811957906 0 0 0
256 1 4.253988887372889 1.4231804077918013 9.903631948509128 0 0 0
83 1 5.675210295115226 2.851500827518603 11.307018452014749 0 0 0
119 1 8.491114373525857 2.843616238630509 11.311877923282672 0 0 0
292 1 7.077599928185528 1.4153712695025338 9.904628818836546 0 0 0
257 1 4.255335256319957 1.4253093905285679 12.72689349077572 0 0 0
293 1 7.078596798725838 1.423180407897032 12.728239859771547 0 0 0
155 1 11.30701845191091 2.851500827615435 11.307018451910912 0 0 0
328 1 9.904628818852073 1.4153712695100467 9.904628818852073 0 0 0
364 1 12.728239859657837 1.4231804078910548 9.903631948392825 0 0 0
329 1 9.903631948392825 1.4231804078910548 12.728239859657837 0 0 0
365 1 12.726893490698926 1.4253093906386811 12.726893490698924 0 0 0
11 1 16.982228873518185 2.8377281821349327 11.317074659894605 -1 0 0
191 1 14.132077415271201 2.850151331870201 11.308706738036168 0 0 0
400 1 15.560584702271433 1.4216440447554177 9.904376693825498 0 0 0
401 1 15.55939754703536 1.422831199862971 12.728818811836838 0 0 0
226 1 1.4231804077918015 4.253988887372889 9.903631948509128 0 0 0
53 1 2.8515008275186027 5.675210295115226 11.307018452014747 0 0 0
59 1 2.8436162386305086 8.491114373525855 11.311877923282672 0 0 0
232 1 1.4153712695025338 7.077599928185529 9.904628818836546 0 0 0
227 1 1.4253093905285676 4.255335256319957 12.72689349077572 0 0 0
233 1 1.423180407897032 7.078596798725838 12.728239859771547 0 0 0
262 1 4.287481607035088 4.287481607035088 9.881954293289253 0 0 0
298 1 7.104597103813138 4.246654691545986 9.87763164315233 0 0 0
268 1 4.246654691545986 7.104597103813139 9.87763164315233 0 0 0
89 1 5.736772811137413 5.7367728111374126 11.245455935911536 0 0 0
95 1 5.781394216278499 8.491114373474078 11.200834530832156 0 0 0
125 1 8.491114373474078 5.781394216278498 11.200834530832156 0 0 0
131 1 8.491114373442455 8.491114373442455 11.166617234235186 0 0 0
263 1 4.281801872845803 4.281801872845803 12.700426874283552 0 0 0
299 1 7.100274453847429 4.287481607022914 12.694747140131447 0 0 0
269 1 4.287481607022911 7.100274453847429 12.694747140131447 0 0 0
305 1 7.104597103890686 7.104597103890685 12.735574055676718 0 0 0
334 1 9.8776316431474 4.2466546916411945 9.8776316431474 0 0 0
370 1 12.694747140030138 4.287481607124223 9.881954293191466 0 0 0
161 1 11.245455935816285 5.73677281123266 11.245455935816285 0 0 0
167 1 11.200834530730502 8.49111437347408 11.200834530730502 0 0 0
376 1 12.735574055581516 7.1045971038956175 9.877631643069853 0 0 0
335 1 9.881954293191466 4.287481607124223 12.694747140030138 0 0 0
371 1 12.700426874192269 4.281801872937094 12.700426874192269 0 0 0
341 1 9.877631643069854 7.1045971038956175 12.735574055581516 0 0 0
377 1 12.694747140042312 7.100274453945216 12.694747140042313 0 0 0
406 1 15.559048339360562 4.253988887468474 9.903631948523229 0 0 0
17 1 16.982228873554224 5.663781571466257 11.318447175608304 -1 0 0
23 1 16.98222887363204 8.491114373586228 11.319990777682529 -1 0 0
197 1 14.130727919684778 5.675210295195697 11.307018451934276 0 0 0
203 1 14.138612508543456 8.491114373525857 11.311877923203134 0 0 0
412 1 15.566857477770728 7.0775999281817805 9.904628818840294 0 0 0
407 1 15.556919356506818 4.25533525642912 12.726893490666557 0 0 0
413 1 15.55904833925533 7.078596798711737 12.728239859675956 0 0 0
65 1 2.851500827615435 11.30701845191091 11.307018451910912 0 0 0
238 1 1.4153712695100467 9.904628818852073 9.904628818852073 0 0 0
244 1 1.4231804078910548 12.728239859657837 9.903631948392825 0 0 0
239 1 1.4231804078910548 9.903631948392825 12.728239859657837 0 0 0
245 1 1.425309390638681 12.726893490698924 12.726893490698924 0 0 0
274 1 4.2466546916411945 9.8776316431474 9.8776316431474 0 0 0
101 1 5.73677281123266 11.245455935816285 11.245455935816285 0 0 0
137 1 8.49111437347408 11.200834530730502 11.200834530730502 0 0 0
280 1 4.287481607124223 12.694747140030138 9.881954293191466 0 0 0
316 1 7.1045971038956175 12.735574055581516 9.877631643069853 0 0 0
275 1 4.287481607124223 9.881954293191466 12.694747140030138 0 0 0
311 1 7.104597103895617 9.877631643069853 12.735574055581516 0 0 0
281 1 4.281801872937094 12.700426874192269 12.700426874192269 0 0 0
317 1 7.100274453945216 12.694747140042312 12.694747140042313 0 0 0
173 1 11.245455935721045 11.245455935721045 11.245455935721044 0 0 0
382 1 12.735574055486302 9.877631643064923 9.877631643064921 0 0 0
352 1 9.877631643064923 12.735574055486302 9.877631643064921 0 0 0
388 1 12.694747139941004 12.694747139941004 9.881954293093685 0 0 0
347 1 9.877631643064923 9.877631643064921 12.735574055486302 0 0 0
383 1 12.694747139941004 9.881954293093685 12.694747139941004 0 0 0
353 1 9.881954293093685 12.694747139941002 12.694747139941004 0 0 0
389 1 12.700426874100978 12.700426874100978 12.700426874100978 0 0 0
29 1 16.982228873554224 11.318447175505572 11.318447175505572 -1 0 0
209 1 14.130727919587944 11.307018451830439 11.307018451830439 0 0 0
418 1 15.566857477763211 9.904628818855821 9.904628818855823 0 0 0
424 1 15.559048339261308 12.728239859562256 9.903631948406922 0 0 0
419 1 15.559048339261308 9.903631948406922 12.728239859562256 0 0 0
425 1 15.556919356396707 12.726893490589761 12.726893490589761 0 0 0
41 1 2.8377281821349327 16.982228873518185 11.317074659894605 0 -1 0
71 1 2.850151331870201 14.132077415271201 11.308706738036166 0 0 0
250 1 1.421644044755418 15.560584702271433 9.904376693825498 0 0 0
251 1 1.422831199862971 15.55939754703536 12.728818811836838 0 0 0
77 1 5.663781571466257 16.982228873554224 11.318447175608304 0 -1 0
113 1 8.491114373586228 16.98222887363204 11.319990777682529 0 -1 0
286 1 4.253988887468474 15.559048339360562 9.903631948523229 0 0 0
107 1 5.675210295195697 14.130727919684778 11.307018451934278 0 0 0
143 1 8.491114373525857 14.138612508543456 11.311877923203134 0 0 0
322 1 7.0775999281817805 15.566857477770728 9.904628818840301 0 0 0
287 1 4.25533525642912 15.556919356506818 12.726893490666557 0 0 0
323 1 7.078596798711738 15.55904833925533 12.728239859675957 0 0 0
149 1 11.318447175505572 16.982228873554224 11.318447175505572 0 -1 0
179 1 11.30701845183044 14.130727919587944 11.307018451830439 0 0 0
358 1 9.904628818855821 15.566857477763213 9.904628818855823 0 0 0
394 1 12.728239859562258 15.559048339261308 9.903631948406922 0 0 0
359 1 9.903631948406922 15.559048339261308 12.728239859562258 0 0 0
395 1 12.726893490589761 15.556919356396707 12.726893490589761 0 0 0
5 1 16.982228873428273 16.982228873428273 11.317968854471138 -1 -1 0
185 1 14.144500564959767 16.982228873518185 11.317074659802413 0 -1 0
35 1 16.982228873518185 14.144500564959765 11.317074659802413 -1 0 0
215 1 14.132077415173528 14.132077415173528 11.308706737944796 0 0 0
430 1 15.560584702285976 15.560584702285976 9.904376693846974 0 0 0
431 1 15.559397547061463 15.559397547061463 12.728818811715772 0 0 0
43 1 2.8379941356476994 2.8379941356477 16.982228873507093 0 0 -1
48 1 2.8465347284577387 2.8465347284577387 14.135694018480926 0 0 0
222 1 1.4211674231733602 1.4211674231733604 15.561061323607946 0 0 0
79 1 5.6651540872157815 2.837728182040491 16.982228873518185 0 0 -1
115 1 8.491114373599988 2.8367623914540707 16.982228873600874 0 0 -1
258 1 4.253409935161731 1.4228311997430794 15.559397547155246 0 0 0
84 1 5.673522009133897 2.850151331775653 14.132077415365742 0 0 0
120 1 8.491114373535163 2.8459860709383444 14.136242676154655 0 0 0
294 1 7.077852053377737 1.4216440447711518 15.560584702255698 0 0 0
151 1 11.317074659894603 2.8377281821349327 16.982228873518185 0 0 -1
156 1 11.308706738036168 2.850151331870201 14.1320774152712 0 0 0
330 1 9.904376693825498 1.4216440447554177 15.560584702271433 0 0 0
366 1 12.728818811836838 1.4228311998629706 15.55939754703536 0 0 0
7 1 16.98222887340966 2.837649186405612 16.98222887340966 -1 0 -1
187 1 14.144234611260469 2.8379941357481124 16.982228873507097 0 0 -1
12 1 16.982228873507097 2.8379941357481124 14.144234611260469 -1 0 0
192 1 14.135694018384553 2.846534728554114 14.135694018384552 0 0 0
402 1 15.561061323641116 1.4211674231401945 15.561061323641116 0 0 0
49 1 2.8377281820404905 5.6651540872157815 16.982228873518185 0 0 -1
55 1 2.8367623914540707 8.491114373599988 16.982228873600874 0 0 -1
228 1 1.4228311997430794 4.253409935161731 15.559397547155246 0 0 0
54 1 2.850151331775653 5.673522009133897 14.132077415365742 0 0 0
60 1 2.845986070938345 8.491114373535163 14.136242676154655 0 0 0
234 1 1.4216440447711518 7.077852053377737 15.560584702255698 0 0 0
85 1 5.663781571363519 5.66378157136352 16.982228873554224 0 0 -1
91 1 5.662237969376782 8.491114373586228 16.98222887363204 0 0 -1
121 1 8.491114373586228 5.662237969376782 16.98222887363204 0 0 -1
127 1 8.491114373502013 8.491114373502013 16.982228873696357 0 0 -1
264 1 4.255335256352324 4.255335256352325 15.556919356616927 0 0 0
300 1 7.0785967985954334 4.253988887354769 15.55904833935458 0 0 0
270 1 4.253988887354768 7.0785967985954334 15.55904833935458 0 0 0
90 1 5.67521029509186 5.67521029509186 14.130727919781611 0 0 0
96 1 5.670350823880113 8.491114373525855 14.13861250864155 0 0 0
126 1 8.491114373525857 5.670350823880112 14.13861250864155 0 0 0
132 1 8.491114373461478 8.491114373461478 14.152681478579245 0 0 0
306 1 7.077599928197302 7.077599928197302 15.56685747777824 0 0 0
157 1 11.318447175608304 5.663781571466257 16.982228873554224 0 0 -1
163 1 11.319990777682529 8.491114373586228 16.98222887363204 0 0 -1
336 1 9.903631948523229 4.253988887468474 15.559048339360562 0 0 0
372 1 12.726893490666557 4.25533525642912 15.556919356506818 0 0 0
162 1 11.307018451934278 5.675210295195697 14.130727919684778 0 0 0
168 1 11.311877923203134 8.491114373525857 14.138612508543456 0 0 0
342 1 9.904628818840294 7.0775999281817805 15.56685747777073 0 0 0
378 1 12.728239859675957 7.078596798711738 15.55904833925533 0 0 0
13 1 16.982228873428273 5.664259892553024 16.982228873428273 -1 0 -1
19 1 16.98222887352353 8.491114373677219 16.98222887352353 -1 0 -1
193 1 14.144500565054209 5.665154087307972 16.982228873518185 0 0 -1
199 1 14.14546635556867 8.491114373599988 16.982228873600874 0 0 -1
408 1 15.559397547181351 4.253409935282795 15.559397547181351 0 0 0
18 1 16.982228873518185 5.665154087307972 14.144500565054209 -1 0 0
24 1 16.982228873600874 8.491114373599988 14.14546635556867 -1 0 0
198 1 14.132077415268075 5.6735220092252705 14.132077415268075 0 0 0
204 1 14.136242676061416 8.491114373535163 14.136242676061416 0 0 0
414 1 15.560584702270235 7.07785205335626 15.560584702270235 0 0 0
61 1 2.8377281821349327 11.317074659894605 16.982228873518185 0 0 -1
66 1 2.850151331870201 11.308706738036166 14.132077415271201 0 0 0
240 1 1.4216440447554184 9.904376693825498 15.560584702271433 0 0 0
246 1 1.4228311998629715 12.728818811836838 15.55939754703536 0 0 0
97 1 5.663781571466256 11.318447175608304 16.982228873554224 0 0 -1
133 1 8.491114373586228 11.319990777682527 16.98222887363204 0 0 -1
276 1 4.253988887468474 9.903631948523229 15.559048339360562 0 0 0
102 1 5.675210295195697 11.307018451934276 14.130727919684778 0 0 0
138 1 8.491114373525857 11.311877923203134 14.138612508543456 0 0 0
312 1 7.07759992818178 9.904628818840294 15.566857477770728 0 0 0
282 1 4.25533525642912 12.726893490666557 15.556919356506818 0 0 0
318 1 7.078596798711738 12.728239859675957 15.55904833925533 0 0 0
169 1 11.318447175505572 11.318447175505572 16.982228873554224 0 0 -1
174 1 11.30701845183044 11.30701845183044 14.130727919587944 0 0 0
348 1 9.904628818855823 9.904628818855823 15.566857477763213 0 0 0
384 1 12.728239859562258 9.903631948406922 15.559048339261308 0 0 0
354 1 9.903631948406922 12.728239859562256 15.559048339261308 0 0 0
390 1 12.726893490589763 12.726893490589761 15.556919356396707 0 0 0
25 1 16.982228873428273 11.317968854471138 16.982228873428273 -1 0 -1
205 1 14.144500564959767 11.317074659802413 16.982228873518185 0 0 -1
30 1 16.982228873518185 11.317074659802413 14.144500564959765 -1 0 0
210 1 14.132077415173528 11.308706737944796 14.132077415173528 0 0 0
420 1 15.560584702285974 9.904376693846974 15.560584702285976 0 0 0
426 1 15.559397547061463 12.728818811715772 15.559397547061463 0 0 0
37 1 2.8376491864056126 16.98222887340966 16.98222887340966 0 -1 -1
67 1 2.837994135748113 14.144234611260469 16.982228873507097 0 0 -1
42 1 2.8379941357481124 16.982228873507097 14.144234611260469 0 -1 0
72 1 2.8465347285541145 14.135694018384553 14.135694018384552 0 0 0
252 1 1.4211674231401947 15.561061323641116 15.561061323641116 0 0 0
73 1 5.664259892553024 16.982228873428273 16.98222887342827 0 -1 -1
109 1 8.491114373677219 16.98222887352353 16.98222887352353 0 -1 -1
103 1 5.665154087307972 14.144500565054209 16.982228873518185 0 0 -1
139 1 8.491114373599988 14.14546635556867 16.982228873600874 0 0 -1
78 1 5.665154087307972 16.982228873518185 14.144500565054207 0 -1 0
114 1 8.491114373599988 16.982228873600874 14.145466355568669 0 -1 0
288 1 4.253409935282795 15.559397547181351 15.559397547181351 0 0 0
108 1 5.673522009225271 14.132077415268075 14.132077415268075 0 0 0
144 1 8.491114373535165 14.136242676061416 14.136242676061414 0 0 0
324 1 7.07785205335626 15.560584702270235 15.560584702270235 0 0 0
145 1 11.317968854471138 16.982228873428273 16.982228873428273 0 -1 -1
175 1 11.317074659802413 14.144500564959765 16.982228873518185 0 0 -1
150 1 11.317074659802413 16.982228873518185 14.144500564959767 0 -1 0
180 1 11.308706737944798 14.132077415173528 14.132077415173528 0 0 0
360 1 9.904376693846974 15.560584702285976 15.560584702285976 0 0 0
396 1 12.728818811715772 15.559397547061463 15.559397547061463 0 0 0
1 1 16.982228873303594 16.982228873303594 16.982228873303594 -1 -1 -1
181 1 14.144579560592033 16.98222887340966 16.98222887340966 0 -1 -1
31 1 16.98222887340966 14.144579560592033 16.98222887340966 -1 0 -1
211 1 14.144234611160053 14.144234611160053 16.982228873507097 0 0 -1
6 1 16.98222887340966 16.98222887340966 14.144579560592033 -1 -1 0
186 1 14.144234611160053 16.982228873507097 14.144234611160053 0 -1 0
36 1 16.982228873507097 14.144234611160053 14.144234611160053 -1 0 0
216 1 14.135694018288179 14.135694018288179 14.135694018288179 0 0 0
432 1 15.56106132367428 15.56106132367428 15.56106132367428 0 0 0

Velocities

44 0 0 0
217 0 0 0
253 0 0 0
80 0 0 0
116 0 0 0
289 0 0 0
152 0 0 0
325 0 0 0
361 0 0 0
8 0 0 0
188 0 0 0
397 0 0 0
223 0 0 0
50 0 0 0
56 0 0 0
229 0 0 0
259 0 0 0
295 0 0 0
265 0 0 0
86 0 0 0
92 0 0 0
122 0 0 0
128 0 0 0
301 0 0 0
331 0 0 0
367 0 0 0
158 0 0 0
164 0 0 0
337 0 0 0
373 0 0 0
403 0 0 0
14 0 0 0
20 0 0 0
194 0 0 0
200 0 0 0
409 0 0 0
62 0 0 0
235 0 0 0
241 0 0 0
271 0 0 0
98 0 0 0
134 0 0 0
307 0 0 0
277 0 0 0
313 0 0 0
170 0 0 0
343 0 0 0
379 0 0 0
349 0 0 0
385 0 0 0
26 0 0 0
206 0 0 0
415 0 0 0
421 0 0 0
38 0 0 0
68 0 0 0
247 0 0 0
74 0 0 0
110 0 0 0
283 0 0 0
104 0 0 0
140 0 0 0
319 0 0 0
146 0 0 0
176 0 0 0
355 0 0 0
391 0 0 0
2 0 0 0
182 0 0 0
32 0 0 0
212 0 0 0
427 0 0 0
218 0 0 0
45 0 0 0
46 0 0 0
219 0 0 0
254 0 0 0
290 0 0 0
255 0 0 0
81 0 0 0
82 0 0 0
117 0 0 0
118 0 0 0
291 0 0 0
326 0 0 0
362 0 0 0
153 0 0 0
154 0 0 0
327 0 0 0
363 0 0 0
398 0 0 0
9 0 0 0
10 0 0 0
189 0 0 0
190 0 0 0
399 0 0 0
224 0 0 0
230 0 0 0
225 0 0 0
51 0 0 0
52 0 0 0
57 0 0 0
58 0 0 0
231 0 0 0
260 0 0 0
296 0 0 0
266 0 0 0
302 0 0 0
261 0 0 0
297 0 0 0
267 0 0 0
87 0 0 0
88 0 0 0
93 0 0 0
94 0 0 0
123 0 0 0
124 0 0 0
129 0 0 0
332 0 0 0
368 0 0 0
338 0 0 0
374 0 0 0
333 0 0 0
369 0 0 0
159 0 0 0
160 0 0 0
165 0 0 0
166 0 0 0
375 0 0 0
404 0 0 0
410 0 0 0
405 0 0 0
15 0 0 0
16 0 0 0
21 0 0 0
22 0 0 0
195 0 0 0
196 0 0 0
201 0 0 0
202 0 0 0
411 0 0 0
236 0 0 0
242 0 0 0
63 0 0 0
64 0 0 0
237 0 0 0
243 0 0 0
272 0 0 0
308 0 0 0
278 0 0 0
314 0 0 0
273 0 0 0
99 0 0 0
100 0 0 0
135 0 0 0
136 0 0 0
279 0 0 0
315 0 0 0
344 0 0 0
380 0 0 0
350 0 0 0
386 0 0 0
171 0 0 0
172 0 0 0
381 0 0 0
351 0 0 0
387 0 0 0
416 0 0 0
422 0 0 0
27 0 0 0
28 0 0 0
207 0 0 0
208 0 0 0
417 0 0 0
423 0 0 0
248 0 0 0
39 0 0 0
40 0 0 0
69 0 0 0
70 0 0 0
249 0 0 0
284 0 0 0
320 0 0 0
75 0 0 0
76 0 0 0
111 0 0 0
112 0 0 0
285 0 0 0
105 0 0 0
106 0 0 0
141 0 0 0
142 0 0 0
321 0 0 0
356 0 0 0
392 0 0 0
147 0 0 0
148 0 0 0
177 0 0 0
178 0 0 0
357 0 0 0
393 0 0 0
428 0 0 0
3 0 0 0
4 0 0 0
183 0 0 0
184 0 0 0
33 0 0 0
34 0 0 0
213 0 0 0
214 0 0 0
429 0 0 0
47 0 0 0
220 0 0 0
221 0 0 0
256 0 0 0
83 0 0 0
119 0 0 0
292 0 0 0
257 0 0 0
293 0 0 0
155 0 0 0
328 0 0 0
364 0 0 0
329 0 0 0
365 0 0 0
11 0 0 0
191 0 0 0
400 0 0 0
401 0 0 0
226 0 0 0
53 0 0 0
59 0 0 0
232 0 0 0
227 0 0 0
233 0 0 0
262 0 0 0
298 0 0 0
268 0 0 0
89 0 0 0
95 0 0 0
125 0 0 0
131 0 0 0
263 0 0 0
299 0 0 0
269 0 0 0
305 0 0 0
334 0 0 0
370 0 0 0
161 0 0 0
167 0 0 0
376 0 0 0
335 0 0 0
371 0 0 0
341 0 0 0
377 0 0 0
406 0 0 0
17 0 0 0
23 0 0 0
197 0 0 0
203 0 0 0
412 0 0 0
407 0 0 0
413 0 0 0
65 0 0 0
238 0 0 0
244 0 0 0
239 0 0 0
245 0 0 0
274 0 0 0
101 0 0 0
137 0 0 0
280 0 0 0
316 0 0 0
275 0 0 0
311 0 0 0
281 0 0 0
317 0 0 0
173 0 0 0
382 0 0 0
352 0 0 0
388 0 0 0
347 0 0 0
383 0 0 0
353 0 0 0
389 0 0 0
29 0 0 0
209 0 0 0
418 0 0 0
424 0 0 0
419 0 0 0
425 0 0 0
41 0 0 0
71 0 0 0
250 0 0 0
251 0 0 0
77 0 0 0
113 0 0 0
286 0 0 0
107 0 0 0
143 0 0 0
322 0 0 0
287 0 0 0
323 0 0 0
149 0 0 0
179 0 0 0
358 0 0 0
394 0 0 0
359 0 0 0
395 0 0 0
5 0 0 0
185 0 0 0
35 0 0 0
215 0 0 0
430 0 0 0
431 0 0 0
43 0 0 0
48 0 0 0
222 0 0 0
79 0 0 0
115 0 0 0
258 0 0 0
84 0 0 0
120 0 0 0
294 0 0 0
151 0 0 0
156 0 0 0
330 0 0 0
366 0 0 0
7 0 0 0
187 0 0 0
12 0 0 0
192 0 0 0
402 0 0 0
49 0 0 0
55 0 0 0
228 0 0 0
54 0 0 0
60 0 0 0
234 0 0 0
85 0 0 0
91 0 0 0
121 0 0 0
127 0 0 0
264 0 0 0
300 0 0 0
270 0 0 0
90 0 0 0
96 0 0 0
126 0 0 0
132 0 0 0
306 0 0 0
157 0 0 0
163 0 0 0
336 0 0 0
372 0 0 0
162 0 0 0
168 0 0 0
342 0 0 0
378 0 0 0
13 0 0 0
19 0 0 0
193 0 0 0
199 0 0 0
408 0 0 0
18 0 0 0
24 0 0 0
198 0 0 0
204 0 0 0
414 0 0 0
61 0 0 0
66 0 0 0
240 0 0 0
246 0 0 0
97 0 0 0
133 0 0 0
276 0 0 0
102 0 0 0
138 0 0 0
312 0 0 0
282 0 0 0
318 0 0 0
169 0 0 0
174 0 0 0
348 0 0 0
384 0 0 0
354 0 0 0
390 0 0 0
25 0 0 0
205 0 0 0
30 0 0 0
210 0 0 0
420 0 0 0
426 0 0 0
37 0 0 0
67 0 0 0
42 0 0 0
72 0 0 0
252 0 0 0
73 0 0 0
109 0 0 0
103 0 0 0
139 0 0 0
78 0 0 0
114 0 0 0
288 0 0 0
108 0 0 0
144 0 0 0
324 0 0 0
145 0 0 0
175 0 0 0
150 0 0 0
180 0 0 0
360 0 0 0
396 0 0 0
1 0 0 0
181 0 0 0
31 0 0 0
211 0 0 0
6 0 0 0
186 0 0 0
36 0 0 0
216 0 0 0
432 0 0 0
