Ta32 Ti34 Nb32 W10                      
   1.00000000000000     
     9.1216997255111210    0.0000000000000000    0.0000000000000000
     0.0000000000000000    8.3788097184575001    0.0000000000000000
     0.0000000000000000    0.0000000000000000   23.6988662189480195
   Ta   Ti   Nb   W 
    32    34    32    10
Selective dynamics
Direct
  0.4994571676000206  0.2222724271065530  0.2224159987990358   F   F   T
  0.0007011838891344  0.2220545098711071  0.2223407626408691   F   F   T
  0.2495600548973158  0.2219808073786780  0.0549157076747169   F   F   T
  0.4999658814041439  0.7775905453697405  0.1099283174867635   F   F   T
  0.0000479543384628  0.4446843941741605  0.1098781924356991   F   F   T
  0.0014814358292270  0.4448616624194131  0.4444001144827953   F   F   T
  0.2504715557544870  0.7774287044735715  0.6111786314337027   F   F   T
  0.0006088878015333  0.6665951219688608  0.0001897056800402   F   F   T
  0.7506980600066626  0.5553766427508293  0.7223802532768313   F   F   T
  0.4998717066019083  0.6667754918198341  0.3333103466141195   F   F   T
  0.2497759176542687  0.8886013219851279  0.7221434460606297   F   F   T
  0.9998461222754713  0.4451289160174881  0.7768454363426470   F   F   T
  0.0005745086022202  0.3337520233871842  0.6668004419705060   F   F   T
  0.2495106240223279  0.6669077821474545  0.8324287893839063   F   F   T
  0.7497640967820587  0.1110273617760384  0.6109657490668640   F   F   T
  0.0012324422402941  0.6663767338770299  0.6678167186759815   F   F   T
  0.2498146343417176  0.7778808049419794  0.2782272544303854   F   F   T
  0.4992161048643524  0.6670732047535068  0.6657916964330231   F   F   T
  0.5003964755988406  0.7780107963528877  0.7781481923643049   F   F   T
  0.4996118710759134  0.9988101461746552  0.0001451310136038   F   F   T
  0.5001801896752340  0.1110750101897224  0.7780736977351695   F   F   T
  0.4999855333282923  0.3330726462240889  0.3334779817971483   F   F   T
  0.0003203214657930  0.8889585353473137  0.2224451712017600   F   F   T
  0.2491167970940609  0.5557488998875613  0.3894617941258859   F   F   T
  0.4995821383535883  0.6669809689161141  0.0002315019841065   F   F   T
  0.7502763096117064  0.4453118987079705  0.6102808900867529   F   F   T
  0.7504420632422253  0.7775326269303378  0.6105179018671100   F   F   T
  0.0002089534286114  0.1110766638437468  0.1097997749422402   F   F   T
  0.2497824446881296  0.9997066822697889  0.8327772089828930   F   F   T
  0.5009183035403240  0.5558076609571145  0.8901121804477367   F   F   T
  0.9997743751242751  0.8900128466043853  0.8892722819100324   F   F   T
  0.2499611531302293  0.4440520675297819  0.2779035331975845   F   F   T
  0.4993217237138055  0.5557954330311361  0.5566577186601596   F   F   T
  0.0006181661184712  0.8889658502236486  0.5552110502950028   F   F   T
  0.5000270802090654  0.3328561714445470  0.6657606328342958   F   F   T
  0.7503350559090833  0.2219781816537960  0.0546835040807784   F   F   T
  0.5001069796275743  0.1113223801788976  0.4441021463139240   F   F   T
  0.7500853215986609  0.7777180083227506  0.2780358866912424   F   F   T
  0.7501204241673207  0.1110497874094492  0.2779867421032954   F   F   T
  0.7498964864102220  0.9998707849003807  0.1665985235215141   F   F   T
  0.9999488100767664  0.5558270728479329  0.8881362397533321   F   F   T
  0.7485847158406287  0.8898554163342212  0.3891927831978274   F   F   T
  0.5000746504558933  0.8881926258750497  0.8914671150979536   F   F   T
  0.4998462243517281  0.3339880056526709  0.9998742636603233   F   F   T
  0.5002779828903812  0.2223285069596130  0.8889669661551149   F   F   T
  0.0004289236194879  0.6669682512799824  0.3336308758661722   F   F   T
  0.7492359320902082  0.2219424740348970  0.3893182312361742   F   F   T
  0.4990507496593892  0.7789199182344433  0.4445216528652861   F   F   T
  0.7504724678271089  0.1111558270092985  0.9455042025337631   F   F   T
  0.7502944376332223  0.8894536019184542  0.7220340055960772   F   F   T
  0.2495517935165452  0.5554722214728542  0.7218338679315726   F   F   T
  0.2492706110137775  0.8892108242250814  0.3890113368423087   F   F   T
  0.0004841176504584  0.2222184645827170  0.5545831116189712   F   F   T
  0.4998581739266967  0.1108533811737402  0.1106115087933523   F   F   T
  0.7495056616346218  0.5554175849494172  0.3890542899789519   F   F   T
  0.7498974037428923  0.7777851859602976  0.9455310460467146   F   F   T
  0.7502289433568023  0.6669164623718089  0.5012648715157251   F   F   T
  0.2498951653222576  0.3332369760807907  0.8330459349112090   F   F   T
  0.0007319690377372  0.9997596865573257  0.3334159438885984   F   F   T
  0.5005552856449071  0.5554270796937928  0.2216003941833236   F   F   T
  0.7498102399859761  0.3330945808141621  0.5004731867910169   F   F   T
  0.5003063270432619  0.4442582016948009  0.7778795609576028   F   F   T
  0.0003011545578602  0.3332009653944681  0.3332757404352572   F   F   T
  0.2500659537346763  0.3333697154340527  0.1667078542929949   F   F   T
  0.0004593157160002  0.5554943552271254  0.5555117528806157   F   F   T
  0.7499589664007402  0.4446196611862021  0.2779182218835942   F   F   T
  0.0034042081272148  0.7780540620641574  0.4446020101722989   F   F   T
  0.9992044502014608  0.2199869616147083  0.8890455821302409   F   F   T
  0.4998168687279900  0.4450374937338566  0.1103093810101105   F   F   T
  0.2529331584649555  0.9983243985274228  0.4986238540197737   F   F   T
  0.4975832870308210  0.2208476664973844  0.5556520594203510   F   F   T
  0.2514682671844923  0.2222673144706420  0.7228835297816759   F   F   T
  0.7498894854668166  0.9998272795474890  0.5004587333057670   F   F   T
  0.9999800691477887  0.0001091796733590  0.0000826794196151   F   F   T
  0.7503600807643522  0.6669337785343927  0.8335788722580371   F   F   T
  0.7513694862986284  0.2207498516220596  0.7223673901473706   F   F   T
  0.2501330520519929  0.6679104300834382  0.5000390109302062   F   F   T
  0.2504580636488072  0.7771374640912470  0.9446367820719764   F   F   T
  0.2492790023416731  0.3319686323316233  0.4994764499185442   F   F   T
  0.0009289644364827  0.3332964167903967  0.0003434311383001   F   F   T
  0.9999297653457830  0.7775053993904422  0.1110848370512005   F   F   T
  0.7487214725870288  0.8899315416191769  0.0556713983939286   F   F   T
  0.5005938200933713  0.9999764424603157  0.3342042942364852   F   F   T
  0.5008810097877685  0.4462056418891578  0.4443106108497115   F   F   T
  0.7495892499497998  0.3329251729835221  0.8331068008415982   F   F   T
  0.7500503501359645  0.9972480962473469  0.8335526415911928   F   F   T
  0.0003188102599410  0.5555772344924748  0.2220101185713565   F   F   T
  0.9986838604704076  0.9990498352635981  0.6665463667125181   F   F   T
  0.7498685242076348  0.5557779198470598  0.0551301197454857   F   F   T
  0.4996707942471517  0.8885731841932554  0.2223168792663895   F   F   T
  0.7498829497651229  0.3336502712137985  0.1663603895270030   F   F   T
  0.4957225303476420  0.8900152688797149  0.5553394345921397   F   F   T
  0.2511062279074494  0.8890306493254840  0.0551455226680309   F   F   T
  0.0012608868751300  0.1108208110333493  0.4446275344447906   F   F   T
  0.2500160050277884  0.9999907933716514  0.1667362489496257   F   F   T
  0.2483608885329858  0.4475117442131591  0.6107170278197614   F   F   T
  0.2507630857270939  0.1107111887736210  0.6102943369286077   F   F   T
  0.7475495221513739  0.4448255294013421  0.9452217024801908   F   F   T
  0.2500587314067104  0.5556023311809071  0.0551517336944563   F   F   T
  0.2494184020951380  0.1109815939134862  0.9452050046786893   F   F   T
  0.2502745500970818  0.6666466127873250  0.1670036326245522   F   F   T
  0.2494411266852055  0.1120148037834738  0.2780305535436888   F   F   T
  0.9999629411264692  0.7769373398549035  0.7768764803796471   F   F   T
  0.2493584891262870  0.2213866239682503  0.3899628316503311   F   F   T
  0.9995397471666081  0.1113789224635084  0.7774309720364042   F   F   T
  0.2498069767961155  0.4447119998533751  0.9452702502677146   F   F   T
  0.7499436562060993  0.6665024807111450  0.1664882769822134   F   F   T
  0.4996546992342843  0.0010100870191607  0.6660958162996132   F   F   T
 
  0.00000000E+00  0.00000000E+00  0.00000000E+00
  0.00000000E+00  0.00000000E+00  0.00000000E+00
  0.00000000E+00  0.00000000E+00  0.00000000E+00
  0.00000000E+00  0.00000000E+00  0.00000000E+00
  0.00000000E+00  0.00000000E+00  0.00000000E+00
  0.00000000E+00  0.00000000E+00  0.00000000E+00
  0.00000000E+00  0.00000000E+00  0.00000000E+00
  0.00000000E+00  0.00000000E+00  0.00000000E+00
  0.00000000E+00  0.00000000E+00  0.00000000E+00
  0.00000000E+00  0.00000000E+00  0.00000000E+00
  0.00000000E+00  0.00000000E+00  0.00000000E+00
  0.00000000E+00  0.00000000E+00  0.00000000E+00
  0.00000000E+00  0.00000000E+00  0.00000000E+00
  0.00000000E+00  0.00000000E+00  0.00000000E+00
  0.00000000E+00  0.00000000E+00  0.00000000E+00
  0.00000000E+00  0.00000000E+00  0.00000000E+00
  0.00000000E+00  0.00000000E+00  0.00000000E+00
  0.00000000E+00  0.00000000E+00  0.00000000E+00
  0.00000000E+00  0.00000000E+00  0.00000000E+00
  0.00000000E+00  0.00000000E+00  0.00000000E+00
  0.00000000E+00  0.00000000E+00  0.00000000E+00
  0.00000000E+00  0.00000000E+00  0.00000000E+00
  0.00000000E+00  0.00000000E+00  0.00000000E+00
  0.00000000E+00  0.00000000E+00  0.00000000E+00
  0.00000000E+00  0.00000000E+00  0.00000000E+00
  0.00000000E+00  0.00000000E+00  0.00000000E+00
  0.00000000E+00  0.00000000E+00  0.00000000E+00
  0.00000000E+00  0.00000000E+00  0.00000000E+00
  0.00000000E+00  0.00000000E+00  0.00000000E+00
  0.00000000E+00  0.00000000E+00  0.00000000E+00
  0.00000000E+00  0.00000000E+00  0.00000000E+00
  0.00000000E+00  0.00000000E+00  0.00000000E+00
  0.00000000E+00  0.00000000E+00  0.00000000E+00
  0.00000000E+00  0.00000000E+00  0.00000000E+00
  0.00000000E+00  0.00000000E+00  0.00000000E+00
  0.00000000E+00  0.00000000E+00  0.00000000E+00
  0.00000000E+00  0.00000000E+00  0.00000000E+00
  0.00000000E+00  0.00000000E+00  0.00000000E+00
  0.00000000E+00  0.00000000E+00  0.00000000E+00
  0.00000000E+00  0.00000000E+00  0.00000000E+00
  0.00000000E+00  0.00000000E+00  0.00000000E+00
  0.00000000E+00  0.00000000E+00  0.00000000E+00
  0.00000000E+00  0.00000000E+00  0.00000000E+00
  0.00000000E+00  0.00000000E+00  0.00000000E+00
  0.00000000E+00  0.00000000E+00  0.00000000E+00
  0.00000000E+00  0.00000000E+00  0.00000000E+00
  0.00000000E+00  0.00000000E+00  0.00000000E+00
  0.00000000E+00  0.00000000E+00  0.00000000E+00
  0.00000000E+00  0.00000000E+00  0.00000000E+00
  0.00000000E+00  0.00000000E+00  0.00000000E+00
  0.00000000E+00  0.00000000E+00  0.00000000E+00
  0.00000000E+00  0.00000000E+00  0.00000000E+00
  0.00000000E+00  0.00000000E+00  0.00000000E+00
  0.00000000E+00  0.00000000E+00  0.00000000E+00
  0.00000000E+00  0.00000000E+00  0.00000000E+00
  0.00000000E+00  0.00000000E+00  0.00000000E+00
  0.00000000E+00  0.00000000E+00  0.00000000E+00
  0.00000000E+00  0.00000000E+00  0.00000000E+00
  0.00000000E+00  0.00000000E+00  0.00000000E+00
  0.00000000E+00  0.00000000E+00  0.00000000E+00
  0.00000000E+00  0.00000000E+00  0.00000000E+00
  0.00000000E+00  0.00000000E+00  0.00000000E+00
  0.00000000E+00  0.00000000E+00  0.00000000E+00
  0.00000000E+00  0.00000000E+00  0.00000000E+00
  0.00000000E+00  0.00000000E+00  0.00000000E+00
  0.00000000E+00  0.00000000E+00  0.00000000E+00
  0.00000000E+00  0.00000000E+00  0.00000000E+00
  0.00000000E+00  0.00000000E+00  0.00000000E+00
  0.00000000E+00  0.00000000E+00  0.00000000E+00
  0.00000000E+00  0.00000000E+00  0.00000000E+00
  0.00000000E+00  0.00000000E+00  0.00000000E+00
  0.00000000E+00  0.00000000E+00  0.00000000E+00
  0.00000000E+00  0.00000000E+00  0.00000000E+00
  0.00000000E+00  0.00000000E+00  0.00000000E+00
  0.00000000E+00  0.00000000E+00  0.00000000E+00
  0.00000000E+00  0.00000000E+00  0.00000000E+00
  0.00000000E+00  0.00000000E+00  0.00000000E+00
  0.00000000E+00  0.00000000E+00  0.00000000E+00
  0.00000000E+00  0.00000000E+00  0.00000000E+00
  0.00000000E+00  0.00000000E+00  0.00000000E+00
  0.00000000E+00  0.00000000E+00  0.00000000E+00
  0.00000000E+00  0.00000000E+00  0.00000000E+00
  0.00000000E+00  0.00000000E+00  0.00000000E+00
  0.00000000E+00  0.00000000E+00  0.00000000E+00
  0.00000000E+00  0.00000000E+00  0.00000000E+00
  0.00000000E+00  0.00000000E+00  0.00000000E+00
  0.00000000E+00  0.00000000E+00  0.00000000E+00
  0.00000000E+00  0.00000000E+00  0.00000000E+00
  0.00000000E+00  0.00000000E+00  0.00000000E+00
  0.00000000E+00  0.00000000E+00  0.00000000E+00
  0.00000000E+00  0.00000000E+00  0.00000000E+00
  0.00000000E+00  0.00000000E+00  0.00000000E+00
  0.00000000E+00  0.00000000E+00  0.00000000E+00
  0.00000000E+00  0.00000000E+00  0.00000000E+00
  0.00000000E+00  0.00000000E+00  0.00000000E+00
  0.00000000E+00  0.00000000E+00  0.00000000E+00
  0.00000000E+00  0.00000000E+00  0.00000000E+00
  0.00000000E+00  0.00000000E+00  0.00000000E+00
  0.00000000E+00  0.00000000E+00  0.00000000E+00
  0.00000000E+00  0.00000000E+00  0.00000000E+00
  0.00000000E+00  0.00000000E+00  0.00000000E+00
  0.00000000E+00  0.00000000E+00  0.00000000E+00
  0.00000000E+00  0.00000000E+00  0.00000000E+00
  0.00000000E+00  0.00000000E+00  0.00000000E+00
  0.00000000E+00  0.00000000E+00  0.00000000E+00
  0.00000000E+00  0.00000000E+00  0.00000000E+00
  0.00000000E+00  0.00000000E+00  0.00000000E+00
  0.00000000E+00  0.00000000E+00  0.00000000E+00
