Ta32 Ti34 Nb32 W10
1.0
   9.1216997255111210    0.0000000000000000    0.0000000000000000
   0.0000000000000000    8.3788097184575001    0.0000000000000000
   0.0000000000000000    0.0000000000000000   23.6988662189480195
Ta Ti Nb W
32 34 32 10
Selective dynamics
direct
   0.4994571676000188    0.2222724271065520    0.2221844125832531 F F T Ta
   0.0007011838891362    0.2220545098711042    0.2222969547399315 F F T Ta
   0.2495600548973154    0.2219808073786752    0.0552218671863136 F F T Ta
   0.4999658814041453    0.7775905453697426    0.1106250486140423 F F T Ta
   0.0000479543384657    0.4446843941741609    0.1107595639448087 F F T Ta
   0.0014814358292294    0.4448616624194111    0.4441870424789326 F F T Ta
   0.2504715557544857    0.7774287044735712    0.6108685672411065 F F T Ta
   0.0006088878015314    0.6665951219688606    0.0000564157924039 F F T Ta
   0.7506980600066611    0.5553766427508326    0.7223370811846667 F F T Ta
   0.4998717066019089    0.6667754918198314    0.3332488289665618 F F T Ta
   0.2497759176542704    0.8886013219851306    0.7219820401393814 F F T Ta
  -0.0001538777245262    0.4451289160174867    0.7776772436159906 F F T Ta
   0.0005745086022187    0.3337520233871848    0.6665706801487550 F F T Ta
   0.2495106240223294    0.6669077821474518    0.8333599043358833 F F T Ta
   0.7497640967820619    0.1110273617760402    0.6113127594073537 F F T Ta
   0.0012324422402965    0.6663767338770308    0.6667589202653421 F F T Ta
   0.2498146343417189    0.7778808049419761    0.2778721876399691 F F T Ta
   0.4992161048643542    0.6670732047535052    0.6663259174694899 F F T Ta
   0.5003964755988403    0.7780107963528858    0.7779960255058993 F F T Ta
   0.4996118710759145   -0.0011898538253416    0.0002092495871261 F F T Ta
   0.5001801896752340    0.1110750101897228    0.7777102048961968 F F T Ta
   0.4999855333282915    0.3330726462240890    0.3335002845253261 F F T Ta
   0.0003203214657926    0.8889585353473141    0.2222758329792449 F F T Ta
   0.2491167970940612    0.5557488998875585    0.3892463970274340 F F T Ta
   0.4995821383535909    0.6669809689161166    0.0000962085192487 F F T Ta
   0.7502763096117065    0.4453118987079718    0.6108467221356220 F F T Ta
   0.7504420632422223    0.7775326269303356    0.6109905865278420 F F T Ta
   0.0002089534286128    0.1110766638437440    0.1106420942708451 F F T Ta
   0.2497824446881278   -0.0002933177302098    0.8332720978506815 F F T Ta
   0.5009183035403245    0.5558076609571151    0.8896547066660992 F F T Ta
  -0.0002256248757224    0.8900128466043863    0.8894052059858858 F F T Ta
   0.2499611531302305    0.4440520675297828    0.2777786518139822 F F T Ta
   0.4993217237138038    0.5557954330311395    0.5558412334762918 F F T Ti
   0.0006181661184688    0.8889658502236466    0.5556698044370203 F F T Ti
   0.5000270802090673    0.3328561714445448    0.6666470210034284 F F T Ti
   0.7503350559090847    0.2219781816537967    0.0554064020510288 F F T Ti
   0.5001069796275747    0.1113223801788951    0.4442993439930025 F F T Ti
   0.7500853215986627    0.7777180083227531    0.2778550345578690 F F T Ti
   0.7501204241673179    0.1110497874094459    0.2779134634888824 F F T Ti
   0.7498964864102219   -0.0001292150996172    0.1665200910555622 F F T Ti
  -0.0000511899232333    0.5558270728479344    0.8887023250580404 F F T Ti
   0.7485847158406278    0.8898554163342209    0.3890418402806057 F F T Ti
   0.5000746504558943    0.8881926258750515    0.8896041809652653 F F T Ti
   0.4998462243517314    0.3339880056526712   -0.0000119449792834 F F T Ti
   0.5002779828903824    0.2223285069596150    0.8889666155683655 F F T Ti
   0.0004289236194867    0.6669682512799796    0.3334865845305007 F F T Ti
   0.7492359320902069    0.2219424740348988    0.3892039890393464 F F T Ti
   0.4990507496593882    0.7789199182344452    0.4445007074576243 F F T Ti
   0.7504724678271103    0.1111558270092957    0.9444180717995363 F F T Ti
   0.7502944376332240    0.8894536019184568    0.7222225599458375 F F T Ti
   0.2495517935165419    0.5554722214728531    0.7218703431924005 F F T Ti
   0.2492706110137771    0.8892108242250811    0.3894639861429106 F F T Ti
   0.0004841176504550    0.2222184645827146    0.5558272347654557 F F T Ti
   0.4998581739266997    0.1108533811737418    0.1107399222769636 F F T Ti
   0.7495056616346191    0.5554175849494187    0.3890133779922089 F F T Ti
   0.7498974037428945    0.7777851859602998    0.9442398911268398 F F T Ti
   0.7502289433568059    0.6669164623718064    0.4998680576375514 F F T Ti
   0.2498951653222598    0.3332369760807905    0.8333550674743501 F F T Ti
   0.0007319690377400   -0.0002403134426772    0.3333241389969969 F F T Ti
   0.5005552856449084    0.5554270796937933    0.2219207200823024 F F T Ti
   0.7498102399859732    0.3330945808141647    0.4999738191343905 F F T Ti
   0.5003063270432624    0.4442582016947982    0.7778945817211680 F F T Ti
   0.0003011545578601    0.3332009653944712    0.3333297782578192 F F T Ti
   0.2500659537346776    0.3333697154340526    0.1666646156521340 F F T Ti
   0.0004593157159999    0.5554943552271272    0.5556994616071530 F F T Ti
   0.7499589664007379    0.4446196611862018    0.2778279007604584 F F T Ti
   0.0034042081272116    0.7780540620641595    0.4443379516513961 F F T Nb
  -0.0007955497985423    0.2199869616147104    0.8889021362158046 F F T Nb
   0.4998168687279926    0.4450374937338577    0.1108445805938887 F F T Nb
   0.2529331584649590   -0.0016756014725804    0.4991768249129459 F F T Nb
   0.4975832870308235    0.2208476664973822    0.5556765570889036 F F T Nb
   0.2514682671844912    0.2222673144706413    0.7228563909179352 F F T Nb
   0.7498894854668198   -0.0001727204525119    0.4999650255851756 F F T Nb
  -0.0000199308522110    0.0001091796733582   -0.0001746784517552 F F T Nb
   0.7503600807643558    0.6669337785343944    0.8337254542792184 F F T Nb
   0.7513694862986319    0.2207498516220602    0.7229465459648501 F F T Nb
   0.2501330520519929    0.6679104300834356    0.4998775633385416 F F T Nb
   0.2504580636488039    0.7771374640912481    0.9442539053911181 F F T Nb
   0.2492790023416740    0.3319686323316220    0.4994514799096101 F F T Nb
   0.0009289644364851    0.3332964167903972   -0.0000259359246489 F F T Nb
  -0.0000702346542182    0.7775053993904434    0.1113915522971861 F F T Nb
   0.7487214725870281    0.8899315416191778    0.0557467007561002 F F T Nb
   0.5005938200933709   -0.0000235575396867    0.3337247156851078 F F T Nb
   0.5008810097877678    0.4462056418891579    0.4439628845172769 F F T Nb
   0.7495892499498003    0.3329251729835234    0.8331660554124600 F F T Nb
   0.7500503501359642   -0.0027519037526545    0.8334601901535476 F F T Nb
   0.0003188102599387    0.5555772344924732    0.2220188481800910 F F T Nb
  -0.0013161395295951   -0.0009501647364017    0.6670689401932420 F F T Nb
   0.7498685242076365    0.5557779198470628    0.0555269802144306 F F T Nb
   0.4996707942471540    0.8885731841932568    0.2222487277888263 F F T Nb
   0.7498829497651244    0.3336502712137951    0.1665311362689704 F F T Nb
   0.4957225303476437    0.8900152688797164    0.5552737998694196 F F T Nb
   0.2511062279074470    0.8890306493254819    0.0552915934497340 F F T Nb
   0.0012608868751333    0.1108208110333519    0.4442796182522069 F F T Nb
   0.2500160050277864   -0.0000092066283500    0.1666748385297163 F F T Nb
   0.2483608885329880    0.4475117442131624    0.6106357076716401 F F T Nb
   0.2507630857270932    0.1107111887736188    0.6104611992979506 F F T Nb
   0.7475495221513716    0.4448255294013445    0.9445207599043237 F F T Nb
   0.2500587314067091    0.5556023311809044    0.0553548956246068 F F T W
   0.2494184020951366    0.1109815939134877    0.9448121444358643 F F T W
   0.2502745500970799    0.6666466127873246    0.1666768861842307 F F T W
   0.2494411266852071    0.1120148037834750    0.2777928376900672 F F T W
  -0.0000370588735282    0.7769373398549011    0.7778233066028649 F F T W
   0.2493584891262904    0.2213866239682489    0.3895648227731496 F F T W
  -0.0004602528333926    0.1113789224635112    0.7776907264989419 F F T W
   0.2498069767961148    0.4447119998533747    0.9448492218075097 F F T W
   0.7499436562060972    0.6665024807111433    0.1665267452015047 F F T W
   0.4996546992342818    0.0010100870191573    0.6665379891809190 F F T W
