ber1436
48
Loading vasp/5.4.4
  Loading requirement: intel-compilers/2020.4.304 intel-mpi/2020.4.304
[0] MPI startup(): I_MPI_ARCH environment variable is not supported.
[0] MPI startup(): To check the list of supported variables, use the impi_info utility or refer to https://software.intel.com/en-us/mpi-library/documentation/get-started.
 running on   48 total cores
 distrk:  each k-point on   48 cores,    1 groups
 distr:  one band on    1 cores,   48 groups
 using from now: INCAR     
 vasp.5.4.4.18Apr17-6-g9f103f2a35 (build Mar 01 2022 13:04:02) complex          
  
 POSCAR found type information on POSCAR  Ta Ti Nb W 
 POSCAR found :  4 types and     108 ions
 scaLAPACK will be used

 ----------------------------------------------------------------------------- 
|                                                                             |
|           W    W    AA    RRRRR   N    N  II  N    N   GGGG   !!!           |
|           W    W   A  A   R    R  NN   N  II  NN   N  G    G  !!!           |
|           W    W  A    A  R    R  N N  N  II  N N  N  G       !!!           |
|           W WW W  AAAAAA  RRRRR   N  N N  II  N  N N  G  GGG   !            |
|           WW  WW  A    A  R   R   N   NN  II  N   NN  G    G                |
|           W    W  A    A  R    R  N    N  II  N    N   GGGG   !!!           |
|                                                                             |
|      For optimal performance we recommend to set                            |
|        NCORE= 4 - approx SQRT( number of cores)                             |
|      NCORE specifies how many cores store one orbital (NPAR=cpu/NCORE).     |
|      This setting can  greatly improve the performance of VASP for DFT.     |
|      The default,   NCORE=1            might be grossly inefficient         |
|      on modern multi-core architectures or massively parallel machines.     |
|      Do your own testing !!!!                                               |
|      Unfortunately you need to use the default for GW and RPA calculations. |
|      (for HF NCORE is supported but not extensively tested yet)             |
|                                                                             |
 ----------------------------------------------------------------------------- 

 LDA part: xc-table for Pade appr. of Perdew
 POSCAR, INCAR and KPOINTS ok, starting setup
 FFT: planning ...
 WAVECAR not read
 initial charge from wavefunction
 entering main loop
       N       E                     dE             d eps       ncg     rms          rms(c)
DAV:   1    -0.395508284431E+05   -0.39551E+05   -0.91425E+05 33600   0.209E+03
DAV:   2    -0.583282927398E+05   -0.18777E+05   -0.17963E+05 36624   0.111E+03
DAV:   3    -0.611816618580E+05   -0.28534E+04   -0.26994E+04 38400   0.460E+02
DAV:   4    -0.621228024072E+05   -0.94114E+03   -0.87491E+03 38400   0.236E+02
DAV:   5    -0.626400535593E+05   -0.51725E+03   -0.49212E+03 38400   0.163E+02    0.131E+04
DAV:   6    -0.225951208590E+05    0.40045E+05   -0.23000E+05 34320   0.801E+02    0.127E+04
DAV:   7    -0.134011847596E+05    0.91939E+04   -0.23554E+05 37776   0.977E+02    0.572E+03
DAV:   8    -0.177004918874E+05   -0.42993E+04   -0.32373E+05 38400   0.107E+03    0.483E+03
DAV:   9    -0.514229537133E+04    0.12558E+05   -0.19015E+05 36480   0.722E+02    0.418E+03
DAV:  10    -0.539572739075E+04   -0.25343E+03   -0.79434E+04 34560   0.455E+02    0.399E+03
DAV:  11    -0.326595056917E+04    0.21298E+04   -0.18443E+04 32496   0.256E+02    0.418E+03
DAV:  12    -0.473688797584E+04   -0.14709E+04   -0.68342E+03 32688   0.128E+02    0.427E+03
DAV:  13    -0.582577464685E+04   -0.10889E+04   -0.25935E+03 34512   0.726E+01    0.424E+03
DAV:  14    -0.510939870285E+04    0.71638E+03   -0.48481E+03 33888   0.117E+02    0.409E+03
DAV:  15    -0.501471151788E+04    0.94687E+02   -0.13440E+03 33312   0.575E+01    0.404E+03
DAV:  16    -0.496402569471E+04    0.50686E+02   -0.14753E+02 34560   0.195E+01    0.402E+03
DAV:  17    -0.491756156447E+04    0.46464E+02   -0.23640E+01 34704   0.778E+00    0.398E+03
DAV:  18    -0.769784975803E+04   -0.27803E+04   -0.33704E+04 35520   0.167E+02    0.266E+03
DAV:  19    -0.887859103370E+04   -0.11807E+04   -0.54907E+03 29136   0.119E+02    0.258E+03
DAV:  20    -0.866527414693E+04    0.21332E+03   -0.50604E+02 31344   0.377E+01    0.265E+03
DAV:  21    -0.993895107835E+04   -0.12737E+04   -0.32067E+02 24000   0.411E+01    0.275E+03
DAV:  22    -0.101434688213E+05   -0.20452E+03   -0.10566E+02 30144   0.141E+01    0.295E+03
DAV:  23    -0.100967979159E+05    0.46671E+02   -0.30417E+01 31776   0.603E+00    0.306E+03
DAV:  24    -0.100009679796E+05    0.95830E+02   -0.88049E+00 32160   0.330E+00    0.321E+03
DAV:  25    -0.100089070050E+05   -0.79390E+01   -0.15113E+00 29472   0.110E+00    0.323E+03
DAV:  26    -0.100102145596E+05   -0.13076E+01   -0.31109E-01 33120   0.555E-01    0.324E+03
DAV:  27    -0.998724535863E+04    0.22969E+02   -0.14096E+02 24288   0.137E+01    0.296E+03
DAV:  28    -0.108128624995E+05   -0.82562E+03   -0.14214E+02 25824   0.292E+01    0.297E+03
DAV:  29    -0.115525889752E+05   -0.73973E+03   -0.10874E+03 27552   0.567E+01    0.389E+03
DAV:  30    -0.115691713487E+05   -0.16582E+02   -0.83041E+01 27840   0.126E+01
   1 F= -.11569171E+05 E0= -.11569142E+05  d E =-.115692E+05
 curvature:   0.00 expect dE= 0.000E+00 dE for cont linesearch  0.000E+00
 trial: gam= 0.00000 g(F)=  0.294E+02 g(S)=  0.000E+00 ort = 0.000E+00 (trialstep = 0.100E+01)
 search vector abs. value=  0.294E+02
 bond charge predicted
       N       E                     dE             d eps       ncg     rms          rms(c)
DAV:   1    -0.118738566859E+05   -0.32127E+03   -0.11530E+02 27504   0.258E+01    0.399E+03
DAV:   2    -0.137856952649E+05   -0.19118E+04   -0.22673E+05 35280   0.491E+02    0.196E+03
DAV:   3    -0.158351881580E+05   -0.20495E+04   -0.38009E+05 37344   0.913E+02    0.192E+03
DAV:   4    -0.375937624215E+04    0.12076E+05   -0.12189E+05 34656   0.618E+02    0.122E+03
DAV:   5    -0.421667346083E+04   -0.45730E+03   -0.39698E+04 35328   0.355E+02    0.105E+03
DAV:   6    -0.136260362645E+05   -0.94094E+04   -0.20281E+05 38400   0.505E+02    0.131E+03
DAV:   7    -0.125985682328E+05    0.10275E+04   -0.22486E+04 30048   0.343E+02    0.170E+03
DAV:   8    -0.122664016173E+05    0.33217E+03   -0.36776E+03 34272   0.115E+02    0.226E+03
DAV:   9    -0.533996530452E+04    0.69264E+04   -0.10734E+04 34800   0.175E+02    0.234E+03
DAV:  10    -0.562867608723E+04   -0.28871E+03   -0.65400E+04 34608   0.413E+02    0.914E+02
DAV:  11    -0.328826798237E+04    0.23404E+04   -0.19394E+04 33600   0.217E+02    0.547E+02
DAV:  12    -0.377080085993E+04   -0.48253E+03   -0.27670E+04 35520   0.162E+02    0.462E+02
DAV:  13    -0.274920840712E+04    0.10216E+04   -0.25921E+04 34320   0.227E+02    0.609E+02
DAV:  14    -0.255532691214E+04    0.19388E+03   -0.57417E+03 31344   0.123E+02    0.516E+02
DAV:  15    -0.245761030974E+04    0.97717E+02   -0.92560E+02 35328   0.494E+01    0.496E+02
DAV:  16    -0.236816473347E+04    0.89446E+02   -0.27906E+02 38208   0.262E+01    0.496E+02
DAV:  17    -0.267311851722E+04   -0.30495E+03   -0.24358E+02 31488   0.312E+01    0.499E+02
DAV:  18    -0.270255046478E+04   -0.29432E+02   -0.96611E+01 32784   0.143E+01    0.501E+02
DAV:  19    -0.270439353307E+04   -0.18431E+01   -0.14937E+01 34896   0.518E+00    0.502E+02
DAV:  20    -0.268747697463E+04    0.16917E+02   -0.65802E+00 29808   0.513E+00    0.503E+02
DAV:  21    -0.272061707358E+04   -0.33140E+02   -0.32410E+01 27024   0.150E+01    0.501E+02
DAV:  22    -0.275692169911E+04   -0.36305E+02   -0.62386E+02 28944   0.448E+01    0.146E+03
DAV:  23    -0.279154358929E+04   -0.34622E+02   -0.14594E+02 32448   0.165E+01    0.194E+03
DAV:  24    -0.279783040444E+04   -0.62868E+01   -0.21284E+01 34800   0.574E+00    0.199E+03
DAV:  25    -0.277723766697E+04    0.20593E+02   -0.29342E+00 29472   0.359E+00    0.199E+03
DAV:  26    -0.274351340320E+04    0.33724E+02   -0.43002E+00 27504   0.395E+00    0.199E+03
DAV:  27    -0.252613547909E+04    0.21738E+03   -0.16572E+02 26976   0.266E+01    0.505E+02
DAV:  28    -0.242399737045E+04    0.10214E+03   -0.10918E+03 28752   0.522E+01    0.576E+02
DAV:  29    -0.230535781108E+04    0.11864E+03   -0.73010E+02 31728   0.494E+01    0.671E+02
DAV:  30    -0.240056385078E+04   -0.95206E+02   -0.78829E+02 31920   0.551E+01
   2 F= -.24005639E+04 E0= -.24005071E+04  d E =0.916861E+04
 trial-energy change: 9168.607498  1 .order  -15.700655  -29.358122   -2.043187
 step:   1.0748(harm=  1.0748)  dis= 0.04745  next Energy=-11584.948420 (dE=-0.158E+02)
 bond charge predicted
       N       E                     dE             d eps       ncg     rms          rms(c)
DAV:   1    -0.248500028323E+04   -0.17964E+03   -0.14068E+02 29616   0.204E+01    0.175E+03
DAV:   2    -0.231457520161E+05   -0.20661E+05   -0.30546E+05 32832   0.572E+02    0.194E+03
DAV:   3    -0.239531298771E+04    0.20750E+05   -0.17598E+05 37200   0.619E+02    0.558E+02
DAV:   4    -0.523877096674E+04   -0.28435E+04   -0.10997E+05 34752   0.562E+02    0.480E+02
DAV:   5    -0.401436687285E+04    0.12244E+04   -0.85986E+04 36144   0.410E+02    0.411E+02
DAV:   6    -0.205918365852E+04    0.19552E+04   -0.32141E+04 34416   0.285E+02    0.338E+02
DAV:   7    -0.317773056461E+04   -0.11185E+04   -0.29502E+04 36432   0.190E+02    0.340E+02
DAV:   8    -0.150949484614E+04    0.16682E+04   -0.21180E+04 34608   0.168E+02    0.283E+02
DAV:   9    -0.155192680730E+04   -0.42432E+02   -0.10231E+04 33792   0.143E+02    0.233E+02
DAV:  10    -0.177772621468E+04   -0.22580E+03   -0.10408E+04 34560   0.145E+02    0.169E+02
DAV:  11    -0.133362611138E+04    0.44410E+03   -0.55950E+03 33024   0.114E+02    0.120E+02
DAV:  12    -0.119528035094E+04    0.13835E+03   -0.28575E+03 28752   0.977E+01    0.794E+01
DAV:  13    -0.114754217657E+04    0.47738E+02   -0.62680E+02 29952   0.337E+01    0.676E+01
DAV:  14    -0.113413286673E+04    0.13409E+02   -0.35862E+02 28032   0.321E+01    0.573E+01
DAV:  15    -0.111636532045E+04    0.17768E+02   -0.11031E+02 28944   0.151E+01    0.501E+01
DAV:  16    -0.110944069381E+04    0.69246E+01   -0.12853E+02 26928   0.186E+01    0.421E+01
DAV:  17    -0.110414213624E+04    0.52986E+01   -0.49124E+01 27264   0.113E+01    0.335E+01
DAV:  18    -0.110172885979E+04    0.24133E+01   -0.54479E+01 26880   0.113E+01    0.283E+01
DAV:  19    -0.109839946810E+04    0.33294E+01   -0.25486E+01 26928   0.840E+00    0.215E+01
DAV:  20    -0.109746521119E+04    0.93426E+00   -0.15237E+01 26880   0.587E+00    0.184E+01
DAV:  21    -0.109673294681E+04    0.73226E+00   -0.10263E+01 27120   0.498E+00    0.144E+01
DAV:  22    -0.109617358458E+04    0.55936E+00   -0.57694E+00 28224   0.386E+00    0.116E+01
DAV:  23    -0.109562958338E+04    0.54400E+00   -0.40829E+00 27120   0.325E+00    0.872E+00
DAV:  24    -0.109541010557E+04    0.21948E+00   -0.14781E+00 27360   0.191E+00    0.665E+00
DAV:  25    -0.109530780712E+04    0.10230E+00   -0.67207E-01 27072   0.126E+00    0.535E+00
DAV:  26    -0.109524284799E+04    0.64959E-01   -0.52655E-01 27360   0.121E+00    0.412E+00
DAV:  27    -0.109517230061E+04    0.70547E-01   -0.43033E-01 27312   0.101E+00    0.276E+00
DAV:  28    -0.109514830429E+04    0.23996E-01   -0.24044E-01 27504   0.837E-01    0.165E+00
DAV:  29    -0.109512929437E+04    0.19010E-01   -0.14436E-01 27840   0.607E-01    0.102E+00
DAV:  30    -0.109512810222E+04    0.11922E-02   -0.89330E-02 27360   0.440E-01
   3 F= -.10951281E+04 E0= -.10950200E+04  d E =0.104740E+05
 curvature:  -0.54 expect dE=-0.203E-02 dE for cont linesearch -0.418E-03
 ZBRENT: interpolating
 opt :   1.0697  next Energy= -1095.128491 (dE= 0.105E+05)
 bond charge predicted
       N       E                     dE             d eps       ncg     rms          rms(c)
DAV:   1    -0.109512658261E+04    0.27118E-02   -0.46675E-02 27024   0.359E-01    0.571E-01
DAV:   2    -0.109657783156E+04   -0.14512E+01   -0.29179E+00 29040   0.291E+00    0.775E+00
DAV:   3    -0.109514081991E+04    0.14370E+01   -0.28913E+00 29952   0.278E+00    0.110E+00
DAV:   4    -0.109515889668E+04   -0.18077E-01   -0.20425E-01 28176   0.702E-01    0.125E+00
DAV:   5    -0.109512318861E+04    0.35708E-01   -0.12503E-01 27888   0.609E-01    0.397E-01
DAV:   6    -0.109512282934E+04    0.35927E-03   -0.27526E-02 27312   0.265E-01    0.352E-01
DAV:   7    -0.109512135840E+04    0.14709E-02   -0.12780E-02 27552   0.178E-01    0.187E-01
DAV:   8    -0.109512106712E+04    0.29128E-03   -0.46117E-03 27168   0.114E-01    0.139E-01
DAV:   9    -0.109512090363E+04    0.16349E-03   -0.22178E-03 28320   0.791E-02    0.881E-02
DAV:  10    -0.109512088263E+04    0.21001E-04   -0.12466E-03 27168   0.579E-02    0.748E-02
DAV:  11    -0.109512084783E+04    0.34799E-04   -0.69767E-04 29136   0.463E-02    0.572E-02
DAV:  12    -0.109512079866E+04    0.49165E-04   -0.32925E-04 27168   0.323E-02    0.309E-02
DAV:  13    -0.109512078730E+04    0.11368E-04   -0.12488E-04 27552   0.185E-02    0.195E-02
DAV:  14    -0.109512078327E+04    0.40267E-05   -0.51103E-05 26208   0.105E-02    0.115E-02
DAV:  15    -0.109512078136E+04    0.19070E-05   -0.14884E-05 24720   0.683E-03    0.682E-03
DAV:  16    -0.109512078090E+04    0.45945E-06   -0.83940E-06 22416   0.461E-03
   4 F= -.10951208E+04 E0= -.10950125E+04  d E =0.104741E+05
 curvature:  -0.50 expect dE=-0.192E-02 dE for cont linesearch -0.396E-03
 ZBRENT: bisectioning
 opt :   1.0348  next Energy= -1095.126259 (dE= 0.105E+05)
 bond charge predicted
       N       E                     dE             d eps       ncg     rms          rms(c)
DAV:   1    -0.109512597190E+04   -0.51905E-02   -0.31099E-02 22848   0.281E-01    0.515E-02
DAV:   2    -0.109512667713E+04   -0.70523E-03   -0.30765E-03 29568   0.118E-01    0.171E-01
DAV:   3    -0.109512658734E+04    0.89791E-04   -0.32319E-03 28176   0.987E-02    0.152E-01
DAV:   4    -0.109512605368E+04    0.53366E-03   -0.15349E-03 27696   0.674E-02    0.472E-02
DAV:   5    -0.109512615879E+04   -0.10511E-03   -0.53820E-04 27936   0.379E-02    0.759E-02
DAV:   6    -0.109512605361E+04    0.10519E-03   -0.45971E-04 27168   0.379E-02    0.365E-02
DAV:   7    -0.109512603509E+04    0.18517E-04   -0.11306E-04 26832   0.177E-02    0.201E-02
DAV:   8    -0.109512603535E+04   -0.25972E-06   -0.68607E-05 26400   0.149E-02    0.194E-02
DAV:   9    -0.109512603095E+04    0.44027E-05   -0.50956E-05 25344   0.114E-02    0.125E-02
DAV:  10    -0.109512602923E+04    0.17170E-05   -0.22665E-05 25152   0.816E-03    0.910E-03
DAV:  11    -0.109512602807E+04    0.11534E-05   -0.97483E-06 22464   0.542E-03    0.559E-03
DAV:  12    -0.109512602773E+04    0.34845E-06   -0.35263E-06 17424   0.340E-03
   5 F= -.10951260E+04 E0= -.10950177E+04  d E =0.104740E+05
 curvature:  -6.92 expect dE=-0.261E-01 dE for cont linesearch -0.523E-02
 ZBRENT: bisectioning
 opt :   1.0174  next Energy= -1095.128607 (dE= 0.105E+05)
 bond charge predicted
       N       E                     dE             d eps       ncg     rms          rms(c)
DAV:   1    -0.109512858896E+04   -0.25609E-02   -0.77853E-03 22800   0.141E-01    0.261E-02
DAV:   2    -0.109512875360E+04   -0.16464E-03   -0.76417E-04 30144   0.588E-02    0.834E-02
DAV:   3    -0.109512874744E+04    0.61594E-05   -0.78477E-04 28656   0.483E-02    0.766E-02
DAV:   4    -0.109512860870E+04    0.13874E-03   -0.39281E-04 26784   0.342E-02    0.231E-02
DAV:   5    -0.109512863457E+04   -0.25875E-04   -0.13339E-04 25584   0.186E-02    0.378E-02
DAV:   6    -0.109512860996E+04    0.24612E-04   -0.11492E-04 26016   0.190E-02    0.192E-02
DAV:   7    -0.109512860447E+04    0.54870E-05   -0.30839E-05 25104   0.927E-03    0.102E-02
DAV:   8    -0.109512860462E+04   -0.14257E-06   -0.17620E-05 24816   0.758E-03    0.102E-02
DAV:   9    -0.109512860339E+04    0.12265E-05   -0.13452E-05 23232   0.586E-03    0.624E-03
DAV:  10    -0.109512860295E+04    0.44418E-06   -0.58112E-06 21216   0.418E-03
   6 F= -.10951286E+04 E0= -.10950203E+04  d E =0.104740E+05
 curvature:  -3.41 expect dE=-0.128E-01 dE for cont linesearch -0.251E-02
 ZBRENT: bisectioning
 opt :   1.0087  next Energy= -1095.129878 (dE= 0.105E+05)
 bond charge predicted
       N       E                     dE             d eps       ncg     rms          rms(c)
DAV:   1    -0.109512987477E+04   -0.12714E-02   -0.19495E-03 22800   0.705E-02    0.133E-02
DAV:   2    -0.109512991025E+04   -0.35485E-04   -0.17710E-04 30096   0.284E-02    0.388E-02
DAV:   3    -0.109512991214E+04   -0.18844E-05   -0.17471E-04 26208   0.228E-02    0.364E-02
DAV:   4    -0.109512987984E+04    0.32301E-04   -0.91934E-05 25152   0.167E-02    0.113E-02
DAV:   5    -0.109512988535E+04   -0.55090E-05   -0.31675E-05 24480   0.888E-03    0.181E-02
DAV:   6    -0.109512988098E+04    0.43607E-05   -0.28677E-05 21696   0.950E-03    0.112E-02
DAV:   7    -0.109512987878E+04    0.22031E-05   -0.97526E-06 20352   0.556E-03    0.535E-03
DAV:   8    -0.109512987864E+04    0.13776E-06   -0.39072E-06 18432   0.402E-03    0.416E-03
DAV:   9    -0.109512987849E+04    0.15882E-06   -0.23034E-06 15744   0.310E-03    0.304E-03
DAV:  10    -0.109512987837E+04    0.11624E-06   -0.10104E-06 12816   0.239E-03
   7 F= -.10951299E+04 E0= -.10950216E+04  d E =0.104740E+05
 curvature:  -1.73 expect dE=-0.647E-02 dE for cont linesearch -0.126E-02
 ZBRENT: bisectioning
 opt :   1.0044  next Energy= -1095.130512 (dE= 0.105E+05)
 bond charge predicted
       N       E                     dE             d eps       ncg     rms          rms(c)
DAV:   1    -0.109513051166E+04   -0.63318E-03   -0.48638E-04 22800   0.353E-02    0.655E-03
DAV:   2    -0.109513052098E+04   -0.93225E-05   -0.44134E-05 30432   0.143E-02    0.198E-02
DAV:   3    -0.109513052071E+04    0.27412E-06   -0.43080E-05 22512   0.115E-02    0.178E-02
DAV:   4    -0.109513051292E+04    0.77871E-05   -0.22102E-05 21840   0.833E-03    0.537E-03
DAV:   5    -0.109513051397E+04   -0.10532E-05   -0.66668E-06 18624   0.426E-03    0.817E-03
DAV:   6    -0.109513051331E+04    0.66382E-06   -0.63601E-06 13200   0.477E-03    0.579E-03
DAV:   7    -0.109513051265E+04    0.66437E-06   -0.21644E-06 14208   0.325E-03    0.251E-03
DAV:   8    -0.109513051266E+04   -0.11030E-07   -0.83926E-07 12480   0.204E-03    0.236E-03
DAV:   9    -0.109513051266E+04   -0.37617E-08   -0.57715E-07 12480   0.182E-03    0.178E-03
DAV:  10    -0.109513051262E+04    0.41560E-07   -0.30794E-07 12480   0.135E-03
   8 F= -.10951305E+04 E0= -.10950222E+04  d E =0.104740E+05
 curvature:  -0.87 expect dE=-0.326E-02 dE for cont linesearch -0.629E-03
 ZBRENT: bisectioning
 opt :   1.0022  next Energy= -1095.130829 (dE= 0.105E+05)
 bond charge predicted
       N       E                     dE             d eps       ncg     rms          rms(c)
DAV:   1    -0.109513082859E+04   -0.31593E-03   -0.12170E-04 22800   0.176E-02    0.329E-03
DAV:   2    -0.109513083101E+04   -0.24202E-05   -0.10997E-05 26832   0.713E-03    0.102E-02
DAV:   3    -0.109513083078E+04    0.22965E-06   -0.10665E-05 16560   0.602E-03    0.863E-03
DAV:   4    -0.109513082884E+04    0.19421E-05   -0.50698E-06 15312   0.441E-03    0.248E-03
DAV:   5    -0.109513082885E+04   -0.10419E-07   -0.11449E-06 12624   0.205E-03    0.246E-03
DAV:   6    -0.109513082881E+04    0.38010E-07   -0.54455E-07 12480   0.171E-03    0.130E-03
DAV:   7    -0.109513082894E+04   -0.12920E-06   -0.47577E-07 12480   0.132E-03    0.255E-03
DAV:   8    -0.109513082882E+04    0.11400E-06   -0.53055E-07 12480   0.146E-03    0.115E-03
DAV:   9    -0.109513082882E+04    0.56898E-08   -0.13342E-07 12480   0.800E-04    0.843E-04
DAV:  10    -0.109513082882E+04    0.26776E-08   -0.77109E-08 12480   0.615E-04
   9 F= -.10951308E+04 E0= -.10950225E+04  d E =0.104740E+05
 curvature:  -0.44 expect dE=-0.164E-02 dE for cont linesearch -0.315E-03
 ZBRENT: bisectioning
 opt :   1.0011  next Energy= -1095.130987 (dE= 0.105E+05)
 bond charge predicted
       N       E                     dE             d eps       ncg     rms          rms(c)
DAV:   1    -0.109513098654E+04   -0.15772E-03   -0.30541E-05 22800   0.881E-03    0.168E-03
DAV:   2    -0.109513098716E+04   -0.62298E-06   -0.23465E-06 14976   0.368E-03    0.505E-03
DAV:   3    -0.109513098710E+04    0.60463E-07   -0.28977E-06 12480   0.342E-03    0.447E-03
DAV:   4    -0.109513098662E+04    0.48485E-06   -0.12564E-06 12480   0.235E-03    0.141E-03
DAV:   5    -0.109513098676E+04   -0.14620E-06   -0.60906E-07 12480   0.146E-03    0.271E-03
DAV:   6    -0.109513098662E+04    0.14756E-06   -0.56162E-07 12480   0.153E-03    0.118E-03
DAV:   7    -0.109513098660E+04    0.20358E-07   -0.11469E-07 12480   0.783E-04    0.677E-04
DAV:   8    -0.109513098660E+04   -0.36380E-10   -0.53022E-08 12480   0.508E-04    0.502E-04
DAV:   9    -0.109513098660E+04   -0.51587E-08   -0.35860E-08 12480   0.410E-04    0.430E-04
DAV:  10    -0.109513098660E+04    0.11860E-08   -0.26823E-08 12480   0.372E-04
  10 F= -.10951310E+04 E0= -.10950227E+04  d E =0.104740E+05
 curvature:  -0.22 expect dE=-0.820E-03 dE for cont linesearch -0.158E-03
 ZBRENT: bisectioning
 opt :   1.0005  next Energy= -1095.131065 (dE= 0.105E+05)
 bond charge predicted
       N       E                     dE             d eps       ncg     rms          rms(c)
DAV:   1    -0.109513106500E+04   -0.78400E-04   -0.76458E-06 21120   0.441E-03    0.896E-04
DAV:   2    -0.109513106514E+04   -0.13470E-06   -0.58153E-07 12480   0.194E-03    0.244E-03
DAV:   3    -0.109513106517E+04   -0.28784E-07   -0.73043E-07 12480   0.179E-03    0.236E-03
DAV:   4    -0.109513106502E+04    0.14164E-06   -0.37093E-07 12480   0.127E-03    0.718E-04
DAV:   5    -0.109513106506E+04   -0.34255E-07   -0.15439E-07 12480   0.755E-04    0.138E-03
DAV:   6    -0.109513106502E+04    0.34997E-07   -0.15677E-07 12480   0.795E-04    0.636E-04
DAV:   7    -0.109513106502E+04    0.50495E-08   -0.37339E-08 12480   0.433E-04    0.403E-04
DAV:   8    -0.109513106502E+04    0.11860E-08   -0.17514E-08 12480   0.278E-04    0.247E-04
DAV:   9    -0.109513106502E+04   -0.15789E-08   -0.11214E-08 12480   0.207E-04    0.226E-04
DAV:  10    -0.109513106502E+04    0.87311E-10   -0.87202E-09 12480   0.192E-04
  11 F= -.10951311E+04 E0= -.10950228E+04  d E =0.104740E+05
 curvature:  -0.11 expect dE=-0.410E-03 dE for cont linesearch -0.787E-04
 ZBRENT: bisectioning
 opt :   1.0003  next Energy= -1095.131104 (dE= 0.105E+05)
 bond charge predicted
       N       E                     dE             d eps       ncg     rms          rms(c)
DAV:   1    -0.109513110439E+04   -0.39376E-04   -0.17496E-06 14208   0.221E-03    0.663E-04
DAV:   2    -0.109513110444E+04   -0.40855E-07   -0.23936E-07 12480   0.132E-03    0.120E-03
DAV:   3    -0.109513110448E+04   -0.41429E-07   -0.29480E-07 12480   0.115E-03    0.154E-03
DAV:   4    -0.109513110442E+04    0.56978E-07   -0.19192E-07 12480   0.929E-04    0.633E-04
DAV:   5    -0.109513110443E+04   -0.80108E-08   -0.68783E-08 12480   0.523E-04    0.860E-04
DAV:   6    -0.109513110441E+04    0.13744E-07   -0.58469E-08 12480   0.487E-04    0.361E-04
DAV:   7    -0.109513110441E+04   -0.92405E-09   -0.14657E-08 12480   0.259E-04    0.271E-04
DAV:   8    -0.109513110441E+04    0.11350E-08   -0.73360E-09 12480   0.171E-04    0.190E-04
DAV:   9    -0.109513110441E+04   -0.73487E-09   -0.53804E-09 12480   0.138E-04    0.174E-04
DAV:  10    -0.109513110441E+04    0.14843E-08   -0.45537E-09 12480   0.138E-04
  12 F= -.10951311E+04 E0= -.10950228E+04  d E =0.104740E+05
 curvature:  -0.06 expect dE=-0.205E-03 dE for cont linesearch -0.394E-04
 ZBRENT: bisectioning
 opt :   1.0001  next Energy= -1095.131124 (dE= 0.105E+05)
 bond charge predicted
       N       E                     dE             d eps       ncg     rms          rms(c)
DAV:   1    -0.109513112410E+04   -0.19690E-04   -0.42954E-07 12480   0.109E-03    0.370E-04
DAV:   2    -0.109513112411E+04   -0.10390E-07   -0.66375E-08 12480   0.692E-04    0.618E-04
DAV:   3    -0.109513112413E+04   -0.13526E-07   -0.83272E-08 12480   0.611E-04    0.840E-04
DAV:   4    -0.109513112411E+04    0.16771E-07   -0.58197E-08 12480   0.510E-04    0.340E-04
DAV:   5    -0.109513112411E+04    0.21682E-08   -0.12838E-08 12480   0.242E-04    0.289E-04
DAV:   6    -0.109513112411E+04   -0.37107E-09   -0.13534E-08 12480   0.223E-04    0.282E-04
DAV:   7    -0.109513112411E+04   -0.74942E-09   -0.76412E-09 12480   0.175E-04    0.157E-04
DAV:   8    -0.109513112411E+04    0.14115E-08   -0.33127E-09 12480   0.982E-05    0.112E-04
DAV:   9    -0.109513112411E+04    0.56752E-09   -0.25351E-09 12384   0.742E-05    0.817E-05
DAV:  10    -0.109513112411E+04   -0.31287E-09   -0.22181E-09 12336   0.702E-05
  13 F= -.10951311E+04 E0= -.10950228E+04  d E =0.104740E+05
 curvature:  -0.03 expect dE=-0.103E-03 dE for cont linesearch -0.197E-04
 ZBRENT: bisectioning
 opt :   1.0001  next Energy= -1095.131134 (dE= 0.105E+05)
 bond charge predicted
       N       E                     dE             d eps       ncg     rms          rms(c)
DAV:   1    -0.109513113396E+04   -0.98480E-05   -0.10880E-07 12336   0.550E-04    0.182E-04
DAV:   2    -0.109513113396E+04   -0.23574E-08   -0.17374E-08 12336   0.345E-04    0.313E-04
DAV:   3    -0.109513113396E+04   -0.31796E-08   -0.22051E-08 12336   0.305E-04    0.425E-04
DAV:   4    -0.109513113396E+04    0.43801E-08   -0.15522E-08 12336   0.256E-04    0.179E-04
DAV:   5    -0.109513113396E+04   -0.51659E-09   -0.66609E-09 12240   0.148E-04    0.238E-04
DAV:   6    -0.109513113396E+04    0.86584E-09   -0.54825E-09 12192   0.130E-04    0.887E-05
DAV:   7    -0.109513113396E+04   -0.88039E-09   -0.23282E-09 12144   0.700E-05    0.872E-05
DAV:   8    -0.109513113396E+04    0.12369E-09   -0.18105E-09 12048   0.539E-05    0.484E-05
DAV:   9    -0.109513113396E+04    0.61846E-09   -0.15992E-09 11952   0.382E-05    0.526E-05
DAV:  10    -0.109513113396E+04   -0.10914E-09   -0.15906E-09 11904   0.406E-05
  14 F= -.10951311E+04 E0= -.10950228E+04  d E =0.104740E+05
 curvature:  -0.01 expect dE=-0.513E-04 dE for cont linesearch -0.985E-05
 ZBRENT: bisectioning
 opt :   1.0000  next Energy= -1095.131139 (dE= 0.105E+05)
 bond charge predicted
       N       E                     dE             d eps       ncg     rms          rms(c)
DAV:   1    -0.109513113888E+04   -0.49230E-05   -0.28137E-08 11904   0.274E-04    0.936E-05
DAV:   2    -0.109513113888E+04   -0.13752E-08   -0.55977E-09 11904   0.176E-04    0.161E-04
DAV:   3    -0.109513113888E+04   -0.47294E-09   -0.73170E-09 11904   0.158E-04    0.233E-04
DAV:   4    -0.109513113888E+04    0.14334E-08   -0.52736E-09 11904   0.135E-04    0.879E-05
DAV:   5    -0.109513113888E+04   -0.32014E-09   -0.30328E-09 11904   0.794E-05    0.143E-04
DAV:   6    -0.109513113888E+04    0.11642E-09   -0.26533E-09 11808   0.774E-05    0.478E-05
DAV:   7    -0.109513113888E+04    0.42201E-09   -0.15587E-09 11760   0.370E-05    0.411E-05
DAV:   8    -0.109513113888E+04   -0.66939E-09   -0.13651E-09 11760   0.287E-05    0.280E-05
DAV:   9    -0.109513113888E+04    0.18190E-09   -0.13279E-09 11760   0.188E-05    0.227E-05
DAV:  10    -0.109513113888E+04   -0.19645E-09   -0.12889E-09 11760   0.187E-05
  15 F= -.10951311E+04 E0= -.10950228E+04  d E =0.104740E+05
 curvature:  -0.01 expect dE=-0.257E-04 dE for cont linesearch -0.492E-05
 ZBRENT: bisectioning
 opt :   1.0000  next Energy= -1095.131141 (dE= 0.105E+05)
 bond charge predicted
       N       E                     dE             d eps       ncg     rms          rms(c)
DAV:   1    -0.109513114134E+04   -0.24616E-05   -0.79777E-09 11760   0.137E-04    0.465E-05
DAV:   2    -0.109513114134E+04   -0.71304E-09   -0.22312E-09 11760   0.877E-05    0.794E-05
DAV:   3    -0.109513114134E+04   -0.72760E-11   -0.26090E-09 11760   0.772E-05    0.107E-04
DAV:   4    -0.109513114134E+04    0.53842E-09   -0.22429E-09 11760   0.646E-05    0.434E-05
DAV:   5    -0.109513114134E+04   -0.12369E-09   -0.14613E-09 11760   0.324E-05    0.386E-05
DAV:   6    -0.109513114134E+04    0.56025E-09   -0.14399E-09 11760   0.278E-05    0.305E-05
DAV:   7    -0.109513114134E+04   -0.40018E-09   -0.13498E-09 11760   0.201E-05    0.202E-05
DAV:   8    -0.109513114134E+04    0.75670E-09   -0.13086E-09 11760   0.132E-05    0.131E-05
DAV:   9    -0.109513114134E+04   -0.10623E-08   -0.12686E-09 11760   0.104E-05    0.120E-05
DAV:  10    -0.109513114134E+04    0.10477E-08   -0.12265E-09 11760   0.101E-05
  16 F= -.10951311E+04 E0= -.10950228E+04  d E =0.104740E+05
 curvature:  -0.00 expect dE=-0.128E-04 dE for cont linesearch -0.246E-05
 ZBRENT: bisectioning
 opt :   1.0000  next Energy= -1095.131143 (dE= 0.105E+05)
 bond charge predicted
       N       E                     dE             d eps       ncg     rms          rms(c)
DAV:   1    -0.109513114257E+04   -0.12301E-05   -0.27941E-09 11760   0.687E-05    0.232E-05
DAV:   2    -0.109513114257E+04   -0.93860E-09   -0.15464E-09 11760   0.457E-05    0.462E-05
DAV:   3    -0.109513114257E+04    0.96043E-09   -0.16931E-09 11760   0.409E-05    0.562E-05
DAV:   4    -0.109513114257E+04   -0.20373E-09   -0.14094E-09 11760   0.328E-05    0.226E-05
DAV:   5    -0.109513114257E+04   -0.42928E-09   -0.13186E-09 11760   0.208E-05    0.367E-05
DAV:   6    -0.109513114257E+04    0.21100E-09   -0.13282E-09 11760   0.199E-05    0.115E-05
DAV:   7    -0.109513114257E+04   -0.42928E-09   -0.12979E-09 11760   0.896E-06    0.106E-05
DAV:   8    -0.109513114257E+04    0.36380E-10   -0.12291E-09 11760   0.742E-06    0.742E-06
DAV:   9    -0.109513114257E+04    0.58208E-09   -0.11679E-09 11760   0.496E-06    0.596E-06
DAV:  10    -0.109513114257E+04    0.27649E-09   -0.12442E-09 11760   0.473E-06
  17 F= -.10951311E+04 E0= -.10950228E+04  d E =0.104740E+05
 curvature:  -0.00 expect dE=-0.642E-05 dE for cont linesearch -0.123E-05
 ZBRENT: bisectioning
 opt :   1.0000  next Energy= -1095.131143 (dE= 0.105E+05)
 bond charge predicted
       N       E                     dE             d eps       ncg     rms          rms(c)
DAV:   1    -0.109513114319E+04   -0.61558E-06   -0.15688E-09 11760   0.343E-05    0.116E-05
DAV:   2    -0.109513114319E+04   -0.45111E-09   -0.13338E-09 11760   0.215E-05    0.189E-05
DAV:   3    -0.109513114319E+04    0.12660E-08   -0.13437E-09 11760   0.191E-05    0.274E-05
DAV:   4    -0.109513114319E+04   -0.72032E-09   -0.13728E-09 11760   0.163E-05    0.105E-05
DAV:   5    -0.109513114319E+04   -0.40018E-09   -0.13042E-09 11760   0.826E-06    0.110E-05
DAV:   6    -0.109513114319E+04    0.55297E-09   -0.12219E-09 11760   0.733E-06    0.725E-06
DAV:   7    -0.109513114319E+04    0.55297E-09   -0.12537E-09 11760   0.494E-06    0.521E-06
DAV:   8    -0.109513114319E+04   -0.10186E-09   -0.13014E-09 11760   0.338E-06    0.309E-06
DAV:   9    -0.109513114319E+04   -0.10914E-08   -0.12764E-09 11760   0.241E-06    0.286E-06
DAV:  10    -0.109513114319E+04    0.62573E-09   -0.12515E-09 11760   0.241E-06
  18 F= -.10951311E+04 E0= -.10950228E+04  d E =0.104740E+05
 curvature:  -0.00 expect dE=-0.321E-05 dE for cont linesearch -0.615E-06
 ZBRENT: bisectioning
 opt :   1.0000  next Energy= -1095.131143 (dE= 0.105E+05)
 bond charge predicted
       N       E                     dE             d eps       ncg     rms          rms(c)
DAV:   1    -0.109513114350E+04   -0.30692E-06   -0.13728E-09 11760   0.172E-05    0.589E-06
DAV:   2    -0.109513114350E+04   -0.10914E-09   -0.12697E-09 11760   0.115E-05    0.110E-05
DAV:   3    -0.109513114350E+04   -0.97498E-09   -0.12571E-09 11760   0.103E-05    0.149E-05
DAV:   4    -0.109513114350E+04    0.15352E-08   -0.11833E-09 11760   0.853E-06    0.563E-06
DAV:   5    -0.109513114350E+04   -0.16735E-08   -0.13490E-09 11760   0.515E-06    0.919E-06
DAV:   6    -0.109513114350E+04    0.12587E-08   -0.12481E-09 11760   0.497E-06    0.280E-06
DAV:   7    -0.109513114350E+04   -0.65484E-10   -0.12324E-09 11760   0.225E-06    0.256E-06
DAV:   8    -0.109513114350E+04    0.29104E-10   -0.12986E-09 11616   0.180E-06    0.180E-06
DAV:   9    -0.109513114350E+04   -0.76398E-09   -0.11996E-09 11616   0.134E-06    0.157E-06
DAV:  10    -0.109513114350E+04   -0.10914E-09   -0.12810E-09 11616   0.132E-06
  19 F= -.10951311E+04 E0= -.10950228E+04  d E =0.104740E+05
 curvature:  -0.00 expect dE=-0.160E-05 dE for cont linesearch -0.308E-06
 ZBRENT:  can not reach accuracy
 opt :   0.0000  next Energy=     0.000000 (dE= 0.116E+05)
 bond charge predicted
       N       E                     dE             d eps       ncg     rms          rms(c)
DAV:   1    -0.109517548173E+04   -0.44338E-01   -0.25610E+01 21024   0.808E+00    0.152E+00
DAV:   2    -0.109571084603E+04   -0.53536E+00   -0.25307E+00 29664   0.335E+00    0.482E+00
DAV:   3    -0.109568802234E+04    0.22824E-01   -0.22731E+00 28512   0.276E+00    0.425E+00
DAV:   4    -0.109524005973E+04    0.44796E+00   -0.11794E+00 27504   0.195E+00    0.128E+00
DAV:   5    -0.109527230859E+04   -0.32249E-01   -0.33642E-01 27984   0.887E-01    0.157E+00
DAV:   6    -0.109527323070E+04   -0.92211E-03   -0.30362E-01 29856   0.952E-01    0.152E+00
DAV:   7    -0.109522788612E+04    0.45345E-01   -0.15829E-01 26880   0.670E-01    0.562E-01
DAV:   8    -0.109522964000E+04   -0.17539E-02   -0.56178E-02 27696   0.428E-01    0.580E-01
DAV:   9    -0.109522549599E+04    0.41440E-02   -0.46490E-02 28512   0.341E-01    0.377E-01
DAV:  10    -0.109522411577E+04    0.13802E-02   -0.20665E-02 29712   0.240E-01    0.282E-01
DAV:  11    -0.109522292798E+04    0.11878E-02   -0.85122E-03 27168   0.149E-01    0.140E-01
DAV:  12    -0.109522280712E+04    0.12086E-03   -0.28727E-03 28800   0.843E-02    0.104E-01
DAV:  13    -0.109522269087E+04    0.11625E-03   -0.11521E-03 27312   0.564E-02    0.648E-02
DAV:  14    -0.109522266910E+04    0.21771E-04   -0.54203E-04 28656   0.415E-02    0.529E-02
DAV:  15    -0.109522264126E+04    0.27849E-04   -0.34034E-04 26928   0.331E-02    0.343E-02
DAV:  16    -0.109522263447E+04    0.67808E-05   -0.20150E-04 27888   0.229E-02    0.285E-02
DAV:  17    -0.109522262205E+04    0.12422E-04   -0.87407E-05 26688   0.150E-02    0.134E-02
DAV:  18    -0.109522262016E+04    0.18956E-05   -0.28793E-05 25488   0.802E-03    0.918E-03
DAV:  19    -0.109522261975E+04    0.40247E-06   -0.11493E-05 23280   0.526E-03    0.654E-03
DAV:  20    -0.109522261935E+04    0.40769E-06   -0.53469E-06 20784   0.394E-03
  20 F= -.10952226E+04 E0= -.10951139E+04  d E =0.104739E+05
 curvature:   0.00 expect dE= 0.440-315 dE for cont linesearch  0.803-317
 ZBRENT: fatal error in bracketing
     please rerun with smaller EDIFF, or copy CONTCAR
     to POSCAR and continue
