<?xml version="1.0" encoding="ISO-8859-1"?>
<modeling>
 <generator>
  <i name="program" type="string">vasp </i>
  <i name="version" type="string">5.4.4.18Apr17-6-g9f103f2a35  </i>
  <i name="subversion" type="string">(build Mar 01 2022 13:04:02) complex            parallel </i>
  <i name="platform" type="string">LinuxIFC </i>
  <i name="date" type="string">2025 12 26 </i>
  <i name="time" type="string">21:00:39 </i>
 </generator>
 <incar>
  <i type="string" name="PREC">normal</i>
  <i type="string" name="ALGO"> Normal</i>
  <i type="int" name="ISPIN">     1</i>
  <i type="int" name="ICHARG">     0</i>
  <i type="int" name="NELM">    30</i>
  <i type="int" name="NELMIN">    10</i>
  <i type="int" name="IBRION">     2</i>
  <i name="EDIFF">      0.00000100</i>
  <i name="EDIFFG">     -0.01000000</i>
  <i type="int" name="NSW">   100</i>
  <i type="int" name="ISIF">     2</i>
  <i name="ENCUT">    520.00000000</i>
  <i name="POTIM">      0.00500000</i>
  <v name="MAGMOM">      0.00000000      0.00000000      0.00000000      0.00000000      0.00000000      0.00000000      0.00000000      0.00000000      0.00000000      0.00000000      0.00000000      0.00000000      0.00000000      0.00000000      0.00000000      0.00000000      0.00000000      0.00000000      0.00000000      0.00000000
      0.00000000      0.00000000      0.00000000      0.00000000      0.00000000      0.00000000      0.00000000      0.00000000      0.00000000      0.00000000      0.00000000      0.00000000      0.00000000      0.00000000      0.00000000      0.00000000      0.00000000      0.00000000      0.00000000      0.00000000
      0.00000000      0.00000000      0.00000000      0.00000000      0.00000000      0.00000000      0.00000000      0.00000000      0.00000000      0.00000000      0.00000000      0.00000000      0.00000000      0.00000000      0.00000000      0.00000000      0.00000000      0.00000000      0.00000000      0.00000000
      0.00000000      0.00000000      0.00000000      0.00000000      0.00000000      0.00000000      0.00000000      0.00000000      0.00000000      0.00000000      0.00000000      0.00000000      0.00000000      0.00000000      0.00000000      0.00000000      0.00000000      0.00000000      0.00000000      0.00000000
      0.00000000      0.00000000      0.00000000      0.00000000      0.00000000      0.00000000      0.00000000      0.00000000      0.00000000      0.00000000      0.00000000      0.00000000      0.00000000      0.00000000      0.00000000      0.00000000      0.00000000      0.00000000      0.00000000      0.00000000
      0.00000000      0.00000000      0.00000000      0.00000000      0.00000000      0.00000000      0.00000000      0.00000000</v>
  <i type="string" name="LREAL"> Auto</i>
  <i type="int" name="ISMEAR">     0</i>
  <i name="SIGMA">      0.05000000</i>
  <i type="int" name="LMAXMIX">     4</i>
  <i type="logical" name="LWAVE"> F  </i>
  <i type="logical" name="LCHARG"> F  </i>
  <i type="int" name="LORBIT">    11</i>
  <i type="logical" name="LASPH"> T  </i>
  <v type="int" name="KPOINT_BSE">    -1     0     0     0</v>
  <i type="int" name="NELM">    30</i>
  <i type="logical" name="LASPH"> T  </i>
 </incar>
 <structure name="primitive_cell" >
  <crystal>
   <varray name="basis" >
    <v>       9.12169973       0.00000000       0.00000000 </v>
    <v>       0.00000000       8.37880972       0.00000000 </v>
    <v>       0.00000000       0.00000000      23.69886622 </v>
   </varray>
   <i name="volume">   1811.28032179 </i>
   <varray name="rec_basis" >
    <v>       0.10962869       0.00000000       0.00000000 </v>
    <v>       0.00000000       0.11934869       0.00000000 </v>
    <v>       0.00000000       0.00000000       0.04219611 </v>
   </varray>
  </crystal>
  <varray name="positions" >
   <v>       0.49945717       0.22227243       0.22218441 </v>
   <v>       0.25006595       0.33336972       0.16666462 </v>
   <v>       0.24944113       0.11201480       0.27779284 </v>
   <v>      -0.49944471      -0.44457292       0.22192072 </v>
   <v>       0.49967079      -0.11142682       0.22224873 </v>
   <v>       0.49998553       0.33307265       0.33350028 </v>
   <v>      -0.25011705       0.33365027       0.16653114 </v>
   <v>      -0.24987958       0.11104979       0.27791346 </v>
   <v>       0.49985817       0.11085338       0.11073992 </v>
   <v>       0.24996115       0.44405207       0.27777865 </v>
   <v>       0.25001601      -0.00000921       0.16667484 </v>
   <v>      -0.25004103       0.44461966       0.27782790 </v>
   <v>      -0.25010351      -0.00012922       0.16652009 </v>
   <v>       0.49981687       0.44503749       0.11084458 </v>
   <v>      -0.49940618      -0.00002356       0.33372472 </v>
   <v>       0.00070118       0.22205451       0.22229695 </v>
   <v>       0.25027455      -0.33335339       0.16667689 </v>
   <v>       0.24981463      -0.22211920       0.27787219 </v>
   <v>       0.49987171      -0.33322451       0.33324883 </v>
   <v>      -0.25005634      -0.33349752       0.16652675 </v>
   <v>      -0.24991468      -0.22228199       0.27785503 </v>
   <v>       0.24956005       0.22198081       0.05522187 </v>
   <v>      -0.25076407       0.22194247       0.38920399 </v>
   <v>      -0.24966494       0.22197818       0.05540640 </v>
   <v>       0.49996588      -0.22240945       0.11062505 </v>
   <v>       0.24935849       0.22138662       0.38956482 </v>
   <v>      -0.25127853      -0.11006846       0.05574670 </v>
   <v>       0.00031881      -0.44442277       0.22201885 </v>
   <v>       0.00032032      -0.11104146       0.22227583 </v>
   <v>       0.00030115       0.33320097       0.33332978 </v>
   <v>      -0.25141528      -0.11014458       0.38904184 </v>
   <v>       0.25110623      -0.11096935       0.05529159 </v>
   <v>      -0.49989302       0.11132238       0.44429934 </v>
   <v>       0.00020895       0.11107666       0.11064209 </v>
   <v>       0.49984622       0.33398801      -0.00001194 </v>
   <v>       0.25005873      -0.44439767       0.05535490 </v>
   <v>      -0.25013148      -0.44422208       0.05552698 </v>
   <v>      -0.25049434      -0.44458242       0.38901338 </v>
   <v>       0.24911680      -0.44425110       0.38924640 </v>
   <v>       0.24927061      -0.11078918       0.38946399 </v>
   <v>       0.00073197      -0.00024031       0.33332414 </v>
   <v>      -0.49911899       0.44620564       0.44396288 </v>
   <v>       0.49961187      -0.00118985       0.00020925 </v>
   <v>       0.00004795       0.44468439       0.11075956 </v>
   <v>      -0.00007023      -0.22249460       0.11139155 </v>
   <v>       0.49905075      -0.22108008       0.44450071 </v>
   <v>       0.00042892      -0.33303175       0.33348658 </v>
   <v>       0.49958214      -0.33301903       0.00009621 </v>
   <v>       0.00126089       0.11082081       0.44427962 </v>
   <v>       0.24927900       0.33196863       0.49945148 </v>
   <v>       0.00092896       0.33329642      -0.00002594 </v>
   <v>       0.24941840       0.11098159      -0.05518786 </v>
   <v>      -0.25018976       0.33309458       0.49997382 </v>
   <v>      -0.24952753       0.11115583      -0.05558193 </v>
   <v>       0.25293316      -0.00167560       0.49917682 </v>
   <v>       0.00148144       0.44486166       0.44418704 </v>
   <v>       0.24980698       0.44471200      -0.05515078 </v>
   <v>      -0.25245048       0.44482553      -0.05547924 </v>
   <v>      -0.00001993       0.00010918      -0.00017468 </v>
   <v>      -0.25011051      -0.00017272       0.49996503 </v>
   <v>       0.00340421      -0.22194594       0.44433795 </v>
   <v>       0.00060889      -0.33340488       0.00005642 </v>
   <v>      -0.49972202       0.22232851      -0.11103338 </v>
   <v>      -0.24977106      -0.33308354       0.49986806 </v>
   <v>       0.25013305      -0.33208957       0.49987756 </v>
   <v>       0.25045806      -0.22286254      -0.05574609 </v>
   <v>       0.49758329       0.22084767      -0.44432344 </v>
   <v>      -0.25010260      -0.22221481      -0.05576011 </v>
   <v>      -0.49908170      -0.44419234      -0.11034529 </v>
   <v>      -0.49992535      -0.11180737      -0.11039582 </v>
   <v>       0.49572253      -0.10998473      -0.44472620 </v>
   <v>       0.49932172      -0.44420457      -0.44415877 </v>
   <v>      -0.00079555       0.21998696      -0.11109786 </v>
   <v>       0.00048412       0.22221846      -0.44417277 </v>
   <v>       0.25076309       0.11071119      -0.38953880 </v>
   <v>      -0.00022562      -0.10998715      -0.11059479 </v>
   <v>       0.24989517       0.33323698      -0.16664493 </v>
   <v>       0.00061817      -0.11103415      -0.44433020 </v>
   <v>       0.00045932      -0.44450564      -0.44430054 </v>
   <v>      -0.00005119      -0.44417293      -0.11129767 </v>
   <v>      -0.25041075       0.33292517      -0.16683394 </v>
   <v>      -0.25023590       0.11102736      -0.38868724 </v>
   <v>       0.24836089       0.44751174      -0.38936429 </v>
   <v>      -0.24972369       0.44531190      -0.38915328 </v>
   <v>       0.24978244      -0.00029332      -0.16672790 </v>
   <v>      -0.24994965      -0.00275190      -0.16653981 </v>
   <v>      -0.24963992      -0.33306622      -0.16627455 </v>
   <v>       0.25047156      -0.22257130      -0.38913143 </v>
   <v>       0.24951062      -0.33309222      -0.16664010 </v>
   <v>      -0.24955794      -0.22246737      -0.38900941 </v>
   <v>      -0.49997292       0.33285617      -0.33335298 </v>
   <v>      -0.49981981       0.11107501      -0.22228980 </v>
   <v>      -0.49969367       0.44425820      -0.22210542 </v>
   <v>       0.49965470       0.00101009      -0.33346201 </v>
   <v>      -0.49960352      -0.22198920      -0.22200397 </v>
   <v>       0.49921610      -0.33292680      -0.33367408 </v>
   <v>       0.00057451       0.33375202      -0.33342932 </v>
   <v>      -0.00046025       0.11137892      -0.22230927 </v>
   <v>      -0.00015388       0.44512892      -0.22232276 </v>
   <v>      -0.00131614      -0.00095016      -0.33293106 </v>
   <v>       0.25146827       0.22226731      -0.27714361 </v>
   <v>      -0.24863051       0.22074985      -0.27705345 </v>
   <v>       0.00123244      -0.33362327      -0.33324108 </v>
   <v>      -0.00003706      -0.22306266      -0.22217669 </v>
   <v>       0.24955179      -0.44452778      -0.27812966 </v>
   <v>       0.24977592      -0.11139868      -0.27801796 </v>
   <v>      -0.24930194      -0.44462336      -0.27766292 </v>
   <v>      -0.24970556      -0.11054640      -0.27777744 </v>
  </varray>
 </structure>
 <varray name="primitive_index" >
  <v type="int" >        1 </v>
  <v type="int" >       64 </v>
  <v type="int" >      102 </v>
  <v type="int" >       60 </v>
  <v type="int" >       90 </v>
  <v type="int" >       22 </v>
  <v type="int" >       91 </v>
  <v type="int" >       39 </v>
  <v type="int" >       54 </v>
  <v type="int" >       32 </v>
  <v type="int" >       95 </v>
  <v type="int" >       66 </v>
  <v type="int" >       40 </v>
  <v type="int" >       69 </v>
  <v type="int" >       83 </v>
  <v type="int" >        2 </v>
  <v type="int" >      101 </v>
  <v type="int" >       17 </v>
  <v type="int" >       10 </v>
  <v type="int" >      107 </v>
  <v type="int" >       38 </v>
  <v type="int" >        3 </v>
  <v type="int" >       47 </v>
  <v type="int" >       36 </v>
  <v type="int" >        4 </v>
  <v type="int" >      104 </v>
  <v type="int" >       82 </v>
  <v type="int" >       87 </v>
  <v type="int" >       23 </v>
  <v type="int" >       63 </v>
  <v type="int" >       42 </v>
  <v type="int" >       93 </v>
  <v type="int" >       37 </v>
  <v type="int" >       28 </v>
  <v type="int" >       44 </v>
  <v type="int" >       99 </v>
  <v type="int" >       89 </v>
  <v type="int" >       55 </v>
  <v type="int" >       24 </v>
  <v type="int" >       52 </v>
  <v type="int" >       59 </v>
  <v type="int" >       84 </v>
  <v type="int" >       20 </v>
  <v type="int" >        5 </v>
  <v type="int" >       81 </v>
  <v type="int" >       48 </v>
  <v type="int" >       46 </v>
  <v type="int" >       25 </v>
  <v type="int" >       94 </v>
  <v type="int" >       79 </v>
  <v type="int" >       80 </v>
  <v type="int" >      100 </v>
  <v type="int" >       61 </v>
  <v type="int" >       49 </v>
  <v type="int" >       70 </v>
  <v type="int" >        6 </v>
  <v type="int" >      106 </v>
  <v type="int" >       98 </v>
  <v type="int" >       74 </v>
  <v type="int" >       73 </v>
  <v type="int" >       67 </v>
  <v type="int" >        8 </v>
  <v type="int" >       45 </v>
  <v type="int" >       57 </v>
  <v type="int" >       77 </v>
  <v type="int" >       78 </v>
  <v type="int" >       71 </v>
  <v type="int" >       56 </v>
  <v type="int" >       30 </v>
  <v type="int" >       43 </v>
  <v type="int" >       92 </v>
  <v type="int" >       33 </v>
  <v type="int" >       68 </v>
  <v type="int" >       53 </v>
  <v type="int" >       97 </v>
  <v type="int" >       31 </v>
  <v type="int" >       58 </v>
  <v type="int" >       34 </v>
  <v type="int" >       65 </v>
  <v type="int" >       41 </v>
  <v type="int" >       85 </v>
  <v type="int" >       15 </v>
  <v type="int" >       96 </v>
  <v type="int" >       26 </v>
  <v type="int" >       29 </v>
  <v type="int" >       86 </v>
  <v type="int" >       75 </v>
  <v type="int" >        7 </v>
  <v type="int" >       14 </v>
  <v type="int" >       27 </v>
  <v type="int" >       35 </v>
  <v type="int" >       21 </v>
  <v type="int" >       62 </v>
  <v type="int" >      108 </v>
  <v type="int" >       19 </v>
  <v type="int" >       18 </v>
  <v type="int" >       13 </v>
  <v type="int" >      105 </v>
  <v type="int" >       12 </v>
  <v type="int" >       88 </v>
  <v type="int" >       72 </v>
  <v type="int" >       76 </v>
  <v type="int" >       16 </v>
  <v type="int" >      103 </v>
  <v type="int" >       51 </v>
  <v type="int" >       11 </v>
  <v type="int" >        9 </v>
  <v type="int" >       50 </v>
 </varray>
 <kpoints>
  <generation param="Gamma">
   <v type="int" name="divisions">       4        4        2 </v>
   <v name="usershift">      0.00000000       0.00000000       0.00000000 </v>
   <v name="genvec1">      0.25000000       0.00000000       0.00000000 </v>
   <v name="genvec2">      0.00000000       0.25000000       0.00000000 </v>
   <v name="genvec3">      0.00000000       0.00000000       0.50000000 </v>
   <v name="shift">      0.00000000       0.00000000       0.00000000 </v>
  </generation>
  <varray name="kpointlist" >
   <v>       0.00000000       0.00000000       0.00000000 </v>
   <v>       0.25000000       0.00000000       0.00000000 </v>
   <v>       0.50000000       0.00000000       0.00000000 </v>
   <v>       0.00000000       0.25000000       0.00000000 </v>
   <v>       0.25000000       0.25000000       0.00000000 </v>
   <v>       0.50000000       0.25000000       0.00000000 </v>
   <v>      -0.25000000       0.25000000       0.00000000 </v>
   <v>       0.00000000       0.50000000       0.00000000 </v>
   <v>       0.25000000       0.50000000       0.00000000 </v>
   <v>       0.50000000       0.50000000       0.00000000 </v>
   <v>       0.00000000       0.00000000       0.50000000 </v>
   <v>       0.25000000       0.00000000       0.50000000 </v>
   <v>       0.50000000       0.00000000       0.50000000 </v>
   <v>       0.00000000       0.25000000       0.50000000 </v>
   <v>       0.25000000       0.25000000       0.50000000 </v>
   <v>       0.50000000       0.25000000       0.50000000 </v>
   <v>      -0.25000000       0.25000000       0.50000000 </v>
   <v>       0.00000000       0.50000000       0.50000000 </v>
   <v>       0.25000000       0.50000000       0.50000000 </v>
   <v>       0.50000000       0.50000000       0.50000000 </v>
  </varray>
  <varray name="weights" >
   <v>       0.03125000 </v>
   <v>       0.06250000 </v>
   <v>       0.03125000 </v>
   <v>       0.06250000 </v>
   <v>       0.06250000 </v>
   <v>       0.06250000 </v>
   <v>       0.06250000 </v>
   <v>       0.03125000 </v>
   <v>       0.06250000 </v>
   <v>       0.03125000 </v>
   <v>       0.03125000 </v>
   <v>       0.06250000 </v>
   <v>       0.03125000 </v>
   <v>       0.06250000 </v>
   <v>       0.06250000 </v>
   <v>       0.06250000 </v>
   <v>       0.06250000 </v>
   <v>       0.03125000 </v>
   <v>       0.06250000 </v>
   <v>       0.03125000 </v>
  </varray>
 </kpoints>
 <parameters>
  <separator name="general" >
   <i type="string" name="SYSTEM">unknown system</i>
   <i type="logical" name="LCOMPAT"> F  </i>
  </separator>
  <separator name="electronic" >
   <i type="string" name="PREC">normal</i>
   <i name="ENMAX">    520.00000000</i>
   <i name="ENAUG">    455.65900000</i>
   <i name="EDIFF">      0.00000100</i>
   <i type="int" name="IALGO">    38</i>
   <i type="int" name="IWAVPR">    11</i>
   <i type="int" name="NBANDS">   480</i>
   <i name="NELECT">    772.00000000</i>
   <i type="int" name="TURBO">     0</i>
   <i type="int" name="IRESTART">     0</i>
   <i type="int" name="NREBOOT">     0</i>
   <i type="int" name="NMIN">     0</i>
   <i name="EREF">      0.00000000</i>
   <separator name="electronic smearing" >
    <i type="int" name="ISMEAR">     0</i>
    <i name="SIGMA">      0.05000000</i>
    <i name="KSPACING">      0.50000000</i>
    <i type="logical" name="KGAMMA"> T  </i>
   </separator>
   <separator name="electronic projectors" >
    <i type="logical" name="LREAL"> T  </i>
    <v name="ROPT">     -0.00050000     -0.00050000     -0.00050000     -0.00050000</v>
    <i type="int" name="LMAXPAW">  -100</i>
    <i type="int" name="LMAXMIX">     4</i>
    <i type="logical" name="NLSPLINE"> F  </i>
   </separator>
   <separator name="electronic startup" >
    <i type="int" name="ISTART">     0</i>
    <i type="int" name="ICHARG">     0</i>
    <i type="int" name="INIWAV">     1</i>
   </separator>
   <separator name="electronic spin" >
    <i type="int" name="ISPIN">     1</i>
    <i type="logical" name="LNONCOLLINEAR"> F  </i>
    <v name="MAGMOM">      0.00000000      0.00000000      0.00000000      0.00000000      0.00000000      0.00000000      0.00000000      0.00000000      0.00000000      0.00000000      0.00000000      0.00000000      0.00000000      0.00000000      0.00000000      0.00000000      0.00000000      0.00000000      0.00000000      0.00000000
      0.00000000      0.00000000      0.00000000      0.00000000      0.00000000      0.00000000      0.00000000      0.00000000      0.00000000      0.00000000      0.00000000      0.00000000      0.00000000      0.00000000      0.00000000      0.00000000      0.00000000      0.00000000      0.00000000      0.00000000
      0.00000000      0.00000000      0.00000000      0.00000000      0.00000000      0.00000000      0.00000000      0.00000000      0.00000000      0.00000000      0.00000000      0.00000000      0.00000000      0.00000000      0.00000000      0.00000000      0.00000000      0.00000000      0.00000000      0.00000000
      0.00000000      0.00000000      0.00000000      0.00000000      0.00000000      0.00000000      0.00000000      0.00000000      0.00000000      0.00000000      0.00000000      0.00000000      0.00000000      0.00000000      0.00000000      0.00000000      0.00000000      0.00000000      0.00000000      0.00000000
      0.00000000      0.00000000      0.00000000      0.00000000      0.00000000      0.00000000      0.00000000      0.00000000      0.00000000      0.00000000      0.00000000      0.00000000      0.00000000      0.00000000      0.00000000      0.00000000      0.00000000      0.00000000      0.00000000      0.00000000
      0.00000000      0.00000000      0.00000000      0.00000000      0.00000000      0.00000000      0.00000000      0.00000000</v>
    <i name="NUPDOWN">     -1.00000000</i>
    <i type="logical" name="LSORBIT"> F  </i>
    <v name="SAXIS">      0.00000000      0.00000000      1.00000000</v>
    <i type="logical" name="LSPIRAL"> F  </i>
    <v name="QSPIRAL">      0.00000000      0.00000000      0.00000000</v>
    <i type="logical" name="LZEROZ"> F  </i>
   </separator>
   <separator name="electronic exchange-correlation" >
    <i type="logical" name="LASPH"> T  </i>
    <i type="logical" name="LMETAGGA"> F  </i>
   </separator>
   <separator name="electronic convergence" >
    <i type="int" name="NELM">    30</i>
    <i type="int" name="NELMDL">    -5</i>
    <i type="int" name="NELMIN">    10</i>
    <i name="ENINI">    520.00000000</i>
    <separator name="electronic convergence detail" >
     <i type="logical" name="LDIAG"> T  </i>
     <i type="logical" name="LSUBROT"> F  </i>
     <i name="WEIMIN">      0.00100000</i>
     <i name="EBREAK">      0.00000000</i>
     <i name="DEPER">      0.30000000</i>
     <i type="int" name="NRMM">     4</i>
     <i name="TIME">      0.40000000</i>
    </separator>
   </separator>
   <separator name="electronic mixer" >
    <i name="AMIX">      0.40000000</i>
    <i name="BMIX">      1.00000000</i>
    <i name="AMIN">      0.10000000</i>
    <i name="AMIX_MAG">      1.60000000</i>
    <i name="BMIX_MAG">      1.00000000</i>
    <separator name="electronic mixer details" >
     <i type="int" name="IMIX">     4</i>
     <i type="logical" name="MIXFIRST"> F  </i>
     <i type="int" name="MAXMIX">   -45</i>
     <i name="WC">    100.00000000</i>
     <i type="int" name="INIMIX">     1</i>
     <i type="int" name="MIXPRE">     1</i>
     <i type="int" name="MREMOVE">     5</i>
    </separator>
   </separator>
   <separator name="electronic dipolcorrection" >
    <i type="logical" name="LDIPOL"> F  </i>
    <i type="logical" name="LMONO"> F  </i>
    <i type="int" name="IDIPOL">     0</i>
    <i name="EPSILON">      1.00000000</i>
    <v name="DIPOL">   -100.00000000   -100.00000000   -100.00000000</v>
    <i name="EFIELD">      0.00000000</i>
   </separator>
  </separator>
  <separator name="grids" >
   <i type="int" name="NGX">    54</i>
   <i type="int" name="NGY">    48</i>
   <i type="int" name="NGZ">   140</i>
   <i type="int" name="NGXF">   108</i>
   <i type="int" name="NGYF">    96</i>
   <i type="int" name="NGZF">   280</i>
   <i type="logical" name="ADDGRID"> F  </i>
  </separator>
  <separator name="ionic" >
   <i type="int" name="NSW">   100</i>
   <i type="int" name="IBRION">     2</i>
   <i type="int" name="MDALGO">     0</i>
   <i type="int" name="ISIF">     2</i>
   <i name="PSTRESS">      0.00000000</i>
   <i name="EDIFFG">     -0.01000000</i>
   <i type="int" name="NFREE">     1</i>
   <i name="POTIM">      0.00500000</i>
   <i name="SMASS">     -3.00000000</i>
   <i name="SCALEE">      1.00000000</i>
  </separator>
  <separator name="ionic md" >
   <i name="TEBEG">      0.00010000</i>
   <i name="TEEND">      0.00010000</i>
   <i type="int" name="NBLOCK">     1</i>
   <i type="int" name="KBLOCK">   100</i>
   <i type="int" name="NPACO">   256</i>
   <i name="APACO">     16.00000000</i>
  </separator>
  <separator name="symmetry" >
   <i type="int" name="ISYM">     2</i>
   <i name="SYMPREC">      0.00001000</i>
  </separator>
  <separator name="dos" >
   <i type="int" name="LORBIT">    11</i>
   <v name="RWIGS">     -1.00000000     -1.00000000     -1.00000000     -1.00000000</v>
   <i type="int" name="NEDOS">   301</i>
   <i name="EMIN">     10.00000000</i>
   <i name="EMAX">    -10.00000000</i>
   <i name="EFERMI">      0.00000000</i>
  </separator>
  <separator name="writing" >
   <i type="int" name="NWRITE">     2</i>
   <i type="logical" name="LWAVE"> F  </i>
   <i type="logical" name="LDOWNSAMPLE"> F  </i>
   <i type="logical" name="LCHARG"> F  </i>
   <i type="logical" name="LPARD"> F  </i>
   <i type="logical" name="LVTOT"> F  </i>
   <i type="logical" name="LVHAR"> F  </i>
   <i type="logical" name="LELF"> F  </i>
   <i type="logical" name="LOPTICS"> F  </i>
   <v name="STM">      0.00000000      0.00000000      0.00000000      0.00000000      0.00000000      0.00000000      0.00000000</v>
  </separator>
  <separator name="performance" >
   <i type="int" name="NPAR">    48</i>
   <i type="int" name="NSIM">     4</i>
   <i type="int" name="NBLK">    -1</i>
   <i type="logical" name="LPLANE"> T  </i>
   <i type="logical" name="LSCALAPACK"> T  </i>
   <i type="logical" name="LSCAAWARE"> F  </i>
   <i type="logical" name="LSCALU"> F  </i>
   <i type="logical" name="LASYNC"> F  </i>
   <i type="logical" name="LORBITALREAL"> F  </i>
  </separator>
  <separator name="miscellaneous" >
   <i type="int" name="IDIOT">     3</i>
   <i type="int" name="ISPECIAL">     0</i>
   <i type="logical" name="LMUSIC"> F  </i>
   <v name="POMASS">    180.94800000     47.88000000     92.91000000    183.85000000</v>
   <v name="DARWINR">      0.00000000      0.00000000      0.00000000      0.00000000</v>
   <v name="DARWINV">      1.00000000      1.00000000      1.00000000      1.00000000</v>
   <i type="logical" name="LCORR"> T  </i>
  </separator>
  <i type="logical" name="GGA_COMPAT"> T  </i>
  <i type="logical" name="LBERRY"> F  </i>
  <i type="int" name="ICORELEVEL">     0</i>
  <i type="logical" name="LDAU"> F  </i>
  <i type="int" name="I_CONSTRAINED_M">     0</i>
  <separator name="electronic exchange-correlation" >
   <i type="string" name="GGA">--</i>
   <i type="int" name="VOSKOWN">     0</i>
   <i type="logical" name="LHFCALC"> F  </i>
   <i type="string" name="PRECFOCK"></i>
   <i type="logical" name="LSYMGRAD"> F  </i>
   <i type="logical" name="LHFONE"> F  </i>
   <i type="logical" name="LRHFCALC"> F  </i>
   <i type="logical" name="LTHOMAS"> F  </i>
   <i type="logical" name="LMODELHF"> F  </i>
   <i name="ENCUT4O">     -1.00000000</i>
   <i type="int" name="EXXOEP">     0</i>
   <i type="int" name="FOURORBIT">     0</i>
   <i name="AEXX">      0.00000000</i>
   <i name="HFALPHA">      0.00000000</i>
   <i name="MCALPHA">      0.00000000</i>
   <i name="ALDAX">      1.00000000</i>
   <i name="AGGAX">      1.00000000</i>
   <i name="ALDAC">      1.00000000</i>
   <i name="AGGAC">      1.00000000</i>
   <i type="int" name="NKREDX">     1</i>
   <i type="int" name="NKREDY">     1</i>
   <i type="int" name="NKREDZ">     1</i>
   <i type="logical" name="SHIFTRED"> F  </i>
   <i type="logical" name="ODDONLY"> F  </i>
   <i type="logical" name="EVENONLY"> F  </i>
   <i type="int" name="LMAXFOCK">     0</i>
   <i type="int" name="NMAXFOCKAE">     0</i>
   <i type="logical" name="LFOCKAEDFT"> F  </i>
   <i name="HFSCREEN">      0.00000000</i>
   <i name="HFSCREENC">      0.00000000</i>
   <i type="int" name="NBANDSGWLOW">     0</i>
  </separator>
  <separator name="vdW DFT" >
   <i type="logical" name="LUSE_VDW"> F  </i>
   <i name="Zab_VDW">     -0.84910000</i>
   <i name="PARAM1">      0.12340000</i>
   <i name="PARAM2">      1.00000000</i>
   <i name="PARAM3">      0.00000000</i>
  </separator>
  <separator name="model GW" >
   <i type="int" name="MODEL_GW">     0</i>
   <i name="MODEL_EPS0">     10.06266845</i>
   <i name="MODEL_ALPHA">      1.00000000</i>
  </separator>
  <separator name="linear response parameters" >
   <i type="logical" name="LEPSILON"> F  </i>
   <i type="logical" name="LRPA"> F  </i>
   <i type="logical" name="LNABLA"> F  </i>
   <i type="logical" name="LVEL"> F  </i>
   <i type="int" name="KINTER">     0</i>
   <i name="CSHIFT">      0.10000000</i>
   <i name="OMEGAMAX">     -1.00000000</i>
   <i name="DEG_THRESHOLD">      0.00200000</i>
   <i name="RTIME">     -0.10000000</i>
   <i name="WPLASMAI">      0.00000000</i>
   <v name="DFIELD">      0.00000000      0.00000000      0.00000000</v>
   <v name="WPLASMA">      0.00000000      0.00000000      0.00000000      0.00000000      0.00000000      0.00000000      0.00000000      0.00000000      0.00000000</v>
  </separator>
  <separator name="orbital magnetization" >
   <i type="logical" name="NUCIND"> F  </i>
   <v name="MAGPOS">      0.00000000      0.00000000      0.00000000</v>
   <i type="logical" name="LNICSALL"> T  </i>
   <i type="logical" name="ORBITALMAG"> F  </i>
   <i type="logical" name="LMAGBLOCH"> F  </i>
   <i type="logical" name="LCHIMAG"> F  </i>
   <i type="logical" name="LGAUGE"> T  </i>
   <i type="int" name="MAGATOM">     0</i>
   <v name="MAGDIPOL">      0.00000000      0.00000000      0.00000000</v>
   <v name="AVECCONST">      0.00000000      0.00000000      0.00000000</v>
  </separator>
  <separator name="response functions" >
   <i type="logical" name="LADDER"> F  </i>
   <i type="logical" name="LRPAFORCE"> F  </i>
   <i type="logical" name="LFXC"> F  </i>
   <i type="logical" name="LHARTREE"> T  </i>
   <i type="int" name="IBSE">     0</i>
   <v type="int" name="KPOINT">    -1     0     0     0</v>
   <i type="logical" name="LTCTE"> F  </i>
   <i type="logical" name="LTETE"> F  </i>
   <i type="logical" name="LTRIPLET"> F  </i>
   <i type="logical" name="LFXCEPS"> F  </i>
   <i type="logical" name="LFXHEG"> F  </i>
   <i type="int" name="NATURALO">     2</i>
   <i type="logical" name="L2ORDER"> F  </i>
   <i type="logical" name="LMP2LT"> F  </i>
   <i type="logical" name="LUSEW"> F  </i>
   <i name="ENCUTGW">     -2.00000000</i>
   <i name="ENCUTGWSOFT">     -2.00000000</i>
   <i name="ENCUTLF">     -1.00000000</i>
   <i type="int" name="LMAXMP2">    -1</i>
   <i name="SCISSOR">      0.00000000</i>
   <i type="int" name="NOMEGA">     0</i>
   <i type="int" name="NOMEGAR">     0</i>
   <i type="int" name="NBANDSGW">    -1</i>
   <i type="int" name="NBANDSO">    -1</i>
   <i type="int" name="NBANDSV">    -1</i>
   <i type="int" name="NELM">    30</i>
   <i type="int" name="NELMHF">     1</i>
   <i type="int" name="DIM">     3</i>
   <i type="int" name="ANTIRES">     0</i>
   <i name="OMEGAMAX">    -30.00000000</i>
   <i name="OMEGAMIN">    -30.00000000</i>
   <i name="OMEGATL">   -200.00000000</i>
   <i type="int" name="OMEGAGRID">   140</i>
   <i name="CSHIFT">     -0.10000000</i>
   <i type="logical" name="SELFENERGY"> F  </i>
   <i type="logical" name="LSPECTRAL"> F  </i>
   <i type="logical" name="LSPECTRALGW"> F  </i>
   <i type="logical" name="LSINGLES"> F  </i>
   <i type="logical" name="LFERMIGW"> F  </i>
   <i type="logical" name="ODDONLYGW"> F  </i>
   <i type="logical" name="EVENONLYGW"> F  </i>
   <i type="int" name="NKREDLFX">     1</i>
   <i type="int" name="NKREDLFY">     1</i>
   <i type="int" name="NKREDLFZ">     1</i>
   <i type="int" name="MAXMEM">  2800</i>
   <i type="int" name="TELESCOPE">     0</i>
   <i type="int" name="TAUPAR">     1</i>
   <i type="int" name="OMEGAPAR">    -1</i>
   <i name="LAMBDA">      1.00000000</i>
  </separator>
  <separator name="External order field" >
   <i name="OFIELD_KAPPA">      0.00000000</i>
   <v name="OFIELD_K">      0.00000000      0.00000000      0.00000000</v>
   <i name="OFIELD_Q6_NEAR">      0.00000000</i>
   <i name="OFIELD_Q6_FAR">      0.00000000</i>
   <i name="OFIELD_A">      0.00000000</i>
  </separator>
 </parameters>
 <atominfo>
  <atoms>     108 </atoms>
  <types>       4 </types>
  <array name="atoms" >
   <dimension dim="1">ion</dimension>
   <field type="string">element</field>
   <field type="int">atomtype</field>
   <set>
    <rc><c>Ta</c><c>   1</c></rc>
    <rc><c>Ta</c><c>   1</c></rc>
    <rc><c>Ta</c><c>   1</c></rc>
    <rc><c>Ta</c><c>   1</c></rc>
    <rc><c>Ta</c><c>   1</c></rc>
    <rc><c>Ta</c><c>   1</c></rc>
    <rc><c>Ta</c><c>   1</c></rc>
    <rc><c>Ta</c><c>   1</c></rc>
    <rc><c>Ta</c><c>   1</c></rc>
    <rc><c>Ta</c><c>   1</c></rc>
    <rc><c>Ta</c><c>   1</c></rc>
    <rc><c>Ta</c><c>   1</c></rc>
    <rc><c>Ta</c><c>   1</c></rc>
    <rc><c>Ta</c><c>   1</c></rc>
    <rc><c>Ta</c><c>   1</c></rc>
    <rc><c>Ta</c><c>   1</c></rc>
    <rc><c>Ta</c><c>   1</c></rc>
    <rc><c>Ta</c><c>   1</c></rc>
    <rc><c>Ta</c><c>   1</c></rc>
    <rc><c>Ta</c><c>   1</c></rc>
    <rc><c>Ta</c><c>   1</c></rc>
    <rc><c>Ta</c><c>   1</c></rc>
    <rc><c>Ta</c><c>   1</c></rc>
    <rc><c>Ta</c><c>   1</c></rc>
    <rc><c>Ta</c><c>   1</c></rc>
    <rc><c>Ta</c><c>   1</c></rc>
    <rc><c>Ta</c><c>   1</c></rc>
    <rc><c>Ta</c><c>   1</c></rc>
    <rc><c>Ta</c><c>   1</c></rc>
    <rc><c>Ta</c><c>   1</c></rc>
    <rc><c>Ta</c><c>   1</c></rc>
    <rc><c>Ta</c><c>   1</c></rc>
    <rc><c>Ti</c><c>   2</c></rc>
    <rc><c>Ti</c><c>   2</c></rc>
    <rc><c>Ti</c><c>   2</c></rc>
    <rc><c>Ti</c><c>   2</c></rc>
    <rc><c>Ti</c><c>   2</c></rc>
    <rc><c>Ti</c><c>   2</c></rc>
    <rc><c>Ti</c><c>   2</c></rc>
    <rc><c>Ti</c><c>   2</c></rc>
    <rc><c>Ti</c><c>   2</c></rc>
    <rc><c>Ti</c><c>   2</c></rc>
    <rc><c>Ti</c><c>   2</c></rc>
    <rc><c>Ti</c><c>   2</c></rc>
    <rc><c>Ti</c><c>   2</c></rc>
    <rc><c>Ti</c><c>   2</c></rc>
    <rc><c>Ti</c><c>   2</c></rc>
    <rc><c>Ti</c><c>   2</c></rc>
    <rc><c>Ti</c><c>   2</c></rc>
    <rc><c>Ti</c><c>   2</c></rc>
    <rc><c>Ti</c><c>   2</c></rc>
    <rc><c>Ti</c><c>   2</c></rc>
    <rc><c>Ti</c><c>   2</c></rc>
    <rc><c>Ti</c><c>   2</c></rc>
    <rc><c>Ti</c><c>   2</c></rc>
    <rc><c>Ti</c><c>   2</c></rc>
    <rc><c>Ti</c><c>   2</c></rc>
    <rc><c>Ti</c><c>   2</c></rc>
    <rc><c>Ti</c><c>   2</c></rc>
    <rc><c>Ti</c><c>   2</c></rc>
    <rc><c>Ti</c><c>   2</c></rc>
    <rc><c>Ti</c><c>   2</c></rc>
    <rc><c>Ti</c><c>   2</c></rc>
    <rc><c>Ti</c><c>   2</c></rc>
    <rc><c>Ti</c><c>   2</c></rc>
    <rc><c>Ti</c><c>   2</c></rc>
    <rc><c>Nb</c><c>   3</c></rc>
    <rc><c>Nb</c><c>   3</c></rc>
    <rc><c>Nb</c><c>   3</c></rc>
    <rc><c>Nb</c><c>   3</c></rc>
    <rc><c>Nb</c><c>   3</c></rc>
    <rc><c>Nb</c><c>   3</c></rc>
    <rc><c>Nb</c><c>   3</c></rc>
    <rc><c>Nb</c><c>   3</c></rc>
    <rc><c>Nb</c><c>   3</c></rc>
    <rc><c>Nb</c><c>   3</c></rc>
    <rc><c>Nb</c><c>   3</c></rc>
    <rc><c>Nb</c><c>   3</c></rc>
    <rc><c>Nb</c><c>   3</c></rc>
    <rc><c>Nb</c><c>   3</c></rc>
    <rc><c>Nb</c><c>   3</c></rc>
    <rc><c>Nb</c><c>   3</c></rc>
    <rc><c>Nb</c><c>   3</c></rc>
    <rc><c>Nb</c><c>   3</c></rc>
    <rc><c>Nb</c><c>   3</c></rc>
    <rc><c>Nb</c><c>   3</c></rc>
    <rc><c>Nb</c><c>   3</c></rc>
    <rc><c>Nb</c><c>   3</c></rc>
    <rc><c>Nb</c><c>   3</c></rc>
    <rc><c>Nb</c><c>   3</c></rc>
    <rc><c>Nb</c><c>   3</c></rc>
    <rc><c>Nb</c><c>   3</c></rc>
    <rc><c>Nb</c><c>   3</c></rc>
    <rc><c>Nb</c><c>   3</c></rc>
    <rc><c>Nb</c><c>   3</c></rc>
    <rc><c>Nb</c><c>   3</c></rc>
    <rc><c>Nb</c><c>   3</c></rc>
    <rc><c>Nb</c><c>   3</c></rc>
    <rc><c>W </c><c>   4</c></rc>
    <rc><c>W </c><c>   4</c></rc>
    <rc><c>W </c><c>   4</c></rc>
    <rc><c>W </c><c>   4</c></rc>
    <rc><c>W </c><c>   4</c></rc>
    <rc><c>W </c><c>   4</c></rc>
    <rc><c>W </c><c>   4</c></rc>
    <rc><c>W </c><c>   4</c></rc>
    <rc><c>W </c><c>   4</c></rc>
    <rc><c>W </c><c>   4</c></rc>
   </set>
  </array>
  <array name="atomtypes" >
   <dimension dim="1">type</dimension>
   <field type="int">atomspertype</field>
   <field type="string">element</field>
   <field>mass</field>
   <field>valence</field>
   <field type="string">pseudopotential</field>
   <set>
    <rc><c>  32</c><c>Ta</c><c>    180.94800000</c><c>      5.00000000</c><c>  PAW_PBE Ta 17Jan2003                  </c></rc>
    <rc><c>  34</c><c>Ti</c><c>     47.88000000</c><c>      4.00000000</c><c>  PAW_PBE Ti 08Apr2002                  </c></rc>
    <rc><c>  32</c><c>Nb</c><c>     92.91000000</c><c>     13.00000000</c><c>  PAW_PBE Nb_sv 25May2007               </c></rc>
    <rc><c>  10</c><c>W </c><c>    183.85000000</c><c>      6.00000000</c><c>  PAW_PBE W 08Apr2002                   </c></rc>
   </set>
  </array>
 </atominfo>
 <structure name="initialpos" >
  <crystal>
   <varray name="basis" >
    <v>       9.12169973       0.00000000       0.00000000 </v>
    <v>       0.00000000       8.37880972       0.00000000 </v>
    <v>       0.00000000       0.00000000      23.69886622 </v>
   </varray>
   <i name="volume">   1811.28032179 </i>
   <varray name="rec_basis" >
    <v>       0.10962869       0.00000000       0.00000000 </v>
    <v>       0.00000000       0.11934869       0.00000000 </v>
    <v>       0.00000000       0.00000000       0.04219611 </v>
   </varray>
  </crystal>
  <varray name="positions" >
   <v>       0.49945717       0.22227243       0.22218441 </v>
   <v>       0.00070118       0.22205451       0.22229695 </v>
   <v>       0.24956005       0.22198081       0.05522187 </v>
   <v>       0.49996588       0.77759055       0.11062505 </v>
   <v>       0.00004795       0.44468439       0.11075956 </v>
   <v>       0.00148144       0.44486166       0.44418704 </v>
   <v>       0.25047156       0.77742870       0.61086857 </v>
   <v>       0.00060889       0.66659512       0.00005642 </v>
   <v>       0.75069806       0.55537664       0.72233708 </v>
   <v>       0.49987171       0.66677549       0.33324883 </v>
   <v>       0.24977592       0.88860132       0.72198204 </v>
   <v>       0.99984612       0.44512892       0.77767724 </v>
   <v>       0.00057451       0.33375202       0.66657068 </v>
   <v>       0.24951062       0.66690778       0.83335990 </v>
   <v>       0.74976410       0.11102736       0.61131276 </v>
   <v>       0.00123244       0.66637673       0.66675892 </v>
   <v>       0.24981463       0.77788080       0.27787219 </v>
   <v>       0.49921610       0.66707320       0.66632592 </v>
   <v>       0.50039648       0.77801080       0.77799603 </v>
   <v>       0.49961187       0.99881015       0.00020925 </v>
   <v>       0.50018019       0.11107501       0.77771020 </v>
   <v>       0.49998553       0.33307265       0.33350028 </v>
   <v>       0.00032032       0.88895854       0.22227583 </v>
   <v>       0.24911680       0.55574890       0.38924640 </v>
   <v>       0.49958214       0.66698097       0.00009621 </v>
   <v>       0.75027631       0.44531190       0.61084672 </v>
   <v>       0.75044206       0.77753263       0.61099059 </v>
   <v>       0.00020895       0.11107666       0.11064209 </v>
   <v>       0.24978244       0.99970668       0.83327210 </v>
   <v>       0.50091830       0.55580766       0.88965471 </v>
   <v>       0.99977438       0.89001285       0.88940521 </v>
   <v>       0.24996115       0.44405207       0.27777865 </v>
   <v>       0.49932172       0.55579543       0.55584123 </v>
   <v>       0.00061817       0.88896585       0.55566980 </v>
   <v>       0.50002708       0.33285617       0.66664702 </v>
   <v>       0.75033506       0.22197818       0.05540640 </v>
   <v>       0.50010698       0.11132238       0.44429934 </v>
   <v>       0.75008532       0.77771801       0.27785503 </v>
   <v>       0.75012042       0.11104979       0.27791346 </v>
   <v>       0.74989649       0.99987078       0.16652009 </v>
   <v>       0.99994881       0.55582707       0.88870233 </v>
   <v>       0.74858472       0.88985542       0.38904184 </v>
   <v>       0.50007465       0.88819263       0.88960418 </v>
   <v>       0.49984622       0.33398801       0.99998806 </v>
   <v>       0.50027798       0.22232851       0.88896662 </v>
   <v>       0.00042892       0.66696825       0.33348658 </v>
   <v>       0.74923593       0.22194247       0.38920399 </v>
   <v>       0.49905075       0.77891992       0.44450071 </v>
   <v>       0.75047247       0.11115583       0.94441807 </v>
   <v>       0.75029444       0.88945360       0.72222256 </v>
   <v>       0.24955179       0.55547222       0.72187034 </v>
   <v>       0.24927061       0.88921082       0.38946399 </v>
   <v>       0.00048412       0.22221846       0.55582723 </v>
   <v>       0.49985817       0.11085338       0.11073992 </v>
   <v>       0.74950566       0.55541758       0.38901338 </v>
   <v>       0.74989740       0.77778519       0.94423989 </v>
   <v>       0.75022894       0.66691646       0.49986806 </v>
   <v>       0.24989517       0.33323698       0.83335507 </v>
   <v>       0.00073197       0.99975969       0.33332414 </v>
   <v>       0.50055529       0.55542708       0.22192072 </v>
   <v>       0.74981024       0.33309458       0.49997382 </v>
   <v>       0.50030633       0.44425820       0.77789458 </v>
   <v>       0.00030115       0.33320097       0.33332978 </v>
   <v>       0.25006595       0.33336972       0.16666462 </v>
   <v>       0.00045932       0.55549436       0.55569946 </v>
   <v>       0.74995897       0.44461966       0.27782790 </v>
   <v>       0.00340421       0.77805406       0.44433795 </v>
   <v>       0.99920445       0.21998696       0.88890214 </v>
   <v>       0.49981687       0.44503749       0.11084458 </v>
   <v>       0.25293316       0.99832440       0.49917682 </v>
   <v>       0.49758329       0.22084767       0.55567656 </v>
   <v>       0.25146827       0.22226731       0.72285639 </v>
   <v>       0.74988949       0.99982728       0.49996503 </v>
   <v>       0.99998007       0.00010918       0.99982532 </v>
   <v>       0.75036008       0.66693378       0.83372545 </v>
   <v>       0.75136949       0.22074985       0.72294655 </v>
   <v>       0.25013305       0.66791043       0.49987756 </v>
   <v>       0.25045806       0.77713746       0.94425391 </v>
   <v>       0.24927900       0.33196863       0.49945148 </v>
   <v>       0.00092896       0.33329642       0.99997406 </v>
   <v>       0.99992977       0.77750540       0.11139155 </v>
   <v>       0.74872147       0.88993154       0.05574670 </v>
   <v>       0.50059382       0.99997644       0.33372472 </v>
   <v>       0.50088101       0.44620564       0.44396288 </v>
   <v>       0.74958925       0.33292517       0.83316606 </v>
   <v>       0.75005035       0.99724810       0.83346019 </v>
   <v>       0.00031881       0.55557723       0.22201885 </v>
   <v>       0.99868386       0.99904984       0.66706894 </v>
   <v>       0.74986852       0.55577792       0.05552698 </v>
   <v>       0.49967079       0.88857318       0.22224873 </v>
   <v>       0.74988295       0.33365027       0.16653114 </v>
   <v>       0.49572253       0.89001527       0.55527380 </v>
   <v>       0.25110623       0.88903065       0.05529159 </v>
   <v>       0.00126089       0.11082081       0.44427962 </v>
   <v>       0.25001601       0.99999079       0.16667484 </v>
   <v>       0.24836089       0.44751174       0.61063571 </v>
   <v>       0.25076309       0.11071119       0.61046120 </v>
   <v>       0.74754952       0.44482553       0.94452076 </v>
   <v>       0.25005873       0.55560233       0.05535490 </v>
   <v>       0.24941840       0.11098159       0.94481214 </v>
   <v>       0.25027455       0.66664661       0.16667689 </v>
   <v>       0.24944113       0.11201480       0.27779284 </v>
   <v>       0.99996294       0.77693734       0.77782331 </v>
   <v>       0.24935849       0.22138662       0.38956482 </v>
   <v>       0.99953975       0.11137892       0.77769073 </v>
   <v>       0.24980698       0.44471200       0.94484922 </v>
   <v>       0.74994366       0.66650248       0.16652675 </v>
   <v>       0.49965470       0.00101009       0.66653799 </v>
  </varray>
  <varray name="selective"  type="logical" >
   <v type="logical" >  F  F  T </v>
   <v type="logical" >  F  F  T </v>
   <v type="logical" >  F  F  T </v>
   <v type="logical" >  F  F  T </v>
   <v type="logical" >  F  F  T </v>
   <v type="logical" >  F  F  T </v>
   <v type="logical" >  F  F  T </v>
   <v type="logical" >  F  F  T </v>
   <v type="logical" >  F  F  T </v>
   <v type="logical" >  F  F  T </v>
   <v type="logical" >  F  F  T </v>
   <v type="logical" >  F  F  T </v>
   <v type="logical" >  F  F  T </v>
   <v type="logical" >  F  F  T </v>
   <v type="logical" >  F  F  T </v>
   <v type="logical" >  F  F  T </v>
   <v type="logical" >  F  F  T </v>
   <v type="logical" >  F  F  T </v>
   <v type="logical" >  F  F  T </v>
   <v type="logical" >  F  F  T </v>
   <v type="logical" >  F  F  T </v>
   <v type="logical" >  F  F  T </v>
   <v type="logical" >  F  F  T </v>
   <v type="logical" >  F  F  T </v>
   <v type="logical" >  F  F  T </v>
   <v type="logical" >  F  F  T </v>
   <v type="logical" >  F  F  T </v>
   <v type="logical" >  F  F  T </v>
   <v type="logical" >  F  F  T </v>
   <v type="logical" >  F  F  T </v>
   <v type="logical" >  F  F  T </v>
   <v type="logical" >  F  F  T </v>
   <v type="logical" >  F  F  T </v>
   <v type="logical" >  F  F  T </v>
   <v type="logical" >  F  F  T </v>
   <v type="logical" >  F  F  T </v>
   <v type="logical" >  F  F  T </v>
   <v type="logical" >  F  F  T </v>
   <v type="logical" >  F  F  T </v>
   <v type="logical" >  F  F  T </v>
   <v type="logical" >  F  F  T </v>
   <v type="logical" >  F  F  T </v>
   <v type="logical" >  F  F  T </v>
   <v type="logical" >  F  F  T </v>
   <v type="logical" >  F  F  T </v>
   <v type="logical" >  F  F  T </v>
   <v type="logical" >  F  F  T </v>
   <v type="logical" >  F  F  T </v>
   <v type="logical" >  F  F  T </v>
   <v type="logical" >  F  F  T </v>
   <v type="logical" >  F  F  T </v>
   <v type="logical" >  F  F  T </v>
   <v type="logical" >  F  F  T </v>
   <v type="logical" >  F  F  T </v>
   <v type="logical" >  F  F  T </v>
   <v type="logical" >  F  F  T </v>
   <v type="logical" >  F  F  T </v>
   <v type="logical" >  F  F  T </v>
   <v type="logical" >  F  F  T </v>
   <v type="logical" >  F  F  T </v>
   <v type="logical" >  F  F  T </v>
   <v type="logical" >  F  F  T </v>
   <v type="logical" >  F  F  T </v>
   <v type="logical" >  F  F  T </v>
   <v type="logical" >  F  F  T </v>
   <v type="logical" >  F  F  T </v>
   <v type="logical" >  F  F  T </v>
   <v type="logical" >  F  F  T </v>
   <v type="logical" >  F  F  T </v>
   <v type="logical" >  F  F  T </v>
   <v type="logical" >  F  F  T </v>
   <v type="logical" >  F  F  T </v>
   <v type="logical" >  F  F  T </v>
   <v type="logical" >  F  F  T </v>
   <v type="logical" >  F  F  T </v>
   <v type="logical" >  F  F  T </v>
   <v type="logical" >  F  F  T </v>
   <v type="logical" >  F  F  T </v>
   <v type="logical" >  F  F  T </v>
   <v type="logical" >  F  F  T </v>
   <v type="logical" >  F  F  T </v>
   <v type="logical" >  F  F  T </v>
   <v type="logical" >  F  F  T </v>
   <v type="logical" >  F  F  T </v>
   <v type="logical" >  F  F  T </v>
   <v type="logical" >  F  F  T </v>
   <v type="logical" >  F  F  T </v>
   <v type="logical" >  F  F  T </v>
   <v type="logical" >  F  F  T </v>
   <v type="logical" >  F  F  T </v>
   <v type="logical" >  F  F  T </v>
   <v type="logical" >  F  F  T </v>
   <v type="logical" >  F  F  T </v>
   <v type="logical" >  F  F  T </v>
   <v type="logical" >  F  F  T </v>
   <v type="logical" >  F  F  T </v>
   <v type="logical" >  F  F  T </v>
   <v type="logical" >  F  F  T </v>
   <v type="logical" >  F  F  T </v>
   <v type="logical" >  F  F  T </v>
   <v type="logical" >  F  F  T </v>
   <v type="logical" >  F  F  T </v>
   <v type="logical" >  F  F  T </v>
   <v type="logical" >  F  F  T </v>
   <v type="logical" >  F  F  T </v>
   <v type="logical" >  F  F  T </v>
   <v type="logical" >  F  F  T </v>
   <v type="logical" >  F  F  T </v>
  </varray>
  <nose>
   <v>      -3.00000000       0.00000000       0.00010000       0.00010000 </v>
  </nose>
 </structure>
 <calculation>
  <scstep>
   <time name="dav">  126.55  127.41</time>
   <time name="total">  127.05  127.92</time>
   <energy>
    <i name="alphaZ">   4871.05958751 </i>
    <i name="ewald"> -46979.47540318 </i>
    <i name="hartreedc">   -305.93971526 </i>
    <i name="XCdc">  -2561.73797207 </i>
    <i name="pawpsdc">3614673.95709268 </i>
    <i name="pawaedc">**************** </i>
    <i name="eentropy">     -0.01045593 </i>
    <i name="bandstr"> -57738.79124852 </i>
    <i name="atom">  59215.75643617 </i>
    <i name="e_fr_energy"> -39550.82844309 </i>
    <i name="e_wo_entrp"> -39550.81798716 </i>
    <i name="e_0_energy"> -39550.82321512 </i>
   </energy>
  </scstep>
  <scstep>
   <time name="dav">  138.41  139.40</time>
   <time name="total">  138.41  139.41</time>
   <energy>
    <i name="e_fr_energy"> -58328.29273982 </i>
    <i name="e_wo_entrp"> -58328.28003461 </i>
    <i name="e_0_energy"> -58328.28638722 </i>
   </energy>
  </scstep>
  <scstep>
   <time name="dav">  145.03  146.02</time>
   <time name="total">  145.03  146.03</time>
   <energy>
    <i name="e_fr_energy"> -61181.66185797 </i>
    <i name="e_wo_entrp"> -61181.65136419 </i>
    <i name="e_0_energy"> -61181.65661108 </i>
   </energy>
  </scstep>
  <scstep>
   <time name="dav">  145.28  146.26</time>
   <time name="total">  145.28  146.27</time>
   <energy>
    <i name="e_fr_energy"> -62122.80240723 </i>
    <i name="e_wo_entrp"> -62122.79156924 </i>
    <i name="e_0_energy"> -62122.79698823 </i>
   </energy>
  </scstep>
  <scstep>
   <time name="dav">  146.78  147.82</time>
   <time name="total">  148.90  149.95</time>
   <energy>
    <i name="e_fr_energy"> -62640.05355927 </i>
    <i name="e_wo_entrp"> -62640.02692030 </i>
    <i name="e_0_energy"> -62640.04023979 </i>
   </energy>
  </scstep>
  <scstep>
   <time name="dav">  130.75  131.63</time>
   <time name="total">  133.29  134.20</time>
   <energy>
    <i name="e_fr_energy"> -22595.12085900 </i>
    <i name="e_wo_entrp"> -22595.10550889 </i>
    <i name="e_0_energy"> -22595.11318395 </i>
   </energy>
  </scstep>
  <scstep>
   <time name="dav">  143.52  144.52</time>
   <time name="total">  146.01  147.03</time>
   <energy>
    <i name="e_fr_energy"> -13401.18475961 </i>
    <i name="e_wo_entrp"> -13401.16402093 </i>
    <i name="e_0_energy"> -13401.17439027 </i>
   </energy>
  </scstep>
  <scstep>
   <time name="dav">  144.97  145.94</time>
   <time name="total">  147.50  148.50</time>
   <energy>
    <i name="e_fr_energy"> -17700.49188740 </i>
    <i name="e_wo_entrp"> -17700.47429148 </i>
    <i name="e_0_energy"> -17700.48308944 </i>
   </energy>
  </scstep>
  <scstep>
   <time name="dav">  138.66  139.58</time>
   <time name="total">  141.41  142.36</time>
   <energy>
    <i name="e_fr_energy">  -5142.29537133 </i>
    <i name="e_wo_entrp">  -5142.26864045 </i>
    <i name="e_0_energy">  -5142.28200589 </i>
   </energy>
  </scstep>
  <scstep>
   <time name="dav">  132.87  133.81</time>
   <time name="total">  135.60  136.56</time>
   <energy>
    <i name="e_fr_energy">  -5395.72739075 </i>
    <i name="e_wo_entrp">  -5395.68343827 </i>
    <i name="e_0_energy">  -5395.70541451 </i>
   </energy>
  </scstep>
  <scstep>
   <time name="dav">  123.63  124.44</time>
   <time name="total">  126.12  126.95</time>
   <energy>
    <i name="e_fr_energy">  -3265.95056917 </i>
    <i name="e_wo_entrp">  -3265.89727711 </i>
    <i name="e_0_energy">  -3265.92392314 </i>
   </energy>
  </scstep>
  <scstep>
   <time name="dav">  124.60  125.44</time>
   <time name="total">  127.24  128.10</time>
   <energy>
    <i name="e_fr_energy">  -4736.88797584 </i>
    <i name="e_wo_entrp">  -4736.83802476 </i>
    <i name="e_0_energy">  -4736.86300030 </i>
   </energy>
  </scstep>
  <scstep>
   <time name="dav">  132.71  133.62</time>
   <time name="total">  135.27  136.20</time>
   <energy>
    <i name="e_fr_energy">  -5825.77464685 </i>
    <i name="e_wo_entrp">  -5825.73060018 </i>
    <i name="e_0_energy">  -5825.75262352 </i>
   </energy>
  </scstep>
  <scstep>
   <time name="dav">  128.97  129.96</time>
   <time name="total">  131.39  132.41</time>
   <energy>
    <i name="e_fr_energy">  -5109.39870285 </i>
    <i name="e_wo_entrp">  -5109.35281259 </i>
    <i name="e_0_energy">  -5109.37575772 </i>
   </energy>
  </scstep>
  <scstep>
   <time name="dav">  126.12  127.18</time>
   <time name="total">  128.67  129.75</time>
   <energy>
    <i name="e_fr_energy">  -5014.71151788 </i>
    <i name="e_wo_entrp">  -5014.66740224 </i>
    <i name="e_0_energy">  -5014.68946006 </i>
   </energy>
  </scstep>
  <scstep>
   <time name="dav">  130.72  131.62</time>
   <time name="total">  133.27  134.19</time>
   <energy>
    <i name="e_fr_energy">  -4964.02569471 </i>
    <i name="e_wo_entrp">  -4963.95837719 </i>
    <i name="e_0_energy">  -4963.99203595 </i>
   </energy>
  </scstep>
  <scstep>
   <time name="dav">  131.95  132.85</time>
   <time name="total">  134.51  135.43</time>
   <energy>
    <i name="e_fr_energy">  -4917.56156447 </i>
    <i name="e_wo_entrp">  -4917.49999175 </i>
    <i name="e_0_energy">  -4917.53077811 </i>
   </energy>
  </scstep>
  <scstep>
   <time name="dav">  136.56  137.57</time>
   <time name="total">  139.04  140.06</time>
   <energy>
    <i name="e_fr_energy">  -7697.84975803 </i>
    <i name="e_wo_entrp">  -7697.81443634 </i>
    <i name="e_0_energy">  -7697.83209719 </i>
   </energy>
  </scstep>
  <scstep>
   <time name="dav">  112.99  113.74</time>
   <time name="total">  115.40  116.17</time>
   <energy>
    <i name="e_fr_energy">  -8878.59103370 </i>
    <i name="e_wo_entrp">  -8878.55087098 </i>
    <i name="e_0_energy">  -8878.57095234 </i>
   </energy>
  </scstep>
  <scstep>
   <time name="dav">  121.04  121.86</time>
   <time name="total">  123.59  124.43</time>
   <energy>
    <i name="e_fr_energy">  -8665.27414693 </i>
    <i name="e_wo_entrp">  -8665.22521700 </i>
    <i name="e_0_energy">  -8665.24968197 </i>
   </energy>
  </scstep>
  <scstep>
   <time name="dav">   93.00   93.63</time>
   <time name="total">   95.46   96.11</time>
   <energy>
    <i name="e_fr_energy">  -9938.95107835 </i>
    <i name="e_wo_entrp">  -9938.90479449 </i>
    <i name="e_0_energy">  -9938.92793642 </i>
   </energy>
  </scstep>
  <scstep>
   <time name="dav">  114.57  115.37</time>
   <time name="total">  117.03  117.87</time>
   <energy>
    <i name="e_fr_energy"> -10143.46882125 </i>
    <i name="e_wo_entrp"> -10143.41456727 </i>
    <i name="e_0_energy"> -10143.44169426 </i>
   </energy>
  </scstep>
  <scstep>
   <time name="dav">  120.64  121.46</time>
   <time name="total">  123.06  123.89</time>
   <energy>
    <i name="e_fr_energy"> -10096.79791592 </i>
    <i name="e_wo_entrp"> -10096.73572348 </i>
    <i name="e_0_energy"> -10096.76681970 </i>
   </energy>
  </scstep>
  <scstep>
   <time name="dav">  122.05  122.86</time>
   <time name="total">  124.53  125.36</time>
   <energy>
    <i name="e_fr_energy"> -10000.96797958 </i>
    <i name="e_wo_entrp"> -10000.91955938 </i>
    <i name="e_0_energy"> -10000.94376948 </i>
   </energy>
  </scstep>
  <scstep>
   <time name="dav">  112.68  113.50</time>
   <time name="total">  115.19  116.02</time>
   <energy>
    <i name="e_fr_energy"> -10008.90700496 </i>
    <i name="e_wo_entrp"> -10008.85971209 </i>
    <i name="e_0_energy"> -10008.88335853 </i>
   </energy>
  </scstep>
  <scstep>
   <time name="dav">  125.83  126.70</time>
   <time name="total">  128.38  129.27</time>
   <energy>
    <i name="e_fr_energy"> -10010.21455961 </i>
    <i name="e_wo_entrp"> -10010.17196591 </i>
    <i name="e_0_energy"> -10010.19326276 </i>
   </energy>
  </scstep>
  <scstep>
   <time name="dav">   94.50   95.19</time>
   <time name="total">   96.97   97.69</time>
   <energy>
    <i name="e_fr_energy">  -9987.24535863 </i>
    <i name="e_wo_entrp">  -9987.20874100 </i>
    <i name="e_0_energy">  -9987.22704981 </i>
   </energy>
  </scstep>
  <scstep>
   <time name="dav">  102.67  103.44</time>
   <time name="total">  105.31  106.10</time>
   <energy>
    <i name="e_fr_energy"> -10812.86249949 </i>
    <i name="e_wo_entrp"> -10812.79698977 </i>
    <i name="e_0_energy"> -10812.82974463 </i>
   </energy>
  </scstep>
  <scstep>
   <time name="dav">  106.26  106.99</time>
   <time name="total">  108.83  109.57</time>
   <energy>
    <i name="e_fr_energy"> -11552.58897518 </i>
    <i name="e_wo_entrp"> -11552.54076714 </i>
    <i name="e_0_energy"> -11552.56487116 </i>
   </energy>
  </scstep>
  <scstep>
   <time name="dav">  105.97  106.70</time>
   <time name="total">  106.47  107.20</time>
   <energy>
    <i name="alphaZ">   4871.05958751 </i>
    <i name="ewald"> -46979.47540318 </i>
    <i name="hartreedc"> -19427.60504577 </i>
    <i name="XCdc">  -1699.69507317 </i>
    <i name="pawpsdc">3203795.69501336 </i>
    <i name="pawaedc">**************** </i>
    <i name="eentropy">     -0.05839363 </i>
    <i name="bandstr"> -13193.58870059 </i>
    <i name="atom">  59215.75643617 </i>
    <i name="e_fr_energy"> -11569.17134875 </i>
    <i name="e_wo_entrp"> -11569.11295512 </i>
    <i name="e_0_energy"> -11569.14215194 </i>
   </energy>
  </scstep>
  <structure>
   <crystal>
    <varray name="basis" >
     <v>       9.12169973       0.00000000       0.00000000 </v>
     <v>       0.00000000       8.37880972       0.00000000 </v>
     <v>       0.00000000       0.00000000      23.69886622 </v>
    </varray>
    <i name="volume">   1811.28032179 </i>
    <varray name="rec_basis" >
     <v>       0.10962869       0.00000000       0.00000000 </v>
     <v>       0.00000000       0.11934869       0.00000000 </v>
     <v>       0.00000000       0.00000000       0.04219611 </v>
    </varray>
   </crystal>
   <varray name="positions" >
    <v>       0.49945717       0.22227243       0.22218441 </v>
    <v>       0.00070118       0.22205451       0.22229695 </v>
    <v>       0.24956005       0.22198081       0.05522187 </v>
    <v>       0.49996588       0.77759055       0.11062505 </v>
    <v>       0.00004795       0.44468439       0.11075956 </v>
    <v>       0.00148144       0.44486166       0.44418704 </v>
    <v>       0.25047156       0.77742870       0.61086857 </v>
    <v>       0.00060889       0.66659512       0.00005642 </v>
    <v>       0.75069806       0.55537664       0.72233708 </v>
    <v>       0.49987171       0.66677549       0.33324883 </v>
    <v>       0.24977592       0.88860132       0.72198204 </v>
    <v>       0.99984612       0.44512892       0.77767724 </v>
    <v>       0.00057451       0.33375202       0.66657068 </v>
    <v>       0.24951062       0.66690778       0.83335990 </v>
    <v>       0.74976410       0.11102736       0.61131276 </v>
    <v>       0.00123244       0.66637673       0.66675892 </v>
    <v>       0.24981463       0.77788080       0.27787219 </v>
    <v>       0.49921610       0.66707320       0.66632592 </v>
    <v>       0.50039648       0.77801080       0.77799603 </v>
    <v>       0.49961187       0.99881015       0.00020925 </v>
    <v>       0.50018019       0.11107501       0.77771020 </v>
    <v>       0.49998553       0.33307265       0.33350028 </v>
    <v>       0.00032032       0.88895854       0.22227583 </v>
    <v>       0.24911680       0.55574890       0.38924640 </v>
    <v>       0.49958214       0.66698097       0.00009621 </v>
    <v>       0.75027631       0.44531190       0.61084672 </v>
    <v>       0.75044206       0.77753263       0.61099059 </v>
    <v>       0.00020895       0.11107666       0.11064209 </v>
    <v>       0.24978244       0.99970668       0.83327210 </v>
    <v>       0.50091830       0.55580766       0.88965471 </v>
    <v>       0.99977438       0.89001285       0.88940521 </v>
    <v>       0.24996115       0.44405207       0.27777865 </v>
    <v>       0.49932172       0.55579543       0.55584123 </v>
    <v>       0.00061817       0.88896585       0.55566980 </v>
    <v>       0.50002708       0.33285617       0.66664702 </v>
    <v>       0.75033506       0.22197818       0.05540640 </v>
    <v>       0.50010698       0.11132238       0.44429934 </v>
    <v>       0.75008532       0.77771801       0.27785503 </v>
    <v>       0.75012042       0.11104979       0.27791346 </v>
    <v>       0.74989649       0.99987078       0.16652009 </v>
    <v>       0.99994881       0.55582707       0.88870233 </v>
    <v>       0.74858472       0.88985542       0.38904184 </v>
    <v>       0.50007465       0.88819263       0.88960418 </v>
    <v>       0.49984622       0.33398801       0.99998806 </v>
    <v>       0.50027798       0.22232851       0.88896662 </v>
    <v>       0.00042892       0.66696825       0.33348658 </v>
    <v>       0.74923593       0.22194247       0.38920399 </v>
    <v>       0.49905075       0.77891992       0.44450071 </v>
    <v>       0.75047247       0.11115583       0.94441807 </v>
    <v>       0.75029444       0.88945360       0.72222256 </v>
    <v>       0.24955179       0.55547222       0.72187034 </v>
    <v>       0.24927061       0.88921082       0.38946399 </v>
    <v>       0.00048412       0.22221846       0.55582723 </v>
    <v>       0.49985817       0.11085338       0.11073992 </v>
    <v>       0.74950566       0.55541758       0.38901338 </v>
    <v>       0.74989740       0.77778519       0.94423989 </v>
    <v>       0.75022894       0.66691646       0.49986806 </v>
    <v>       0.24989517       0.33323698       0.83335507 </v>
    <v>       0.00073197       0.99975969       0.33332414 </v>
    <v>       0.50055529       0.55542708       0.22192072 </v>
    <v>       0.74981024       0.33309458       0.49997382 </v>
    <v>       0.50030633       0.44425820       0.77789458 </v>
    <v>       0.00030115       0.33320097       0.33332978 </v>
    <v>       0.25006595       0.33336972       0.16666462 </v>
    <v>       0.00045932       0.55549436       0.55569946 </v>
    <v>       0.74995897       0.44461966       0.27782790 </v>
    <v>       0.00340421       0.77805406       0.44433795 </v>
    <v>       0.99920445       0.21998696       0.88890214 </v>
    <v>       0.49981687       0.44503749       0.11084458 </v>
    <v>       0.25293316       0.99832440       0.49917682 </v>
    <v>       0.49758329       0.22084767       0.55567656 </v>
    <v>       0.25146827       0.22226731       0.72285639 </v>
    <v>       0.74988949       0.99982728       0.49996503 </v>
    <v>       0.99998007       0.00010918       0.99982532 </v>
    <v>       0.75036008       0.66693378       0.83372545 </v>
    <v>       0.75136949       0.22074985       0.72294655 </v>
    <v>       0.25013305       0.66791043       0.49987756 </v>
    <v>       0.25045806       0.77713746       0.94425391 </v>
    <v>       0.24927900       0.33196863       0.49945148 </v>
    <v>       0.00092896       0.33329642       0.99997406 </v>
    <v>       0.99992977       0.77750540       0.11139155 </v>
    <v>       0.74872147       0.88993154       0.05574670 </v>
    <v>       0.50059382       0.99997644       0.33372472 </v>
    <v>       0.50088101       0.44620564       0.44396288 </v>
    <v>       0.74958925       0.33292517       0.83316606 </v>
    <v>       0.75005035       0.99724810       0.83346019 </v>
    <v>       0.00031881       0.55557723       0.22201885 </v>
    <v>       0.99868386       0.99904984       0.66706894 </v>
    <v>       0.74986852       0.55577792       0.05552698 </v>
    <v>       0.49967079       0.88857318       0.22224873 </v>
    <v>       0.74988295       0.33365027       0.16653114 </v>
    <v>       0.49572253       0.89001527       0.55527380 </v>
    <v>       0.25110623       0.88903065       0.05529159 </v>
    <v>       0.00126089       0.11082081       0.44427962 </v>
    <v>       0.25001601       0.99999079       0.16667484 </v>
    <v>       0.24836089       0.44751174       0.61063571 </v>
    <v>       0.25076309       0.11071119       0.61046120 </v>
    <v>       0.74754952       0.44482553       0.94452076 </v>
    <v>       0.25005873       0.55560233       0.05535490 </v>
    <v>       0.24941840       0.11098159       0.94481214 </v>
    <v>       0.25027455       0.66664661       0.16667689 </v>
    <v>       0.24944113       0.11201480       0.27779284 </v>
    <v>       0.99996294       0.77693734       0.77782331 </v>
    <v>       0.24935849       0.22138662       0.38956482 </v>
    <v>       0.99953975       0.11137892       0.77769073 </v>
    <v>       0.24980698       0.44471200       0.94484922 </v>
    <v>       0.74994366       0.66650248       0.16652675 </v>
    <v>       0.49965470       0.00101009       0.66653799 </v>
   </varray>
  </structure>
  <varray name="forces" >
   <v>      -3.19470707       9.55480894      11.37648660 </v>
   <v>       2.34757523      -3.66233227       2.15202790 </v>
   <v>     -10.58066656      -1.82939162     -15.03983978 </v>
   <v>       2.56904476      -3.96174072     -34.22635629 </v>
   <v>      -5.28235291       6.05917960     -43.29666655 </v>
   <v>      17.57591789       5.62880996      10.46699083 </v>
   <v>     -11.37452621       1.80546388      15.23165410 </v>
   <v>      -0.04119871      -2.83472692       6.54775853 </v>
   <v>      57.83770515      -0.15615303       2.12079431 </v>
   <v>     -20.28547804       7.57106690       3.02200496 </v>
   <v>     -25.37056003     -49.76048016       7.92893607 </v>
   <v>       7.37189481      61.32111533     -40.86186333 </v>
   <v>     -12.95801766      38.09162343      11.28686471 </v>
   <v>     -40.78049871      16.20989452     -45.74027318 </v>
   <v>      20.84157161      -8.95964691     -17.04660390 </v>
   <v>      37.89957645     -11.62437041      51.96349620 </v>
   <v>       0.44669379       5.72638822      17.44237052 </v>
   <v>      18.02704269     -26.43722753     -26.24317878 </v>
   <v>     -20.26612624      18.99055983       7.47507454 </v>
   <v>       6.42062572      -3.62702323      -3.14977336 </v>
   <v>     -20.19361468      -2.13766982      17.85629338 </v>
   <v>     -12.26445979      -0.21303234      -1.09560359 </v>
   <v>       2.78565297       4.48387458       8.31860399 </v>
   <v>       3.13337058      24.69555112      10.58120923 </v>
   <v>      11.50152315      -8.80627277       6.64618265 </v>
   <v>     -29.59193287      55.73293913     -27.79604434 </v>
   <v>       6.39839030     -76.57009688     -23.22025381 </v>
   <v>      -4.99954896       2.17743686     -41.37825959 </v>
   <v>      12.40301920     -18.87727928     -24.31101762 </v>
   <v>       2.17965420       5.31484921      22.47303161 </v>
   <v>       3.03659776      -4.14981571      -6.52978832 </v>
   <v>       7.92882539       6.87232990       6.13469754 </v>
   <v>      91.32686120     -13.70692485      40.10917801 </v>
   <v>     -58.74133538     -22.14694090     -22.53592828 </v>
   <v>      13.01181675      51.08067921     -43.54310594 </v>
   <v>      17.70040541     -12.29409398     -35.51178141 </v>
   <v>      29.14174321     -11.10740776      -9.68717739 </v>
   <v>      -1.11842643       2.63348707       8.88421560 </v>
   <v>       2.69965612      -1.68660908       3.59975300 </v>
   <v>      -4.29247914       3.30773478       3.85293181 </v>
   <v>       7.62231240       1.16168315     -27.80848533 </v>
   <v>      -2.88276266       0.40804226       7.41494941 </v>
   <v>      -1.29489183      -9.33552338      91.51514103 </v>
   <v>      25.03313018      21.42570949      -5.58990906 </v>
   <v>       4.30346318      -2.37317506       0.01722229 </v>
   <v>      11.69869954       3.85872888       7.08819582 </v>
   <v>      -4.78992223      -2.80758941       5.61205604 </v>
   <v>      29.77582014      10.88207818       1.02892631 </v>
   <v>       0.13636315      14.97531554      53.35529881 </v>
   <v>       1.32617184      -3.52034221      -9.26258079 </v>
   <v>     -41.62774352      17.99623581      -1.79181785 </v>
   <v>     -22.03433106     -27.43485450     -22.23603286 </v>
   <v>      30.27098931      25.21826748     -61.11654900 </v>
   <v>       8.21512689      -0.20080774      -6.30820911 </v>
   <v>       0.06430161       5.56944620       2.00976845 </v>
   <v>     -10.05757754      -2.95495760      63.42694705 </v>
   <v>     -10.41310231     -40.95375503      68.61735840 </v>
   <v>      -2.56530577       5.73854736     -15.18588855 </v>
   <v>       5.90499451      -4.49254839       4.50984147 </v>
   <v>      10.61631993     -13.14009322     -15.73575217 </v>
   <v>      24.83650437      51.76867261      24.53103452 </v>
   <v>      -8.45657120     -10.80297104      -0.73788293 </v>
   <v>      -0.04985550       3.69555904      -2.65456457 </v>
   <v>      -0.07923006       7.47472644       2.12406346 </v>
   <v>     -98.64939909      -3.59357223      -9.22104023 </v>
   <v>      -4.35806372       1.62385478       4.43695253 </v>
   <v>      20.82302123       8.51977968      12.97166247 </v>
   <v>      -5.46367475       1.85798429       7.04666518 </v>
   <v>      -4.11521268       9.03150717     -26.29124913 </v>
   <v>      20.73091170     -27.06711947     -27.16425041 </v>
   <v>      10.60472389       4.31250171      -1.20342827 </v>
   <v>       5.85673948      17.28099912       1.33317486 </v>
   <v>      -7.37215391       5.27467018      24.25299472 </v>
   <v>     -13.80618719       1.72981404      12.64249845 </v>
   <v>       4.95058393       6.93616486      -7.20072390 </v>
   <v>      -1.05908287      10.11928015     -28.45056376 </v>
   <v>       3.05097432       5.75072185       7.93098310 </v>
   <v>       6.82261624      -8.22385809      18.80850902 </v>
   <v>      -1.14598827       4.00803632       1.22663161 </v>
   <v>       4.37468931      11.76832553      18.14485991 </v>
   <v>      -2.91379981      -4.45760618     -15.06713979 </v>
   <v>     -14.71244164      10.33797772      -3.69916798 </v>
   <v>     -24.98525958      -5.86311250      23.55891064 </v>
   <v>     -14.00952039      -3.52463250      17.08177643 </v>
   <v>      10.47077975       3.77675345      -2.91083314 </v>
   <v>     -14.36462275       2.79794561       4.54160252 </v>
   <v>       7.46754530       0.28896199      -0.42883501 </v>
   <v>     -21.66625425     -14.40755335     -25.67100197 </v>
   <v>      -8.02880415       0.44997201     -19.49545137 </v>
   <v>      -6.40858488     -14.09190455       3.34788653 </v>
   <v>       0.35315396       2.69506702      -8.38779638 </v>
   <v>      -9.25301367     -17.01656575       3.22425297 </v>
   <v>      12.15362255       4.86054002      -7.17560968 </v>
   <v>       5.74945653      -7.44535033      17.09110315 </v>
   <v>      -9.43288847       1.34490641       3.01673749 </v>
   <v>      -4.84102342      14.93629182       3.99478688 </v>
   <v>      -7.98939877     -16.51681700      -8.19697970 </v>
   <v>     -46.23641767       6.92603860      34.43324032 </v>
   <v>      -3.65970452       0.27361879      -9.98016643 </v>
   <v>      -0.51153530       5.03766870      19.29894348 </v>
   <v>       7.41083337       0.62547661      16.05115610 </v>
   <v>       3.77001400     -10.83561742      11.67760013 </v>
   <v>      42.09171889     -74.82646512     -46.51207674 </v>
   <v>      14.69011698     -19.80451563      19.55186600 </v>
   <v>      -5.49083524      -1.11685702     -12.76022907 </v>
   <v>      -4.68399611       1.52029252      20.68268450 </v>
   <v>      -8.25747262       0.84395230      -1.88972033 </v>
   <v>      13.24169592     -11.00250725     -21.72138718 </v>
  </varray>
  <varray name="stress" >
   <v>   64635.90479728     764.67505159     683.80976304 </v>
   <v>     764.67484131   68109.80827274    -272.85024719 </v>
   <v>     683.80966212    -272.84987228  -38410.94471300 </v>
  </varray>
  <energy>
   <i name="e_fr_energy"> -11569.17134875 </i>
   <i name="e_wo_entrp"> -11569.14215194 </i>
   <i name="e_0_energy">     -0.05839363 </i>
  </energy>
  <time name="totalsc"> 3889.89 3917.14</time>
 </calculation>
 <calculation>
  <scstep>
   <time name="dav">  106.18  107.03</time>
   <time name="total">  108.57  109.44</time>
   <energy>
    <i name="alphaZ">   4871.05958751 </i>
    <i name="ewald"> -46954.52467147 </i>
    <i name="hartreedc"> -19741.63808601 </i>
    <i name="XCdc">  -1679.22914443 </i>
    <i name="pawpsdc">3090956.49999328 </i>
    <i name="pawaedc">**************** </i>
    <i name="eentropy">     -0.07718423 </i>
    <i name="bandstr"> -13225.83403553 </i>
    <i name="atom">  59215.75643617 </i>
    <i name="e_fr_energy"> -11873.85668585 </i>
    <i name="e_wo_entrp"> -11873.77950162 </i>
    <i name="e_0_energy"> -11873.81809374 </i>
   </energy>
  </scstep>
  <scstep>
   <time name="dav">  135.45  136.37</time>
   <time name="total">  137.91  138.84</time>
   <energy>
    <i name="e_fr_energy"> -13785.69526495 </i>
    <i name="e_wo_entrp"> -13785.67683274 </i>
    <i name="e_0_energy"> -13785.68604884 </i>
   </energy>
  </scstep>
  <scstep>
   <time name="dav">  141.36  142.38</time>
   <time name="total">  143.86  144.90</time>
   <energy>
    <i name="e_fr_energy"> -15835.18815795 </i>
    <i name="e_wo_entrp"> -15835.16867397 </i>
    <i name="e_0_energy"> -15835.17841596 </i>
   </energy>
  </scstep>
  <scstep>
   <time name="dav">  131.47  132.37</time>
   <time name="total">  134.01  134.93</time>
   <energy>
    <i name="e_fr_energy">  -3759.37624215 </i>
    <i name="e_wo_entrp">  -3759.33683453 </i>
    <i name="e_0_energy">  -3759.35653834 </i>
   </energy>
  </scstep>
  <scstep>
   <time name="dav">  134.00  135.01</time>
   <time name="total">  136.60  137.63</time>
   <energy>
    <i name="e_fr_energy">  -4216.67346083 </i>
    <i name="e_wo_entrp">  -4216.61804292 </i>
    <i name="e_0_energy">  -4216.64575187 </i>
   </energy>
  </scstep>
  <scstep>
   <time name="dav">  145.59  146.56</time>
   <time name="total">  148.10  149.09</time>
   <energy>
    <i name="e_fr_energy"> -13626.03626448 </i>
    <i name="e_wo_entrp"> -13626.01779425 </i>
    <i name="e_0_energy"> -13626.02702937 </i>
   </energy>
  </scstep>
  <scstep>
   <time name="dav">  115.38  116.16</time>
   <time name="total">  117.82  118.62</time>
   <energy>
    <i name="e_fr_energy"> -12598.56823285 </i>
    <i name="e_wo_entrp"> -12598.54007077 </i>
    <i name="e_0_energy"> -12598.55415181 </i>
   </energy>
  </scstep>
  <scstep>
   <time name="dav">  124.80  125.80</time>
   <time name="total">  127.14  128.15</time>
   <energy>
    <i name="e_fr_energy"> -12266.40161733 </i>
    <i name="e_wo_entrp"> -12266.35970658 </i>
    <i name="e_0_energy"> -12266.38066196 </i>
   </energy>
  </scstep>
  <scstep>
   <time name="dav">  132.43  133.31</time>
   <time name="total">  134.86  135.76</time>
   <energy>
    <i name="e_fr_energy">  -5339.96530452 </i>
    <i name="e_wo_entrp">  -5339.92320402 </i>
    <i name="e_0_energy">  -5339.94425427 </i>
   </energy>
  </scstep>
  <scstep>
   <time name="dav">  130.66  131.56</time>
   <time name="total">  133.09  134.01</time>
   <energy>
    <i name="e_fr_energy">  -5628.67608723 </i>
    <i name="e_wo_entrp">  -5628.63934715 </i>
    <i name="e_0_energy">  -5628.65771719 </i>
   </energy>
  </scstep>
  <scstep>
   <time name="dav">  126.63  127.50</time>
   <time name="total">  129.09  129.98</time>
   <energy>
    <i name="e_fr_energy">  -3288.26798237 </i>
    <i name="e_wo_entrp">  -3288.21816253 </i>
    <i name="e_0_energy">  -3288.24307245 </i>
   </energy>
  </scstep>
  <scstep>
   <time name="dav">  133.91  134.90</time>
   <time name="total">  136.50  137.51</time>
   <energy>
    <i name="e_fr_energy">  -3770.80085993 </i>
    <i name="e_wo_entrp">  -3770.75121440 </i>
    <i name="e_0_energy">  -3770.77603717 </i>
   </energy>
  </scstep>
  <scstep>
   <time name="dav">  129.92  130.87</time>
   <time name="total">  132.33  133.30</time>
   <energy>
    <i name="e_fr_energy">  -2749.20840712 </i>
    <i name="e_wo_entrp">  -2749.14377352 </i>
    <i name="e_0_energy">  -2749.17609032 </i>
   </energy>
  </scstep>
  <scstep>
   <time name="dav">  119.26  120.11</time>
   <time name="total">  121.82  122.69</time>
   <energy>
    <i name="e_fr_energy">  -2555.32691214 </i>
    <i name="e_wo_entrp">  -2555.23444112 </i>
    <i name="e_0_energy">  -2555.28067663 </i>
   </energy>
  </scstep>
  <scstep>
   <time name="dav">  133.45  134.37</time>
   <time name="total">  135.96  136.90</time>
   <energy>
    <i name="e_fr_energy">  -2457.61030974 </i>
    <i name="e_wo_entrp">  -2457.49830000 </i>
    <i name="e_0_energy">  -2457.55430487 </i>
   </energy>
  </scstep>
  <scstep>
   <time name="dav">  144.18  145.20</time>
   <time name="total">  146.70  147.73</time>
   <energy>
    <i name="e_fr_energy">  -2368.16473347 </i>
    <i name="e_wo_entrp">  -2368.04949148 </i>
    <i name="e_0_energy">  -2368.10711247 </i>
   </energy>
  </scstep>
  <scstep>
   <time name="dav">  121.15  121.97</time>
   <time name="total">  123.70  124.55</time>
   <energy>
    <i name="e_fr_energy">  -2673.11851722 </i>
    <i name="e_wo_entrp">  -2673.02420591 </i>
    <i name="e_0_energy">  -2673.07136157 </i>
   </energy>
  </scstep>
  <scstep>
   <time name="dav">  125.49  126.36</time>
   <time name="total">  128.03  128.92</time>
   <energy>
    <i name="e_fr_energy">  -2702.55046478 </i>
    <i name="e_wo_entrp">  -2702.46014006 </i>
    <i name="e_0_energy">  -2702.50530242 </i>
   </energy>
  </scstep>
  <scstep>
   <time name="dav">  132.10  132.99</time>
   <time name="total">  134.47  135.38</time>
   <energy>
    <i name="e_fr_energy">  -2704.39353307 </i>
    <i name="e_wo_entrp">  -2704.30088500 </i>
    <i name="e_0_energy">  -2704.34720903 </i>
   </energy>
  </scstep>
  <scstep>
   <time name="dav">  114.22  115.02</time>
   <time name="total">  116.76  117.59</time>
   <energy>
    <i name="e_fr_energy">  -2687.47697463 </i>
    <i name="e_wo_entrp">  -2687.38533862 </i>
    <i name="e_0_energy">  -2687.43115663 </i>
   </energy>
  </scstep>
  <scstep>
   <time name="dav">  103.65  104.38</time>
   <time name="total">  106.06  106.81</time>
   <energy>
    <i name="e_fr_energy">  -2720.61707358 </i>
    <i name="e_wo_entrp">  -2720.52537160 </i>
    <i name="e_0_energy">  -2720.57122259 </i>
   </energy>
  </scstep>
  <scstep>
   <time name="dav">  110.97  111.76</time>
   <time name="total">  113.50  114.30</time>
   <energy>
    <i name="e_fr_energy">  -2756.92169911 </i>
    <i name="e_wo_entrp">  -2756.82751374 </i>
    <i name="e_0_energy">  -2756.87460643 </i>
   </energy>
  </scstep>
  <scstep>
   <time name="dav">  123.88  124.73</time>
   <time name="total">  126.44  127.31</time>
   <energy>
    <i name="e_fr_energy">  -2791.54358929 </i>
    <i name="e_wo_entrp">  -2791.44117862 </i>
    <i name="e_0_energy">  -2791.49238396 </i>
   </energy>
  </scstep>
  <scstep>
   <time name="dav">  131.79  132.74</time>
   <time name="total">  134.31  135.28</time>
   <energy>
    <i name="e_fr_energy">  -2797.83040444 </i>
    <i name="e_wo_entrp">  -2797.72800318 </i>
    <i name="e_0_energy">  -2797.77920381 </i>
   </energy>
  </scstep>
  <scstep>
   <time name="dav">  111.96  112.71</time>
   <time name="total">  114.40  115.18</time>
   <energy>
    <i name="e_fr_energy">  -2777.23766697 </i>
    <i name="e_wo_entrp">  -2777.13712198 </i>
    <i name="e_0_energy">  -2777.18739447 </i>
   </energy>
  </scstep>
  <scstep>
   <time name="dav">  105.14  105.89</time>
   <time name="total">  107.63  108.39</time>
   <energy>
    <i name="e_fr_energy">  -2743.51340320 </i>
    <i name="e_wo_entrp">  -2743.40562993 </i>
    <i name="e_0_energy">  -2743.45951656 </i>
   </energy>
  </scstep>
  <scstep>
   <time name="dav">  103.52  104.28</time>
   <time name="total">  105.96  106.73</time>
   <energy>
    <i name="e_fr_energy">  -2526.13547909 </i>
    <i name="e_wo_entrp">  -2526.04944490 </i>
    <i name="e_0_energy">  -2526.09246200 </i>
   </energy>
  </scstep>
  <scstep>
   <time name="dav">  110.15  110.88</time>
   <time name="total">  112.73  113.49</time>
   <energy>
    <i name="e_fr_energy">  -2423.99737045 </i>
    <i name="e_wo_entrp">  -2423.87670971 </i>
    <i name="e_0_energy">  -2423.93704008 </i>
   </energy>
  </scstep>
  <scstep>
   <time name="dav">  121.27  122.10</time>
   <time name="total">  123.78  124.62</time>
   <energy>
    <i name="e_fr_energy">  -2305.35781108 </i>
    <i name="e_wo_entrp">  -2305.24419763 </i>
    <i name="e_0_energy">  -2305.30100435 </i>
   </energy>
  </scstep>
  <scstep>
   <time name="dav">  120.99  121.82</time>
   <time name="total">  121.48  122.32</time>
   <energy>
    <i name="alphaZ">   4871.05958751 </i>
    <i name="ewald"> -46954.52467147 </i>
    <i name="hartreedc"> -16919.40327647 </i>
    <i name="XCdc">  -1986.06472062 </i>
    <i name="pawpsdc">1698820.77944717 </i>
    <i name="pawaedc">**************** </i>
    <i name="eentropy">     -0.11355949 </i>
    <i name="bandstr">  -5751.35717118 </i>
    <i name="atom">  59215.75643617 </i>
    <i name="e_fr_energy">  -2400.56385078 </i>
    <i name="e_wo_entrp">  -2400.45029130 </i>
    <i name="e_0_energy">  -2400.50707104 </i>
   </energy>
  </scstep>
  <structure>
   <crystal>
    <varray name="basis" >
     <v>       9.12169973       0.00000000       0.00000000 </v>
     <v>       0.00000000       8.37880972       0.00000000 </v>
     <v>       0.00000000       0.00000000      23.69886622 </v>
    </varray>
    <i name="volume">   1811.28032179 </i>
    <varray name="rec_basis" >
     <v>       0.10962869       0.00000000       0.00000000 </v>
     <v>       0.00000000       0.11934869       0.00000000 </v>
     <v>       0.00000000       0.00000000       0.04219611 </v>
    </varray>
   </crystal>
   <varray name="positions" >
    <v>       0.49945717       0.22227243       0.22241600 </v>
    <v>       0.00070118       0.22205451       0.22234076 </v>
    <v>       0.24956005       0.22198081       0.05491571 </v>
    <v>       0.49996588       0.77759055       0.10992832 </v>
    <v>       0.00004795       0.44468439       0.10987819 </v>
    <v>       0.00148144       0.44486166       0.44440011 </v>
    <v>       0.25047156       0.77742870       0.61117863 </v>
    <v>       0.00060889       0.66659512       0.00018971 </v>
    <v>       0.75069806       0.55537664       0.72238025 </v>
    <v>       0.49987171       0.66677549       0.33331035 </v>
    <v>       0.24977592       0.88860132       0.72214345 </v>
    <v>       0.99984612       0.44512892       0.77684544 </v>
    <v>       0.00057451       0.33375202       0.66680044 </v>
    <v>       0.24951062       0.66690778       0.83242879 </v>
    <v>       0.74976410       0.11102736       0.61096575 </v>
    <v>       0.00123244       0.66637673       0.66781672 </v>
    <v>       0.24981463       0.77788080       0.27822725 </v>
    <v>       0.49921610       0.66707320       0.66579170 </v>
    <v>       0.50039648       0.77801080       0.77814819 </v>
    <v>       0.49961187       0.99881015       0.00014513 </v>
    <v>       0.50018019       0.11107501       0.77807370 </v>
    <v>       0.49998553       0.33307265       0.33347798 </v>
    <v>       0.00032032       0.88895854       0.22244517 </v>
    <v>       0.24911680       0.55574890       0.38946179 </v>
    <v>       0.49958214       0.66698097       0.00023150 </v>
    <v>       0.75027631       0.44531190       0.61028089 </v>
    <v>       0.75044206       0.77753263       0.61051790 </v>
    <v>       0.00020895       0.11107666       0.10979978 </v>
    <v>       0.24978244       0.99970668       0.83277721 </v>
    <v>       0.50091830       0.55580766       0.89011218 </v>
    <v>       0.99977438       0.89001285       0.88927228 </v>
    <v>       0.24996115       0.44405207       0.27790353 </v>
    <v>       0.49932172       0.55579543       0.55665772 </v>
    <v>       0.00061817       0.88896585       0.55521105 </v>
    <v>       0.50002708       0.33285617       0.66576063 </v>
    <v>       0.75033506       0.22197818       0.05468351 </v>
    <v>       0.50010698       0.11132238       0.44410215 </v>
    <v>       0.75008532       0.77771801       0.27803589 </v>
    <v>       0.75012042       0.11104979       0.27798674 </v>
    <v>       0.74989649       0.99987078       0.16659852 </v>
    <v>       0.99994881       0.55582707       0.88813624 </v>
    <v>       0.74858472       0.88985542       0.38919278 </v>
    <v>       0.50007465       0.88819263       0.89146711 </v>
    <v>       0.49984622       0.33398801       0.99987426 </v>
    <v>       0.50027798       0.22232851       0.88896697 </v>
    <v>       0.00042892       0.66696825       0.33363088 </v>
    <v>       0.74923593       0.22194247       0.38931823 </v>
    <v>       0.49905075       0.77891992       0.44452165 </v>
    <v>       0.75047247       0.11115583       0.94550420 </v>
    <v>       0.75029444       0.88945360       0.72203401 </v>
    <v>       0.24955179       0.55547222       0.72183387 </v>
    <v>       0.24927061       0.88921082       0.38901134 </v>
    <v>       0.00048412       0.22221846       0.55458311 </v>
    <v>       0.49985817       0.11085338       0.11061151 </v>
    <v>       0.74950566       0.55541758       0.38905429 </v>
    <v>       0.74989740       0.77778519       0.94553104 </v>
    <v>       0.75022894       0.66691646       0.50126487 </v>
    <v>       0.24989517       0.33323698       0.83304594 </v>
    <v>       0.00073197       0.99975969       0.33341594 </v>
    <v>       0.50055529       0.55542708       0.22160039 </v>
    <v>       0.74981024       0.33309458       0.50047319 </v>
    <v>       0.50030633       0.44425820       0.77787956 </v>
    <v>       0.00030115       0.33320097       0.33327574 </v>
    <v>       0.25006595       0.33336972       0.16670785 </v>
    <v>       0.00045932       0.55549436       0.55551175 </v>
    <v>       0.74995897       0.44461966       0.27791822 </v>
    <v>       0.00340421       0.77805406       0.44460201 </v>
    <v>       0.99920445       0.21998696       0.88904558 </v>
    <v>       0.49981687       0.44503749       0.11030938 </v>
    <v>       0.25293316       0.99832440       0.49862386 </v>
    <v>       0.49758329       0.22084767       0.55565206 </v>
    <v>       0.25146827       0.22226731       0.72288353 </v>
    <v>       0.74988949       0.99982728       0.50045873 </v>
    <v>       0.99998007       0.00010918       0.00008268 </v>
    <v>       0.75036008       0.66693378       0.83357887 </v>
    <v>       0.75136949       0.22074985       0.72236739 </v>
    <v>       0.25013305       0.66791043       0.50003901 </v>
    <v>       0.25045806       0.77713746       0.94463678 </v>
    <v>       0.24927900       0.33196863       0.49947645 </v>
    <v>       0.00092896       0.33329642       0.00034343 </v>
    <v>       0.99992977       0.77750540       0.11108484 </v>
    <v>       0.74872147       0.88993154       0.05567140 </v>
    <v>       0.50059382       0.99997644       0.33420429 </v>
    <v>       0.50088101       0.44620564       0.44431061 </v>
    <v>       0.74958925       0.33292517       0.83310680 </v>
    <v>       0.75005035       0.99724810       0.83355264 </v>
    <v>       0.00031881       0.55557723       0.22201012 </v>
    <v>       0.99868386       0.99904984       0.66654637 </v>
    <v>       0.74986852       0.55577792       0.05513012 </v>
    <v>       0.49967079       0.88857318       0.22231688 </v>
    <v>       0.74988295       0.33365027       0.16636039 </v>
    <v>       0.49572253       0.89001527       0.55533943 </v>
    <v>       0.25110623       0.88903065       0.05514552 </v>
    <v>       0.00126089       0.11082081       0.44462753 </v>
    <v>       0.25001601       0.99999079       0.16673625 </v>
    <v>       0.24836089       0.44751174       0.61071703 </v>
    <v>       0.25076309       0.11071119       0.61029434 </v>
    <v>       0.74754952       0.44482553       0.94522170 </v>
    <v>       0.25005873       0.55560233       0.05515173 </v>
    <v>       0.24941840       0.11098159       0.94520500 </v>
    <v>       0.25027455       0.66664661       0.16700363 </v>
    <v>       0.24944113       0.11201480       0.27803055 </v>
    <v>       0.99996294       0.77693734       0.77687648 </v>
    <v>       0.24935849       0.22138662       0.38996283 </v>
    <v>       0.99953975       0.11137892       0.77743097 </v>
    <v>       0.24980698       0.44471200       0.94527025 </v>
    <v>       0.74994366       0.66650248       0.16648828 </v>
    <v>       0.49965470       0.00101009       0.66609582 </v>
   </varray>
  </structure>
  <varray name="forces" >
   <v>       3.00324596       0.81700844      -4.89696548 </v>
   <v>      -1.86465140       1.46850929      -8.94228325 </v>
   <v>      -7.54733368      -0.82600558      -5.51261388 </v>
   <v>      -0.62312097      -3.19976248      -8.22831998 </v>
   <v>      -2.69843765      -0.88502446      -6.35329259 </v>
   <v>       0.26735791      -2.92672651       5.76159513 </v>
   <v>       5.80272006       0.01957108      -2.84311421 </v>
   <v>      -2.27968268      -1.23625375       1.66541503 </v>
   <v>      -1.61507225       0.84622111       7.90475701 </v>
   <v>      -0.57276095      -0.13003975       0.29750060 </v>
   <v>      -2.42082279      -3.08687745       7.97066002 </v>
   <v>       3.94693544       2.71165180       7.57899203 </v>
   <v>       2.68153254       1.64777950       3.68408333 </v>
   <v>      -0.14969706      -2.78005342       2.38327810 </v>
   <v>      -0.66507287      -1.03841292      -7.88173196 </v>
   <v>       2.36791953      -1.72879761       7.13833808 </v>
   <v>      -2.63614968      -0.02489838      -8.06525430 </v>
   <v>      -1.11147356      -1.64095771       1.75710805 </v>
   <v>      -0.29562012      -2.69161022       7.49404017 </v>
   <v>       8.85671269      -2.49355389      -1.95098896 </v>
   <v>      -1.86427857       4.59999119       8.59914190 </v>
   <v>      -1.13521443      -2.27631701       7.14366125 </v>
   <v>       2.99404232       0.08463950      -7.84031217 </v>
   <v>       2.61354939      -7.38021665       2.38701897 </v>
   <v>       2.19145111       6.25452610       2.31030661 </v>
   <v>      -2.08002075       6.81656551      -6.29111875 </v>
   <v>      -4.98666147      -4.34334781     -10.91019838 </v>
   <v>      -2.65154306       4.76323381     -11.35204107 </v>
   <v>       0.93547557       0.83740996       4.79538152 </v>
   <v>       0.42938614       2.53969639       1.18126974 </v>
   <v>      -1.96541847      -2.07146122       4.19831430 </v>
   <v>      -3.61872261       0.72465952      -2.85944721 </v>
   <v>       3.94993250       5.11590298      -6.98095471 </v>
   <v>      -4.86367341      -0.39910725      -7.24285108 </v>
   <v>      -2.73577613       3.79581154       7.14216130 </v>
   <v>       7.37118550      -5.44765492     -13.98940738 </v>
   <v>       1.61242810       8.30526856       5.82620624 </v>
   <v>       3.23384038      -0.58927102      -8.37228349 </v>
   <v>       1.54080424       1.84528616      -4.04455725 </v>
   <v>       5.87056256      -0.40426467      -6.85487527 </v>
   <v>      -1.68733862       0.94273585       1.41708578 </v>
   <v>       2.56290468       1.26089351       6.73672578 </v>
   <v>       5.28464647       1.95647667       6.52234553 </v>
   <v>      -1.12085918       2.16066842       0.70395739 </v>
   <v>       0.51445281      -1.85241124       1.90266218 </v>
   <v>       0.79132790       0.08413835      -6.19524662 </v>
   <v>       1.54022141       0.02237213       2.45185393 </v>
   <v>       6.71518620      -4.13063600      10.46447900 </v>
   <v>      -3.93251297      -3.61541346      13.94436151 </v>
   <v>       3.14198233      -0.64425690       8.55807211 </v>
   <v>       4.30079313      -5.70793577      13.17686263 </v>
   <v>      -0.70466191       4.58238764       0.13883091 </v>
   <v>       2.61590218       0.57035531      -5.69173552 </v>
   <v>      -3.75685245      -2.18793073      -1.91953307 </v>
   <v>      -3.15351742      -2.01208764      14.07709260 </v>
   <v>      -3.42576581       5.18166926       4.88463827 </v>
   <v>     -12.87090583     -11.65350022       0.89095131 </v>
   <v>       3.65658001       1.73457890       2.41091413 </v>
   <v>       0.93246087       3.32213538      -0.44305862 </v>
   <v>       1.58747647       0.92815148     -11.41220955 </v>
   <v>      -6.72503281       6.78784168      -5.75469128 </v>
   <v>      -0.58219358      -3.89859990       4.59917691 </v>
   <v>       2.81425402      -3.78039739      -0.39538179 </v>
   <v>      -2.74618719       0.69114274      -8.39580185 </v>
   <v>      -6.24787264       2.91013658      -6.79058417 </v>
   <v>       3.41677847      -1.24469673     -10.52430194 </v>
   <v>     -11.35094819      -3.25869961       9.91609603 </v>
   <v>      -1.36663058       1.01226619       7.65632531 </v>
   <v>       3.71553254       3.02959940      -8.13986182 </v>
   <v>       0.75933394       5.63604915       1.20894199 </v>
   <v>       0.92655065       1.24374303      -7.22155962 </v>
   <v>       1.83628558       5.54202424       5.52477061 </v>
   <v>      -0.36129260     -11.37500026       1.63238204 </v>
   <v>      -4.66148918       3.79626375       3.80180196 </v>
   <v>       0.59399485      -0.54769092       7.82128245 </v>
   <v>      -1.65509645       1.16396488       7.83541470 </v>
   <v>       3.21966220      -5.49692197       4.75182750 </v>
   <v>       2.56329301       0.09695903       5.56135714 </v>
   <v>       0.63380858      -0.28428800      -0.33956142 </v>
   <v>      -5.33475869      -1.96103491       6.25692616 </v>
   <v>       1.56135174      -1.76460206      -7.56139446 </v>
   <v>      -0.93228121       6.51987976     -14.11693060 </v>
   <v>      -0.60813792       2.50299302      -2.51050214 </v>
   <v>       5.99519629      -3.66996371       7.28110072 </v>
   <v>      -2.71435137       1.58507888       5.24954021 </v>
   <v>      -1.35560433       0.56763084       9.90777510 </v>
   <v>      -0.81991672       0.84819132      -9.30211915 </v>
   <v>       0.66583038      -0.78684499       4.19825578 </v>
   <v>       1.30343744      -4.08398570      -4.35492605 </v>
   <v>      -3.64836905       0.54946191      -5.82145966 </v>
   <v>       3.71343710       0.74616653     -14.99521756 </v>
   <v>      -1.63321433       0.27924468      -0.39244812 </v>
   <v>      -0.23082513       0.73901375      -2.19148581 </v>
   <v>       4.06708768       3.79991357      -3.48681437 </v>
   <v>      -3.07007506      -2.10371722      -9.58843150 </v>
   <v>       2.50378802      -1.30621772      -0.23601794 </v>
   <v>       0.15611518       1.91581714      -2.72385516 </v>
   <v>       5.57284432      -1.83289003       6.99501744 </v>
   <v>      -0.65495602       0.82737429      -5.26997734 </v>
   <v>       0.28408773      -0.38862894       5.18175100 </v>
   <v>      -2.14395513       1.64131431      -7.21263957 </v>
   <v>       0.39232944      -0.15763967      -3.43294015 </v>
   <v>       0.51626106       0.32512702       6.31332856 </v>
   <v>      -3.83832771       1.46833283       4.69829202 </v>
   <v>       1.92811877      -0.21571576       5.67816949 </v>
   <v>      -3.34355960       0.73463570       4.96126285 </v>
   <v>       2.31150300      -2.08774149      -5.41664179 </v>
   <v>       2.29479586      -3.25039794       0.71908162 </v>
  </varray>
  <varray name="stress" >
   <v>   55812.29376624    -104.52092546      20.46644053 </v>
   <v>    -104.52092300   56114.49252086      23.39558839 </v>
   <v>      20.46641985      23.39554187  -50346.04932589 </v>
  </varray>
  <energy>
   <i name="e_fr_energy">  -2400.56385078 </i>
   <i name="e_wo_entrp">  -2400.50707104 </i>
   <i name="e_0_energy">     -0.11355949 </i>
  </energy>
  <time name="totalsc"> 3858.86 3886.07</time>
 </calculation>
 <calculation>
  <scstep>
   <time name="dav">  113.15  113.91</time>
   <time name="total">  115.65  116.42</time>
   <energy>
    <i name="alphaZ">   4871.05958751 </i>
    <i name="ewald"> -46952.52640983 </i>
    <i name="hartreedc"> -16995.51208613 </i>
    <i name="XCdc">  -1979.28500983 </i>
    <i name="pawpsdc">2100128.05600412 </i>
    <i name="pawaedc">**************** </i>
    <i name="eentropy">     -0.10464613 </i>
    <i name="bandstr">  -5825.00420102 </i>
    <i name="atom">  59215.75643617 </i>
    <i name="e_fr_energy">  -2485.00028323 </i>
    <i name="e_wo_entrp">  -2484.89563710 </i>
    <i name="e_0_energy">  -2484.94796016 </i>
   </energy>
  </scstep>
  <scstep>
   <time name="dav">  124.92  125.80</time>
   <time name="total">  127.38  128.28</time>
   <energy>
    <i name="e_fr_energy"> -23145.75201613 </i>
    <i name="e_wo_entrp"> -23145.73712771 </i>
    <i name="e_0_energy"> -23145.74457192 </i>
   </energy>
  </scstep>
  <scstep>
   <time name="dav">  142.27  143.27</time>
   <time name="total">  144.70  145.72</time>
   <energy>
    <i name="e_fr_energy">  -2395.31298771 </i>
    <i name="e_wo_entrp">  -2395.27267951 </i>
    <i name="e_0_energy">  -2395.29283361 </i>
   </energy>
  </scstep>
  <scstep>
   <time name="dav">  131.77  132.67</time>
   <time name="total">  134.31  135.23</time>
   <energy>
    <i name="e_fr_energy">  -5238.77096674 </i>
    <i name="e_wo_entrp">  -5238.72532773 </i>
    <i name="e_0_energy">  -5238.74814723 </i>
   </energy>
  </scstep>
  <scstep>
   <time name="dav">  136.53  137.51</time>
   <time name="total">  139.08  140.09</time>
   <energy>
    <i name="e_fr_energy">  -4014.36687285 </i>
    <i name="e_wo_entrp">  -4014.32669121 </i>
    <i name="e_0_energy">  -4014.34678203 </i>
   </energy>
  </scstep>
  <scstep>
   <time name="dav">  130.57  131.49</time>
   <time name="total">  133.14  134.08</time>
   <energy>
    <i name="e_fr_energy">  -2059.18365852 </i>
    <i name="e_wo_entrp">  -2059.12177885 </i>
    <i name="e_0_energy">  -2059.15271869 </i>
   </energy>
  </scstep>
  <scstep>
   <time name="dav">  139.69  140.63</time>
   <time name="total">  142.40  143.37</time>
   <energy>
    <i name="e_fr_energy">  -3177.73056461 </i>
    <i name="e_wo_entrp">  -3177.69172341 </i>
    <i name="e_0_energy">  -3177.71114401 </i>
   </energy>
  </scstep>
  <scstep>
   <time name="dav">  134.83  135.71</time>
   <time name="total">  137.51  138.42</time>
   <energy>
    <i name="e_fr_energy">  -1509.49484614 </i>
    <i name="e_wo_entrp">  -1509.41459500 </i>
    <i name="e_0_energy">  -1509.45472057 </i>
   </energy>
  </scstep>
  <scstep>
   <time name="dav">  128.86  129.69</time>
   <time name="total">  131.35  132.20</time>
   <energy>
    <i name="e_fr_energy">  -1551.92680730 </i>
    <i name="e_wo_entrp">  -1551.84652123 </i>
    <i name="e_0_energy">  -1551.88666426 </i>
   </energy>
  </scstep>
  <scstep>
   <time name="dav">  131.13  131.99</time>
   <time name="total">  133.68  134.55</time>
   <energy>
    <i name="e_fr_energy">  -1777.72621468 </i>
    <i name="e_wo_entrp">  -1777.65240799 </i>
    <i name="e_0_energy">  -1777.68931133 </i>
   </energy>
  </scstep>
  <scstep>
   <time name="dav">  125.39  126.19</time>
   <time name="total">  127.88  128.70</time>
   <energy>
    <i name="e_fr_energy">  -1333.62611138 </i>
    <i name="e_wo_entrp">  -1333.52263158 </i>
    <i name="e_0_energy">  -1333.57437148 </i>
   </energy>
  </scstep>
  <scstep>
   <time name="dav">  109.00  109.85</time>
   <time name="total">  111.50  112.37</time>
   <energy>
    <i name="e_fr_energy">  -1195.28035094 </i>
    <i name="e_wo_entrp">  -1195.17112687 </i>
    <i name="e_0_energy">  -1195.22573890 </i>
   </energy>
  </scstep>
  <scstep>
   <time name="dav">  113.30  114.08</time>
   <time name="total">  115.88  116.68</time>
   <energy>
    <i name="e_fr_energy">  -1147.54217657 </i>
    <i name="e_wo_entrp">  -1147.39229454 </i>
    <i name="e_0_energy">  -1147.46723556 </i>
   </energy>
  </scstep>
  <scstep>
   <time name="dav">  105.95  106.69</time>
   <time name="total">  108.46  109.22</time>
   <energy>
    <i name="e_fr_energy">  -1134.13286673 </i>
    <i name="e_wo_entrp">  -1133.97454723 </i>
    <i name="e_0_energy">  -1134.05370698 </i>
   </energy>
  </scstep>
  <scstep>
   <time name="dav">  109.63  110.38</time>
   <time name="total">  112.20  112.97</time>
   <energy>
    <i name="e_fr_energy">  -1116.36532045 </i>
    <i name="e_wo_entrp">  -1116.18378448 </i>
    <i name="e_0_energy">  -1116.27455247 </i>
   </energy>
  </scstep>
  <scstep>
   <time name="dav">  102.31  102.99</time>
   <time name="total">  104.85  105.54</time>
   <energy>
    <i name="e_fr_energy">  -1109.44069381 </i>
    <i name="e_wo_entrp">  -1109.25810735 </i>
    <i name="e_0_energy">  -1109.34940058 </i>
   </energy>
  </scstep>
  <scstep>
   <time name="dav">  103.66  104.34</time>
   <time name="total">  106.26  106.96</time>
   <energy>
    <i name="e_fr_energy">  -1104.14213624 </i>
    <i name="e_wo_entrp">  -1103.94710107 </i>
    <i name="e_0_energy">  -1104.04461865 </i>
   </energy>
  </scstep>
  <scstep>
   <time name="dav">  104.10  104.82</time>
   <time name="total">  106.93  107.67</time>
   <energy>
    <i name="e_fr_energy">  -1101.72885979 </i>
    <i name="e_wo_entrp">  -1101.52862355 </i>
    <i name="e_0_energy">  -1101.62874167 </i>
   </energy>
  </scstep>
  <scstep>
   <time name="dav">   96.13   96.76</time>
   <time name="total">   98.71   99.36</time>
   <energy>
    <i name="e_fr_energy">  -1098.39946810 </i>
    <i name="e_wo_entrp">  -1098.20400989 </i>
    <i name="e_0_energy">  -1098.30173899 </i>
   </energy>
  </scstep>
  <scstep>
   <time name="dav">  101.57  102.25</time>
   <time name="total">  104.11  104.81</time>
   <energy>
    <i name="e_fr_energy">  -1097.46521119 </i>
    <i name="e_wo_entrp">  -1097.26405944 </i>
    <i name="e_0_energy">  -1097.36463532 </i>
   </energy>
  </scstep>
  <scstep>
   <time name="dav">  102.50  103.18</time>
   <time name="total">  105.03  105.72</time>
   <energy>
    <i name="e_fr_energy">  -1096.73294681 </i>
    <i name="e_wo_entrp">  -1096.52525715 </i>
    <i name="e_0_energy">  -1096.62910198 </i>
   </energy>
  </scstep>
  <scstep>
   <time name="dav">  106.18  106.92</time>
   <time name="total">  108.73  109.49</time>
   <energy>
    <i name="e_fr_energy">  -1096.17358458 </i>
    <i name="e_wo_entrp">  -1095.96413612 </i>
    <i name="e_0_energy">  -1096.06886035 </i>
   </energy>
  </scstep>
  <scstep>
   <time name="dav">  102.30  102.98</time>
   <time name="total">  104.99  105.69</time>
   <energy>
    <i name="e_fr_energy">  -1095.62958338 </i>
    <i name="e_wo_entrp">  -1095.41850914 </i>
    <i name="e_0_energy">  -1095.52404626 </i>
   </energy>
  </scstep>
  <scstep>
   <time name="dav">  103.35  104.03</time>
   <time name="total">  105.87  106.57</time>
   <energy>
    <i name="e_fr_energy">  -1095.41010557 </i>
    <i name="e_wo_entrp">  -1095.19776268 </i>
    <i name="e_0_energy">  -1095.30393413 </i>
   </energy>
  </scstep>
  <scstep>
   <time name="dav">  102.21  102.88</time>
   <time name="total">  104.76  105.45</time>
   <energy>
    <i name="e_fr_energy">  -1095.30780712 </i>
    <i name="e_wo_entrp">  -1095.09556111 </i>
    <i name="e_0_energy">  -1095.20168411 </i>
   </energy>
  </scstep>
  <scstep>
   <time name="dav">  103.39  104.12</time>
   <time name="total">  105.92  106.67</time>
   <energy>
    <i name="e_fr_energy">  -1095.24284799 </i>
    <i name="e_wo_entrp">  -1095.02751387 </i>
    <i name="e_0_energy">  -1095.13518093 </i>
   </energy>
  </scstep>
  <scstep>
   <time name="dav">  104.57  105.31</time>
   <time name="total">  107.11  107.87</time>
   <energy>
    <i name="e_fr_energy">  -1095.17230061 </i>
    <i name="e_wo_entrp">  -1094.95755228 </i>
    <i name="e_0_energy">  -1095.06492645 </i>
   </energy>
  </scstep>
  <scstep>
   <time name="dav">  103.87  104.61</time>
   <time name="total">  106.39  107.15</time>
   <energy>
    <i name="e_fr_energy">  -1095.14830429 </i>
    <i name="e_wo_entrp">  -1094.93324209 </i>
    <i name="e_0_energy">  -1095.04077319 </i>
   </energy>
  </scstep>
  <scstep>
   <time name="dav">  104.66  105.41</time>
   <time name="total">  107.18  107.95</time>
   <energy>
    <i name="e_fr_energy">  -1095.12929437 </i>
    <i name="e_wo_entrp">  -1094.91266425 </i>
    <i name="e_0_energy">  -1095.02097931 </i>
   </energy>
  </scstep>
  <scstep>
   <time name="dav">  103.25  103.99</time>
   <time name="total">  103.75  104.49</time>
   <energy>
    <i name="alphaZ">   4871.05958751 </i>
    <i name="ewald"> -46952.52640983 </i>
    <i name="hartreedc"> -16410.80296545 </i>
    <i name="XCdc">  -2018.65241100 </i>
    <i name="pawpsdc">  85519.94046564 </i>
    <i name="pawaedc"> -80508.51766541 </i>
    <i name="eentropy">     -0.21625279 </i>
    <i name="bandstr">  -4811.16888705 </i>
    <i name="atom">  59215.75643617 </i>
    <i name="e_fr_energy">  -1095.12810222 </i>
    <i name="e_wo_entrp">  -1094.91184943 </i>
    <i name="e_0_energy">  -1095.01997582 </i>
   </energy>
  </scstep>
  <structure>
   <crystal>
    <varray name="basis" >
     <v>       9.12169973       0.00000000       0.00000000 </v>
     <v>       0.00000000       8.37880972       0.00000000 </v>
     <v>       0.00000000       0.00000000      23.69886622 </v>
    </varray>
    <i name="volume">   1811.28032179 </i>
    <varray name="rec_basis" >
     <v>       0.10962869       0.00000000       0.00000000 </v>
     <v>       0.00000000       0.11934869       0.00000000 </v>
     <v>       0.00000000       0.00000000       0.04219611 </v>
    </varray>
   </crystal>
   <varray name="positions" >
    <v>       0.49945717       0.22227243       0.22243332 </v>
    <v>       0.00070118       0.22205451       0.22234404 </v>
    <v>       0.24956005       0.22198081       0.05489281 </v>
    <v>       0.49996588       0.77759055       0.10987620 </v>
    <v>       0.00004795       0.44468439       0.10981227 </v>
    <v>       0.00148144       0.44486166       0.44441605 </v>
    <v>       0.25047156       0.77742870       0.61120182 </v>
    <v>       0.00060889       0.66659512       0.00019968 </v>
    <v>       0.75069806       0.55537664       0.72238348 </v>
    <v>       0.49987171       0.66677549       0.33331495 </v>
    <v>       0.24977592       0.88860132       0.72215552 </v>
    <v>       0.99984612       0.44512892       0.77678322 </v>
    <v>       0.00057451       0.33375202       0.66681763 </v>
    <v>       0.24951062       0.66690778       0.83235914 </v>
    <v>       0.74976410       0.11102736       0.61093979 </v>
    <v>       0.00123244       0.66637673       0.66789584 </v>
    <v>       0.24981463       0.77788080       0.27825381 </v>
    <v>       0.49921610       0.66707320       0.66575174 </v>
    <v>       0.50039648       0.77801080       0.77815957 </v>
    <v>       0.49961187       0.99881015       0.00014034 </v>
    <v>       0.50018019       0.11107501       0.77810089 </v>
    <v>       0.49998553       0.33307265       0.33347631 </v>
    <v>       0.00032032       0.88895854       0.22245784 </v>
    <v>       0.24911680       0.55574890       0.38947791 </v>
    <v>       0.49958214       0.66698097       0.00024162 </v>
    <v>       0.75027631       0.44531190       0.61023857 </v>
    <v>       0.75044206       0.77753263       0.61048255 </v>
    <v>       0.00020895       0.11107666       0.10973677 </v>
    <v>       0.24978244       0.99970668       0.83274019 </v>
    <v>       0.50091830       0.55580766       0.89014640 </v>
    <v>       0.99977438       0.89001285       0.88926234 </v>
    <v>       0.24996115       0.44405207       0.27791287 </v>
    <v>       0.49932172       0.55579543       0.55671879 </v>
    <v>       0.00061817       0.88896585       0.55517674 </v>
    <v>       0.50002708       0.33285617       0.66569433 </v>
    <v>       0.75033506       0.22197818       0.05462943 </v>
    <v>       0.50010698       0.11132238       0.44408740 </v>
    <v>       0.75008532       0.77771801       0.27804941 </v>
    <v>       0.75012042       0.11104979       0.27799222 </v>
    <v>       0.74989649       0.99987078       0.16660439 </v>
    <v>       0.99994881       0.55582707       0.88809390 </v>
    <v>       0.74858472       0.88985542       0.38920407 </v>
    <v>       0.50007465       0.88819263       0.89160646 </v>
    <v>       0.49984622       0.33398801       0.99986575 </v>
    <v>       0.50027798       0.22232851       0.88896699 </v>
    <v>       0.00042892       0.66696825       0.33364167 </v>
    <v>       0.74923593       0.22194247       0.38932678 </v>
    <v>       0.49905075       0.77891992       0.44452322 </v>
    <v>       0.75047247       0.11115583       0.94558544 </v>
    <v>       0.75029444       0.88945360       0.72201990 </v>
    <v>       0.24955179       0.55547222       0.72183114 </v>
    <v>       0.24927061       0.88921082       0.38897748 </v>
    <v>       0.00048412       0.22221846       0.55449005 </v>
    <v>       0.49985817       0.11085338       0.11060190 </v>
    <v>       0.74950566       0.55541758       0.38905735 </v>
    <v>       0.74989740       0.77778519       0.94562762 </v>
    <v>       0.75022894       0.66691646       0.50136935 </v>
    <v>       0.24989517       0.33323698       0.83302281 </v>
    <v>       0.00073197       0.99975969       0.33342281 </v>
    <v>       0.50055529       0.55542708       0.22157643 </v>
    <v>       0.74981024       0.33309458       0.50051054 </v>
    <v>       0.50030633       0.44425820       0.77787844 </v>
    <v>       0.00030115       0.33320097       0.33327170 </v>
    <v>       0.25006595       0.33336972       0.16671109 </v>
    <v>       0.00045932       0.55549436       0.55549771 </v>
    <v>       0.74995897       0.44461966       0.27792498 </v>
    <v>       0.00340421       0.77805406       0.44462176 </v>
    <v>       0.99920445       0.21998696       0.88905631 </v>
    <v>       0.49981687       0.44503749       0.11026935 </v>
    <v>       0.25293316       0.99832440       0.49858249 </v>
    <v>       0.49758329       0.22084767       0.55565023 </v>
    <v>       0.25146827       0.22226731       0.72288556 </v>
    <v>       0.74988949       0.99982728       0.50049566 </v>
    <v>       0.99998007       0.00010918       0.00010193 </v>
    <v>       0.75036008       0.66693378       0.83356791 </v>
    <v>       0.75136949       0.22074985       0.72232407 </v>
    <v>       0.25013305       0.66791043       0.50005109 </v>
    <v>       0.25045806       0.77713746       0.94466542 </v>
    <v>       0.24927900       0.33196863       0.49947832 </v>
    <v>       0.00092896       0.33329642       0.00037106 </v>
    <v>       0.99992977       0.77750540       0.11106190 </v>
    <v>       0.74872147       0.88993154       0.05566577 </v>
    <v>       0.50059382       0.99997644       0.33424017 </v>
    <v>       0.50088101       0.44620564       0.44433662 </v>
    <v>       0.74958925       0.33292517       0.83310237 </v>
    <v>       0.75005035       0.99724810       0.83355956 </v>
    <v>       0.00031881       0.55557723       0.22200947 </v>
    <v>       0.99868386       0.99904984       0.66650728 </v>
    <v>       0.74986852       0.55577792       0.05510044 </v>
    <v>       0.49967079       0.88857318       0.22232198 </v>
    <v>       0.74988295       0.33365027       0.16634762 </v>
    <v>       0.49572253       0.89001527       0.55534434 </v>
    <v>       0.25110623       0.88903065       0.05513460 </v>
    <v>       0.00126089       0.11082081       0.44465356 </v>
    <v>       0.25001601       0.99999079       0.16674084 </v>
    <v>       0.24836089       0.44751174       0.61072311 </v>
    <v>       0.25076309       0.11071119       0.61028186 </v>
    <v>       0.74754952       0.44482553       0.94527413 </v>
    <v>       0.25005873       0.55560233       0.05513654 </v>
    <v>       0.24941840       0.11098159       0.94523439 </v>
    <v>       0.25027455       0.66664661       0.16702807 </v>
    <v>       0.24944113       0.11201480       0.27804833 </v>
    <v>       0.99996294       0.77693734       0.77680566 </v>
    <v>       0.24935849       0.22138662       0.38999260 </v>
    <v>       0.99953975       0.11137892       0.77741154 </v>
    <v>       0.24980698       0.44471200       0.94530174 </v>
    <v>       0.74994366       0.66650248       0.16648540 </v>
    <v>       0.49965470       0.00101009       0.66606274 </v>
   </varray>
  </structure>
  <varray name="forces" >
   <v>      -0.00931373      -0.13369603       0.15926793 </v>
   <v>       0.07011400      -0.04556483       0.29187677 </v>
   <v>       0.28620995       0.30344272      -0.24023609 </v>
   <v>       0.16886928      -0.14825640       0.99958180 </v>
   <v>       0.22058509      -0.06238138       0.02968793 </v>
   <v>      -0.42377640      -0.03472293      -0.07380185 </v>
   <v>      -0.09847280      -0.29039646      -0.06293487 </v>
   <v>       0.23387300      -0.23604052      -0.06557325 </v>
   <v>      -0.43495533       0.02635948      -0.23333444 </v>
   <v>       0.13567963      -0.03568570       0.15374831 </v>
   <v>       0.14277231      -0.08569879      -0.03398599 </v>
   <v>       0.26455910       0.03550325       0.27455626 </v>
   <v>       0.06696180       0.06384894      -0.21874788 </v>
   <v>      -0.12904990      -0.05249164       0.04438032 </v>
   <v>      -0.32220660      -0.02195360       0.12298975 </v>
   <v>      -0.27065128       0.22578631       0.06221097 </v>
   <v>      -0.03439929       0.26904767      -0.39092356 </v>
   <v>       0.33718701       0.24291724       0.55501524 </v>
   <v>      -0.09900360      -0.12775204       0.05659431 </v>
   <v>      -0.05467602       0.41856873      -0.14530637 </v>
   <v>      -0.06235352      -0.26107321      -0.44116068 </v>
   <v>      -0.03012622      -0.15152042       0.31188389 </v>
   <v>      -0.25795132      -0.00444125       0.10933441 </v>
   <v>       0.12952696      -0.48815093      -0.27668808 </v>
   <v>      -0.23928308      -0.15307196      -0.22897670 </v>
   <v>       0.12844256       0.12953418      -0.02895221 </v>
   <v>      -0.08540850      -0.07864696       0.00765432 </v>
   <v>       0.09787072       0.01710142       0.55894428 </v>
   <v>      -0.00397279       0.39377979       0.49894065 </v>
   <v>      -0.50101202      -0.32902928      -0.00973974 </v>
   <v>      -0.02348783      -0.15771133      -0.23546880 </v>
   <v>      -0.06459560      -0.37874548      -0.01791170 </v>
   <v>       0.00059885       0.03556258      -0.24910775 </v>
   <v>      -0.21827229      -0.17602363      -0.09569237 </v>
   <v>      -0.04079966      -0.24251660       0.00399645 </v>
   <v>      -0.02334098       0.16819134       0.18333243 </v>
   <v>      -0.17489490       0.28545263      -0.16809917 </v>
   <v>      -0.08103620      -0.04152697      -0.56521584 </v>
   <v>       0.03759364       0.05610469       0.07431319 </v>
   <v>      -0.08872500      -0.27709160       0.12803624 </v>
   <v>       0.26598710      -0.19147351       0.31556356 </v>
   <v>       0.03967890      -0.12389770       0.11701981 </v>
   <v>      -0.07985917       0.05710504      -0.23626071 </v>
   <v>      -0.30564526      -0.03135610      -0.28750326 </v>
   <v>      -0.30447372      -0.01790396       0.16627123 </v>
   <v>       0.08465746      -0.07987282       0.08681610 </v>
   <v>       0.16891902       0.16475549      -0.00960046 </v>
   <v>       0.05138072      -0.30498465       0.04066424 </v>
   <v>      -0.12617045      -0.03368729      -0.30777148 </v>
   <v>      -0.07360866      -0.04483020      -0.09889520 </v>
   <v>       0.17784367      -0.06832602       0.04151392 </v>
   <v>       0.10309689       0.27842585      -0.08019545 </v>
   <v>       0.00694195       0.08081568       0.02401281 </v>
   <v>      -0.20431931       0.14195156       0.01303633 </v>
   <v>      -0.11640884      -0.10506645       0.06836533 </v>
   <v>      -0.01877089      -0.04987196      -0.11406557 </v>
   <v>       0.31703621       0.00091602      -0.22674805 </v>
   <v>      -0.04337458       0.20210169       0.41621473 </v>
   <v>       0.23471243       0.26578925      -0.15553453 </v>
   <v>      -0.06545838       0.37678900      -0.30006739 </v>
   <v>      -0.26772446       0.06133859      -0.12734344 </v>
   <v>      -0.00229649       0.03089175       0.12459308 </v>
   <v>       0.17659684      -0.11690594       0.25952550 </v>
   <v>       0.17211295       0.22083137      -0.19258117 </v>
   <v>      -0.11604098       0.10914598       0.01085078 </v>
   <v>      -0.02372840      -0.07385848      -0.11411096 </v>
   <v>      -0.34345722      -0.14682845      -0.01793409 </v>
   <v>       0.34727268       0.26641030      -0.39487182 </v>
   <v>      -0.05782530      -0.16559079      -0.03747381 </v>
   <v>      -0.23171017       0.15077321       0.27863312 </v>
   <v>       0.10094542       0.13914460      -0.03077173 </v>
   <v>      -0.23081195       0.12906591       0.12715462 </v>
   <v>      -0.00496618      -0.00621023      -0.13166376 </v>
   <v>      -0.02896477       0.23585379      -0.14187293 </v>
   <v>       0.09718276       0.07594619      -0.34957150 </v>
   <v>       0.05093665       0.26537342       0.23511401 </v>
   <v>      -0.29473311       0.01229041      -0.14192907 </v>
   <v>      -0.12475171       0.04681247      -0.22778714 </v>
   <v>       0.39793905       0.26401563      -0.14324598 </v>
   <v>      -0.05823234      -0.03890027      -0.61679250 </v>
   <v>      -0.13275674      -0.03588290       0.38994753 </v>
   <v>       0.12125900       0.08851377      -0.03794604 </v>
   <v>      -0.06642928       0.04655000      -0.34853581 </v>
   <v>       0.31709976      -0.15952725      -0.06861554 </v>
   <v>      -0.02918010      -0.07515005       0.33948485 </v>
   <v>      -0.02103938       0.22162842       0.13204246 </v>
   <v>      -0.00960725       0.20616109       0.03260169 </v>
   <v>       0.18136823       0.22203019      -0.00280212 </v>
   <v>      -0.36911297       0.25411466       0.19978673 </v>
   <v>       0.20097231       0.25365628       0.04636703 </v>
   <v>      -0.38315518       0.17040030       0.09743418 </v>
   <v>       0.70720483       0.12359364       0.11550654 </v>
   <v>      -0.16963798      -0.19949653       0.12272996 </v>
   <v>       0.07819363      -0.21202326      -0.32870641 </v>
   <v>       0.27777966      -0.15000879       0.25050722 </v>
   <v>       0.05156124      -0.39637321       0.01846683 </v>
   <v>       0.06241135       0.13368081       0.48713964 </v>
   <v>       0.21532383      -0.37518548       0.08998921 </v>
   <v>       0.26590589      -0.24523525       0.25602081 </v>
   <v>       0.36951684       0.48985955      -0.56922903 </v>
   <v>      -0.23574478      -0.19681417      -0.34042717 </v>
   <v>      -0.11694859       0.28676573       0.54623235 </v>
   <v>       0.23305653       0.20047428       0.42539618 </v>
   <v>      -0.24986056       0.10285110      -0.81239805 </v>
   <v>       0.12399160      -0.51336482       0.03562494 </v>
   <v>       0.12619491      -0.36415041       0.03926347 </v>
   <v>       0.21370038      -0.22264062       0.12508455 </v>
   <v>       0.01894545      -0.28841648       0.07378876 </v>
  </varray>
  <varray name="stress" >
   <v>      73.80196260      -0.34321044      -1.22009622 </v>
   <v>      -0.34320995      72.75554690      -0.72001375 </v>
   <v>      -1.22009633      -0.72002887      74.41354194 </v>
  </varray>
  <energy>
   <i name="e_fr_energy">  -1095.12810222 </i>
   <i name="e_wo_entrp">  -1095.01997582 </i>
   <i name="e_0_energy">     -0.21625279 </i>
  </energy>
  <time name="totalsc"> 3560.45 3584.94</time>
 </calculation>
 <calculation>
  <scstep>
   <time name="dav">  102.02  102.74</time>
   <time name="total">  104.52  105.26</time>
   <energy>
    <i name="alphaZ">   4871.05958751 </i>
    <i name="ewald"> -46952.66458386 </i>
    <i name="hartreedc"> -16410.65672448 </i>
    <i name="XCdc">  -2018.67911225 </i>
    <i name="pawpsdc">  85498.02441352 </i>
    <i name="pawaedc"> -80486.99476231 </i>
    <i name="eentropy">     -0.21565926 </i>
    <i name="bandstr">  -4810.75617765 </i>
    <i name="atom">  59215.75643617 </i>
    <i name="e_fr_energy">  -1095.12658261 </i>
    <i name="e_wo_entrp">  -1094.91092335 </i>
    <i name="e_0_energy">  -1095.01875298 </i>
   </energy>
  </scstep>
  <scstep>
   <time name="dav">  109.41  110.14</time>
   <time name="total">  111.98  112.73</time>
   <energy>
    <i name="e_fr_energy">  -1096.57783156 </i>
    <i name="e_wo_entrp">  -1096.35692141 </i>
    <i name="e_0_energy">  -1096.46737649 </i>
   </energy>
  </scstep>
  <scstep>
   <time name="dav">  112.91  113.66</time>
   <time name="total">  115.52  116.28</time>
   <energy>
    <i name="e_fr_energy">  -1095.14081991 </i>
    <i name="e_wo_entrp">  -1094.92412018 </i>
    <i name="e_0_energy">  -1095.03247005 </i>
   </energy>
  </scstep>
  <scstep>
   <time name="dav">  106.36  107.07</time>
   <time name="total">  108.92  109.65</time>
   <energy>
    <i name="e_fr_energy">  -1095.15889668 </i>
    <i name="e_wo_entrp">  -1094.94142992 </i>
    <i name="e_0_energy">  -1095.05016330 </i>
   </energy>
  </scstep>
  <scstep>
   <time name="dav">  105.56  106.26</time>
   <time name="total">  108.14  108.86</time>
   <energy>
    <i name="e_fr_energy">  -1095.12318861 </i>
    <i name="e_wo_entrp">  -1094.90718433 </i>
    <i name="e_0_energy">  -1095.01518647 </i>
   </energy>
  </scstep>
  <scstep>
   <time name="dav">   96.79   97.43</time>
   <time name="total">   99.10   99.76</time>
   <energy>
    <i name="e_fr_energy">  -1095.12282934 </i>
    <i name="e_wo_entrp">  -1094.90624870 </i>
    <i name="e_0_energy">  -1095.01453902 </i>
   </energy>
  </scstep>
  <scstep>
   <time name="dav">  103.49  104.17</time>
   <time name="total">  106.07  106.78</time>
   <energy>
    <i name="e_fr_energy">  -1095.12135840 </i>
    <i name="e_wo_entrp">  -1094.90508102 </i>
    <i name="e_0_energy">  -1095.01321971 </i>
   </energy>
  </scstep>
  <scstep>
   <time name="dav">  102.02  102.70</time>
   <time name="total">  104.50  105.20</time>
   <energy>
    <i name="e_fr_energy">  -1095.12106712 </i>
    <i name="e_wo_entrp">  -1094.90444840 </i>
    <i name="e_0_energy">  -1095.01275776 </i>
   </energy>
  </scstep>
  <scstep>
   <time name="dav">  105.90  106.65</time>
   <time name="total">  108.43  109.20</time>
   <energy>
    <i name="e_fr_energy">  -1095.12090363 </i>
    <i name="e_wo_entrp">  -1094.90436064 </i>
    <i name="e_0_energy">  -1095.01263214 </i>
   </energy>
  </scstep>
  <scstep>
   <time name="dav">  101.69  102.44</time>
   <time name="total">  104.22  104.98</time>
   <energy>
    <i name="e_fr_energy">  -1095.12088263 </i>
    <i name="e_wo_entrp">  -1094.90440217 </i>
    <i name="e_0_energy">  -1095.01264240 </i>
   </energy>
  </scstep>
  <scstep>
   <time name="dav">  110.46  111.25</time>
   <time name="total">  113.05  113.86</time>
   <energy>
    <i name="e_fr_energy">  -1095.12084783 </i>
    <i name="e_wo_entrp">  -1094.90430509 </i>
    <i name="e_0_energy">  -1095.01257646 </i>
   </energy>
  </scstep>
  <scstep>
   <time name="dav">  101.80  102.51</time>
   <time name="total">  104.37  105.10</time>
   <energy>
    <i name="e_fr_energy">  -1095.12079866 </i>
    <i name="e_wo_entrp">  -1094.90423556 </i>
    <i name="e_0_energy">  -1095.01251711 </i>
   </energy>
  </scstep>
  <scstep>
   <time name="dav">  103.53  104.22</time>
   <time name="total">  106.08  106.79</time>
   <energy>
    <i name="e_fr_energy">  -1095.12078730 </i>
    <i name="e_wo_entrp">  -1094.90424574 </i>
    <i name="e_0_energy">  -1095.01251652 </i>
   </energy>
  </scstep>
  <scstep>
   <time name="dav">   99.16   99.84</time>
   <time name="total">  101.65  102.34</time>
   <energy>
    <i name="e_fr_energy">  -1095.12078327 </i>
    <i name="e_wo_entrp">  -1094.90425224 </i>
    <i name="e_0_energy">  -1095.01251775 </i>
   </energy>
  </scstep>
  <scstep>
   <time name="dav">   94.53   95.15</time>
   <time name="total">   97.02   97.66</time>
   <energy>
    <i name="e_fr_energy">  -1095.12078136 </i>
    <i name="e_wo_entrp">  -1094.90425265 </i>
    <i name="e_0_energy">  -1095.01251701 </i>
   </energy>
  </scstep>
  <scstep>
   <time name="dav">   87.07   87.65</time>
   <time name="total">   87.57   88.16</time>
   <energy>
    <i name="alphaZ">   4871.05958751 </i>
    <i name="ewald"> -46952.66458386 </i>
    <i name="hartreedc"> -16411.46231709 </i>
    <i name="XCdc">  -2018.60987887 </i>
    <i name="pawpsdc">  85460.39106297 </i>
    <i name="pawaedc"> -80448.71694409 </i>
    <i name="eentropy">     -0.21652487 </i>
    <i name="bandstr">  -4810.65761879 </i>
    <i name="atom">  59215.75643617 </i>
    <i name="e_fr_energy">  -1095.12078090 </i>
    <i name="e_wo_entrp">  -1094.90425604 </i>
    <i name="e_0_energy">  -1095.01251847 </i>
   </energy>
  </scstep>
  <structure>
   <crystal>
    <varray name="basis" >
     <v>       9.12169973       0.00000000       0.00000000 </v>
     <v>       0.00000000       8.37880972       0.00000000 </v>
     <v>       0.00000000       0.00000000      23.69886622 </v>
    </varray>
    <i name="volume">   1811.28032179 </i>
    <varray name="rec_basis" >
     <v>       0.10962869       0.00000000       0.00000000 </v>
     <v>       0.00000000       0.11934869       0.00000000 </v>
     <v>       0.00000000       0.00000000       0.04219611 </v>
    </varray>
   </crystal>
   <varray name="positions" >
    <v>       0.49945717       0.22227243       0.22243213 </v>
    <v>       0.00070118       0.22205451       0.22234381 </v>
    <v>       0.24956005       0.22198081       0.05489438 </v>
    <v>       0.49996588       0.77759055       0.10987979 </v>
    <v>       0.00004795       0.44468439       0.10981681 </v>
    <v>       0.00148144       0.44486166       0.44441495 </v>
    <v>       0.25047156       0.77742870       0.61120023 </v>
    <v>       0.00060889       0.66659512       0.00019899 </v>
    <v>       0.75069806       0.55537664       0.72238326 </v>
    <v>       0.49987171       0.66677549       0.33331463 </v>
    <v>       0.24977592       0.88860132       0.72215469 </v>
    <v>       0.99984612       0.44512892       0.77678750 </v>
    <v>       0.00057451       0.33375202       0.66681644 </v>
    <v>       0.24951062       0.66690778       0.83236394 </v>
    <v>       0.74976410       0.11102736       0.61094158 </v>
    <v>       0.00123244       0.66637673       0.66789039 </v>
    <v>       0.24981463       0.77788080       0.27825198 </v>
    <v>       0.49921610       0.66707320       0.66575449 </v>
    <v>       0.50039648       0.77801080       0.77815879 </v>
    <v>       0.49961187       0.99881015       0.00014067 </v>
    <v>       0.50018019       0.11107501       0.77809901 </v>
    <v>       0.49998553       0.33307265       0.33347643 </v>
    <v>       0.00032032       0.88895854       0.22245697 </v>
    <v>       0.24911680       0.55574890       0.38947680 </v>
    <v>       0.49958214       0.66698097       0.00024092 </v>
    <v>       0.75027631       0.44531190       0.61024148 </v>
    <v>       0.75044206       0.77753263       0.61048498 </v>
    <v>       0.00020895       0.11107666       0.10974111 </v>
    <v>       0.24978244       0.99970668       0.83274274 </v>
    <v>       0.50091830       0.55580766       0.89014404 </v>
    <v>       0.99977438       0.89001285       0.88926302 </v>
    <v>       0.24996115       0.44405207       0.27791223 </v>
    <v>       0.49932172       0.55579543       0.55671459 </v>
    <v>       0.00061817       0.88896585       0.55517910 </v>
    <v>       0.50002708       0.33285617       0.66569890 </v>
    <v>       0.75033506       0.22197818       0.05463316 </v>
    <v>       0.50010698       0.11132238       0.44408841 </v>
    <v>       0.75008532       0.77771801       0.27804848 </v>
    <v>       0.75012042       0.11104979       0.27799185 </v>
    <v>       0.74989649       0.99987078       0.16660399 </v>
    <v>       0.99994881       0.55582707       0.88809681 </v>
    <v>       0.74858472       0.88985542       0.38920330 </v>
    <v>       0.50007465       0.88819263       0.89159687 </v>
    <v>       0.49984622       0.33398801       0.99986634 </v>
    <v>       0.50027798       0.22232851       0.88896699 </v>
    <v>       0.00042892       0.66696825       0.33364093 </v>
    <v>       0.74923593       0.22194247       0.38932619 </v>
    <v>       0.49905075       0.77891992       0.44452311 </v>
    <v>       0.75047247       0.11115583       0.94557985 </v>
    <v>       0.75029444       0.88945360       0.72202087 </v>
    <v>       0.24955179       0.55547222       0.72183133 </v>
    <v>       0.24927061       0.88921082       0.38897981 </v>
    <v>       0.00048412       0.22221846       0.55449646 </v>
    <v>       0.49985817       0.11085338       0.11060256 </v>
    <v>       0.74950566       0.55541758       0.38905714 </v>
    <v>       0.74989740       0.77778519       0.94562097 </v>
    <v>       0.75022894       0.66691646       0.50136216 </v>
    <v>       0.24989517       0.33323698       0.83302440 </v>
    <v>       0.00073197       0.99975969       0.33342234 </v>
    <v>       0.50055529       0.55542708       0.22157808 </v>
    <v>       0.74981024       0.33309458       0.50050797 </v>
    <v>       0.50030633       0.44425820       0.77787851 </v>
    <v>       0.00030115       0.33320097       0.33327198 </v>
    <v>       0.25006595       0.33336972       0.16671087 </v>
    <v>       0.00045932       0.55549436       0.55549868 </v>
    <v>       0.74995897       0.44461966       0.27792451 </v>
    <v>       0.00340421       0.77805406       0.44462040 </v>
    <v>       0.99920445       0.21998696       0.88905557 </v>
    <v>       0.49981687       0.44503749       0.11027211 </v>
    <v>       0.25293316       0.99832440       0.49858534 </v>
    <v>       0.49758329       0.22084767       0.55565035 </v>
    <v>       0.25146827       0.22226731       0.72288542 </v>
    <v>       0.74988949       0.99982728       0.50049312 </v>
    <v>       0.99998007       0.00010918       0.00010060 </v>
    <v>       0.75036008       0.66693378       0.83356866 </v>
    <v>       0.75136949       0.22074985       0.72232705 </v>
    <v>       0.25013305       0.66791043       0.50005026 </v>
    <v>       0.25045806       0.77713746       0.94466345 </v>
    <v>       0.24927900       0.33196863       0.49947819 </v>
    <v>       0.00092896       0.33329642       0.00036916 </v>
    <v>       0.99992977       0.77750540       0.11106347 </v>
    <v>       0.74872147       0.88993154       0.05566615 </v>
    <v>       0.50059382       0.99997644       0.33423770 </v>
    <v>       0.50088101       0.44620564       0.44433483 </v>
    <v>       0.74958925       0.33292517       0.83310267 </v>
    <v>       0.75005035       0.99724810       0.83355908 </v>
    <v>       0.00031881       0.55557723       0.22200951 </v>
    <v>       0.99868386       0.99904984       0.66650997 </v>
    <v>       0.74986852       0.55577792       0.05510248 </v>
    <v>       0.49967079       0.88857318       0.22232163 </v>
    <v>       0.74988295       0.33365027       0.16634850 </v>
    <v>       0.49572253       0.89001527       0.55534401 </v>
    <v>       0.25110623       0.88903065       0.05513535 </v>
    <v>       0.00126089       0.11082081       0.44465177 </v>
    <v>       0.25001601       0.99999079       0.16674053 </v>
    <v>       0.24836089       0.44751174       0.61072269 </v>
    <v>       0.25076309       0.11071119       0.61028272 </v>
    <v>       0.74754952       0.44482553       0.94527052 </v>
    <v>       0.25005873       0.55560233       0.05513758 </v>
    <v>       0.24941840       0.11098159       0.94523237 </v>
    <v>       0.25027455       0.66664661       0.16702639 </v>
    <v>       0.24944113       0.11201480       0.27804711 </v>
    <v>       0.99996294       0.77693734       0.77681054 </v>
    <v>       0.24935849       0.22138662       0.38999055 </v>
    <v>       0.99953975       0.11137892       0.77741288 </v>
    <v>       0.24980698       0.44471200       0.94529957 </v>
    <v>       0.74994366       0.66650248       0.16648560 </v>
    <v>       0.49965470       0.00101009       0.66606502 </v>
   </varray>
  </structure>
  <varray name="forces" >
   <v>      -0.02010272      -0.11331903       0.17939522 </v>
   <v>       0.08256748      -0.05946807       0.29532045 </v>
   <v>       0.26871383       0.31517676      -0.23385015 </v>
   <v>       0.16668945      -0.17617297       1.02412456 </v>
   <v>       0.22746084      -0.07399512       0.04824469 </v>
   <v>      -0.43131698      -0.04384938      -0.06566718 </v>
   <v>      -0.10130933      -0.28982638      -0.07308566 </v>
   <v>       0.25893269      -0.23913753      -0.03674046 </v>
   <v>      -0.40568158       0.02232200      -0.22975187 </v>
   <v>       0.15213374      -0.00003054       0.16559694 </v>
   <v>       0.13285057      -0.07580445      -0.02107617 </v>
   <v>       0.23659021       0.03082939       0.25523148 </v>
   <v>       0.06343366       0.06011593      -0.20575642 </v>
   <v>      -0.12822196      -0.01591446       0.03813221 </v>
   <v>      -0.30742548      -0.01488451       0.13849747 </v>
   <v>      -0.27331591       0.21928304       0.06697718 </v>
   <v>      -0.03438544       0.29156006      -0.33045557 </v>
   <v>       0.34286639       0.23133332       0.54131812 </v>
   <v>      -0.10303725      -0.10693835       0.05534240 </v>
   <v>      -0.07148545       0.41818062      -0.14471059 </v>
   <v>      -0.05564337      -0.31009170      -0.48659615 </v>
   <v>      -0.04106510      -0.15436816       0.30294320 </v>
   <v>      -0.27998523       0.00310577       0.16557026 </v>
   <v>       0.13706510      -0.41209154      -0.28738221 </v>
   <v>      -0.26299424      -0.17249575      -0.21273802 </v>
   <v>       0.12880702       0.13358357      -0.03636699 </v>
   <v>      -0.08536896      -0.08843022      -0.01329591 </v>
   <v>       0.10657610       0.02378455       0.57239089 </v>
   <v>      -0.03370900       0.37032754       0.48386970 </v>
   <v>      -0.49854570      -0.28794412       0.00583337 </v>
   <v>       0.00039523      -0.12276768      -0.27227131 </v>
   <v>      -0.04539641      -0.38540620      -0.03834943 </v>
   <v>       0.00981283       0.06482781      -0.26888499 </v>
   <v>      -0.21471234      -0.18449426      -0.09517539 </v>
   <v>      -0.03573458      -0.24779315      -0.00608663 </v>
   <v>      -0.00916999       0.18131390       0.18496662 </v>
   <v>      -0.17204879       0.21952976      -0.20326017 </v>
   <v>      -0.07745991      -0.00449458      -0.51742700 </v>
   <v>       0.06413396      -0.00001836       0.11379859 </v>
   <v>      -0.07669161      -0.28367533       0.16959220 </v>
   <v>       0.26727226      -0.19723488       0.29891410 </v>
   <v>       0.02730492      -0.12767644       0.08707496 </v>
   <v>      -0.10917950       0.02562507      -0.26226025 </v>
   <v>      -0.31786835      -0.00750200      -0.25922814 </v>
   <v>      -0.29345383      -0.02247039       0.18950382 </v>
   <v>       0.06969917      -0.01063320       0.08218274 </v>
   <v>       0.18055058       0.10340455      -0.01477963 </v>
   <v>       0.04940792      -0.27581546       0.00798978 </v>
   <v>      -0.08135990      -0.01652223      -0.30884778 </v>
   <v>      -0.06394332      -0.04419132      -0.08434232 </v>
   <v>       0.15209737      -0.05764663       0.03281085 </v>
   <v>       0.10776026       0.27701588      -0.08469090 </v>
   <v>       0.00352426       0.09458646       0.01706410 </v>
   <v>      -0.20575787       0.14285642       0.03313160 </v>
   <v>      -0.12679073      -0.03651383       0.07137125 </v>
   <v>      -0.01455293      -0.05063993      -0.11977390 </v>
   <v>       0.28259198       0.01284178      -0.25010796 </v>
   <v>      -0.10379379       0.19844342       0.40798808 </v>
   <v>       0.22130830       0.22574241      -0.12534065 </v>
   <v>      -0.07845505       0.39287127      -0.28775640 </v>
   <v>      -0.25277153       0.07484421      -0.13490991 </v>
   <v>       0.02043327       0.04849828       0.10159993 </v>
   <v>       0.17873919      -0.15529799       0.25855339 </v>
   <v>       0.17291892       0.22606569      -0.17627608 </v>
   <v>      -0.12266945       0.10998561       0.00427461 </v>
   <v>      -0.04267368      -0.04924730      -0.11982243 </v>
   <v>      -0.33536599      -0.11528450      -0.07582557 </v>
   <v>       0.33892992       0.24321016      -0.40240755 </v>
   <v>      -0.06326275      -0.13471989      -0.01192354 </v>
   <v>      -0.21183044       0.12860836       0.20341759 </v>
   <v>       0.09769958       0.15257928      -0.04753355 </v>
   <v>      -0.24035616       0.11736646       0.10691386 </v>
   <v>      -0.02991045      -0.02362836      -0.20868035 </v>
   <v>      -0.01151173       0.23911167      -0.13981567 </v>
   <v>       0.08979679       0.07013015      -0.38284303 </v>
   <v>       0.05773936       0.27152101       0.23268217 </v>
   <v>      -0.25931829       0.02417052      -0.17467545 </v>
   <v>      -0.12818414       0.05059885      -0.22957284 </v>
   <v>       0.38814653       0.26863237      -0.15502786 </v>
   <v>      -0.04856806      -0.04357595      -0.61745657 </v>
   <v>      -0.13052022      -0.03859160       0.39353455 </v>
   <v>       0.12703130       0.07733175      -0.00909139 </v>
   <v>      -0.05371066       0.00493536      -0.30152104 </v>
   <v>       0.33277228      -0.13242751      -0.06198632 </v>
   <v>       0.02605979      -0.06999866       0.32838123 </v>
   <v>       0.00101646       0.22181095       0.12429125 </v>
   <v>      -0.00673662       0.21494140       0.04662189 </v>
   <v>       0.18922163       0.22676481       0.00745980 </v>
   <v>      -0.37134306       0.25622607       0.21363970 </v>
   <v>       0.22405162       0.21995600       0.06573282 </v>
   <v>      -0.38151822       0.17943239       0.11010610 </v>
   <v>       0.70478979       0.08791378       0.06600490 </v>
   <v>      -0.18041783      -0.20503833       0.12987430 </v>
   <v>       0.07308971      -0.22462765      -0.37730732 </v>
   <v>       0.26374042      -0.15229151       0.27067406 </v>
   <v>       0.05413011      -0.39294920       0.01931092 </v>
   <v>       0.05420484       0.13459976       0.49701092 </v>
   <v>       0.20402925      -0.39872602       0.08952720 </v>
   <v>       0.26550230      -0.24983194       0.26343225 </v>
   <v>       0.33068356       0.47656273      -0.55548217 </v>
   <v>      -0.21430482      -0.21804954      -0.32777113 </v>
   <v>      -0.14186453       0.27533387       0.56436393 </v>
   <v>       0.23577941       0.19804953       0.43072309 </v>
   <v>      -0.24794596       0.03965349      -0.81689685 </v>
   <v>       0.11960663      -0.51413477       0.04355203 </v>
   <v>       0.13773650      -0.36458060       0.05984042 </v>
   <v>       0.19263216      -0.22457650       0.15937189 </v>
   <v>       0.01371977      -0.27965978       0.07681121 </v>
  </varray>
  <varray name="stress" >
   <v>      73.61477191      -0.13036284      -1.14797388 </v>
   <v>      -0.13036238      72.20693926      -0.84993221 </v>
   <v>      -1.14797433      -0.84994703      73.19128309 </v>
  </varray>
  <energy>
   <i name="e_fr_energy">  -1095.12078090 </i>
   <i name="e_wo_entrp">  -1095.01251847 </i>
   <i name="e_0_energy">     -0.21652487 </i>
  </energy>
  <time name="totalsc"> 1745.69 1757.59</time>
 </calculation>
 <calculation>
  <scstep>
   <time name="dav">   87.55   88.13</time>
   <time name="total">   90.07   90.67</time>
   <energy>
    <i name="alphaZ">   4871.05958751 </i>
    <i name="ewald"> -46953.59662051 </i>
    <i name="hartreedc"> -16410.54587634 </i>
    <i name="XCdc">  -2018.61015403 </i>
    <i name="pawpsdc">  85460.38300237 </i>
    <i name="pawaedc"> -80448.71085565 </i>
    <i name="eentropy">     -0.21655516 </i>
    <i name="bandstr">  -4810.64493625 </i>
    <i name="atom">  59215.75643617 </i>
    <i name="e_fr_energy">  -1095.12597190 </i>
    <i name="e_wo_entrp">  -1094.90941674 </i>
    <i name="e_0_energy">  -1095.01769432 </i>
   </energy>
  </scstep>
  <scstep>
   <time name="dav">  110.23  110.99</time>
   <time name="total">  112.76  113.54</time>
   <energy>
    <i name="e_fr_energy">  -1095.12667713 </i>
    <i name="e_wo_entrp">  -1094.91003323 </i>
    <i name="e_0_energy">  -1095.01835518 </i>
   </energy>
  </scstep>
  <scstep>
   <time name="dav">  105.38  106.10</time>
   <time name="total">  108.02  108.75</time>
   <energy>
    <i name="e_fr_energy">  -1095.12658734 </i>
    <i name="e_wo_entrp">  -1094.91015053 </i>
    <i name="e_0_energy">  -1095.01836893 </i>
   </energy>
  </scstep>
  <scstep>
   <time name="dav">  103.83  104.52</time>
   <time name="total">  106.36  107.07</time>
   <energy>
    <i name="e_fr_energy">  -1095.12605368 </i>
    <i name="e_wo_entrp">  -1094.90944421 </i>
    <i name="e_0_energy">  -1095.01774894 </i>
   </energy>
  </scstep>
  <scstep>
   <time name="dav">  104.99  105.72</time>
   <time name="total">  107.46  108.20</time>
   <energy>
    <i name="e_fr_energy">  -1095.12615879 </i>
    <i name="e_wo_entrp">  -1094.90970794 </i>
    <i name="e_0_energy">  -1095.01793336 </i>
   </energy>
  </scstep>
  <scstep>
   <time name="dav">  101.92  102.59</time>
   <time name="total">  104.44  105.13</time>
   <energy>
    <i name="e_fr_energy">  -1095.12605361 </i>
    <i name="e_wo_entrp">  -1094.90948493 </i>
    <i name="e_0_energy">  -1095.01776927 </i>
   </energy>
  </scstep>
  <scstep>
   <time name="dav">  101.14  101.82</time>
   <time name="total">  103.65  104.35</time>
   <energy>
    <i name="e_fr_energy">  -1095.12603509 </i>
    <i name="e_wo_entrp">  -1094.90946277 </i>
    <i name="e_0_energy">  -1095.01774893 </i>
   </energy>
  </scstep>
  <scstep>
   <time name="dav">   99.67  100.40</time>
   <time name="total">  102.24  102.99</time>
   <energy>
    <i name="e_fr_energy">  -1095.12603535 </i>
    <i name="e_wo_entrp">  -1094.90948607 </i>
    <i name="e_0_energy">  -1095.01776071 </i>
   </energy>
  </scstep>
  <scstep>
   <time name="dav">   97.16   97.81</time>
   <time name="total">   99.85  100.51</time>
   <energy>
    <i name="e_fr_energy">  -1095.12603095 </i>
    <i name="e_wo_entrp">  -1094.90945366 </i>
    <i name="e_0_energy">  -1095.01774230 </i>
   </energy>
  </scstep>
  <scstep>
   <time name="dav">   96.79   97.47</time>
   <time name="total">   99.32  100.01</time>
   <energy>
    <i name="e_fr_energy">  -1095.12602923 </i>
    <i name="e_wo_entrp">  -1094.90947354 </i>
    <i name="e_0_energy">  -1095.01775138 </i>
   </energy>
  </scstep>
  <scstep>
   <time name="dav">   87.63   88.22</time>
   <time name="total">   90.12   90.73</time>
   <energy>
    <i name="e_fr_energy">  -1095.12602807 </i>
    <i name="e_wo_entrp">  -1094.90946315 </i>
    <i name="e_0_energy">  -1095.01774561 </i>
   </energy>
  </scstep>
  <scstep>
   <time name="dav">   71.16   71.66</time>
   <time name="total">   71.65   72.16</time>
   <energy>
    <i name="alphaZ">   4871.05958751 </i>
    <i name="ewald"> -46953.59662051 </i>
    <i name="hartreedc"> -16410.54214719 </i>
    <i name="XCdc">  -2018.61007764 </i>
    <i name="pawpsdc">  85459.54602247 </i>
    <i name="pawaedc"> -80447.87422526 </i>
    <i name="eentropy">     -0.21656287 </i>
    <i name="bandstr">  -4810.64844040 </i>
    <i name="atom">  59215.75643617 </i>
    <i name="e_fr_energy">  -1095.12602773 </i>
    <i name="e_wo_entrp">  -1094.90946485 </i>
    <i name="e_0_energy">  -1095.01774629 </i>
   </energy>
  </scstep>
  <structure>
   <crystal>
    <varray name="basis" >
     <v>       9.12169973       0.00000000       0.00000000 </v>
     <v>       0.00000000       8.37880972       0.00000000 </v>
     <v>       0.00000000       0.00000000      23.69886622 </v>
    </varray>
    <i name="volume">   1811.28032179 </i>
    <varray name="rec_basis" >
     <v>       0.10962869       0.00000000       0.00000000 </v>
     <v>       0.00000000       0.11934869       0.00000000 </v>
     <v>       0.00000000       0.00000000       0.04219611 </v>
    </varray>
   </crystal>
   <varray name="positions" >
    <v>       0.49945717       0.22227243       0.22242406 </v>
    <v>       0.00070118       0.22205451       0.22234229 </v>
    <v>       0.24956005       0.22198081       0.05490505 </v>
    <v>       0.49996588       0.77759055       0.10990406 </v>
    <v>       0.00004795       0.44468439       0.10984750 </v>
    <v>       0.00148144       0.44486166       0.44440753 </v>
    <v>       0.25047156       0.77742870       0.61118943 </v>
    <v>       0.00060889       0.66659512       0.00019435 </v>
    <v>       0.75069806       0.55537664       0.72238176 </v>
    <v>       0.49987171       0.66677549       0.33331249 </v>
    <v>       0.24977592       0.88860132       0.72214907 </v>
    <v>       0.99984612       0.44512892       0.77681647 </v>
    <v>       0.00057451       0.33375202       0.66680844 </v>
    <v>       0.24951062       0.66690778       0.83239636 </v>
    <v>       0.74976410       0.11102736       0.61095367 </v>
    <v>       0.00123244       0.66637673       0.66785355 </v>
    <v>       0.24981463       0.77788080       0.27823962 </v>
    <v>       0.49921610       0.66707320       0.66577309 </v>
    <v>       0.50039648       0.77801080       0.77815349 </v>
    <v>       0.49961187       0.99881015       0.00014290 </v>
    <v>       0.50018019       0.11107501       0.77808636 </v>
    <v>       0.49998553       0.33307265       0.33347721 </v>
    <v>       0.00032032       0.88895854       0.22245107 </v>
    <v>       0.24911680       0.55574890       0.38946929 </v>
    <v>       0.49958214       0.66698097       0.00023621 </v>
    <v>       0.75027631       0.44531190       0.61026119 </v>
    <v>       0.75044206       0.77753263       0.61050144 </v>
    <v>       0.00020895       0.11107666       0.10977044 </v>
    <v>       0.24978244       0.99970668       0.83275998 </v>
    <v>       0.50091830       0.55580766       0.89012811 </v>
    <v>       0.99977438       0.89001285       0.88926765 </v>
    <v>       0.24996115       0.44405207       0.27790788 </v>
    <v>       0.49932172       0.55579543       0.55668615 </v>
    <v>       0.00061817       0.88896585       0.55519507 </v>
    <v>       0.50002708       0.33285617       0.66572977 </v>
    <v>       0.75033506       0.22197818       0.05465833 </v>
    <v>       0.50010698       0.11132238       0.44409528 </v>
    <v>       0.75008532       0.77771801       0.27804218 </v>
    <v>       0.75012042       0.11104979       0.27798929 </v>
    <v>       0.74989649       0.99987078       0.16660125 </v>
    <v>       0.99994881       0.55582707       0.88811653 </v>
    <v>       0.74858472       0.88985542       0.38919804 </v>
    <v>       0.50007465       0.88819263       0.89153199 </v>
    <v>       0.49984622       0.33398801       0.99987030 </v>
    <v>       0.50027798       0.22232851       0.88896698 </v>
    <v>       0.00042892       0.66696825       0.33363590 </v>
    <v>       0.74923593       0.22194247       0.38932221 </v>
    <v>       0.49905075       0.77891992       0.44452238 </v>
    <v>       0.75047247       0.11115583       0.94554203 </v>
    <v>       0.75029444       0.88945360       0.72202744 </v>
    <v>       0.24955179       0.55547222       0.72183260 </v>
    <v>       0.24927061       0.88921082       0.38899557 </v>
    <v>       0.00048412       0.22221846       0.55453979 </v>
    <v>       0.49985817       0.11085338       0.11060704 </v>
    <v>       0.74950566       0.55541758       0.38905571 </v>
    <v>       0.74989740       0.77778519       0.94557601 </v>
    <v>       0.75022894       0.66691646       0.50131351 </v>
    <v>       0.24989517       0.33323698       0.83303517 </v>
    <v>       0.00073197       0.99975969       0.33341914 </v>
    <v>       0.50055529       0.55542708       0.22158924 </v>
    <v>       0.74981024       0.33309458       0.50049058 </v>
    <v>       0.50030633       0.44425820       0.77787904 </v>
    <v>       0.00030115       0.33320097       0.33327386 </v>
    <v>       0.25006595       0.33336972       0.16670936 </v>
    <v>       0.00045932       0.55549436       0.55550522 </v>
    <v>       0.74995897       0.44461966       0.27792137 </v>
    <v>       0.00340421       0.77805406       0.44461121 </v>
    <v>       0.99920445       0.21998696       0.88905058 </v>
    <v>       0.49981687       0.44503749       0.11029074 </v>
    <v>       0.25293316       0.99832440       0.49860460 </v>
    <v>       0.49758329       0.22084767       0.55565121 </v>
    <v>       0.25146827       0.22226731       0.72288447 </v>
    <v>       0.74988949       0.99982728       0.50047593 </v>
    <v>       0.99998007       0.00010918       0.00009164 </v>
    <v>       0.75036008       0.66693378       0.83357377 </v>
    <v>       0.75136949       0.22074985       0.72234722 </v>
    <v>       0.25013305       0.66791043       0.50004463 </v>
    <v>       0.25045806       0.77713746       0.94465012 </v>
    <v>       0.24927900       0.33196863       0.49947732 </v>
    <v>       0.00092896       0.33329642       0.00035629 </v>
    <v>       0.99992977       0.77750540       0.11107416 </v>
    <v>       0.74872147       0.88993154       0.05566878 </v>
    <v>       0.50059382       0.99997644       0.33422099 </v>
    <v>       0.50088101       0.44620564       0.44432272 </v>
    <v>       0.74958925       0.33292517       0.83310474 </v>
    <v>       0.75005035       0.99724810       0.83355586 </v>
    <v>       0.00031881       0.55557723       0.22200981 </v>
    <v>       0.99868386       0.99904984       0.66652817 </v>
    <v>       0.74986852       0.55577792       0.05511630 </v>
    <v>       0.49967079       0.88857318       0.22231925 </v>
    <v>       0.74988295       0.33365027       0.16635444 </v>
    <v>       0.49572253       0.89001527       0.55534172 </v>
    <v>       0.25110623       0.88903065       0.05514044 </v>
    <v>       0.00126089       0.11082081       0.44463965 </v>
    <v>       0.25001601       0.99999079       0.16673839 </v>
    <v>       0.24836089       0.44751174       0.61071986 </v>
    <v>       0.25076309       0.11071119       0.61028853 </v>
    <v>       0.74754952       0.44482553       0.94524611 </v>
    <v>       0.25005873       0.55560233       0.05514466 </v>
    <v>       0.24941840       0.11098159       0.94521869 </v>
    <v>       0.25027455       0.66664661       0.16701501 </v>
    <v>       0.24944113       0.11201480       0.27803883 </v>
    <v>       0.99996294       0.77693734       0.77684351 </v>
    <v>       0.24935849       0.22138662       0.38997669 </v>
    <v>       0.99953975       0.11137892       0.77742193 </v>
    <v>       0.24980698       0.44471200       0.94528491 </v>
    <v>       0.74994366       0.66650248       0.16648694 </v>
    <v>       0.49965470       0.00101009       0.66608042 </v>
   </varray>
  </structure>
  <varray name="forces" >
   <v>      -0.02065783      -0.11273340       0.18131676 </v>
   <v>       0.08270489      -0.05868532       0.29737587 </v>
   <v>       0.26742073       0.31525858      -0.23664026 </v>
   <v>       0.16712351      -0.17612356       1.01757214 </v>
   <v>       0.22901360      -0.07525132       0.03904169 </v>
   <v>      -0.43041189      -0.04437631      -0.06367642 </v>
   <v>      -0.10050378      -0.29070248      -0.07166821 </v>
   <v>       0.25739503      -0.23941491      -0.03380957 </v>
   <v>      -0.40346031       0.02299419      -0.22758502 </v>
   <v>       0.15101392       0.00044448       0.16498380 </v>
   <v>       0.13206448      -0.07585221      -0.01668836 </v>
   <v>       0.23692617       0.03169203       0.24918998 </v>
   <v>       0.06292159       0.06130611      -0.20089930 </v>
   <v>      -0.12761307      -0.01476298       0.03163898 </v>
   <v>      -0.30791629      -0.01533741       0.13846755 </v>
   <v>      -0.27301990       0.21964880       0.07600375 </v>
   <v>      -0.03403934       0.29164545      -0.32814292 </v>
   <v>       0.34220038       0.23084024       0.53581908 </v>
   <v>      -0.10524567      -0.10706338       0.05387025 </v>
   <v>      -0.07129696       0.41720160      -0.14867876 </v>
   <v>      -0.05727340      -0.31009137      -0.48387039 </v>
   <v>      -0.04183814      -0.15446903       0.30095757 </v>
   <v>      -0.28015653       0.00367698       0.16623660 </v>
   <v>       0.13726613      -0.41202869      -0.28657256 </v>
   <v>      -0.26204750      -0.17227313      -0.21063528 </v>
   <v>       0.12759421       0.13340366      -0.04063394 </v>
   <v>      -0.08783530      -0.08864798      -0.01890120 </v>
   <v>       0.10742660       0.02490694       0.56360724 </v>
   <v>      -0.03434282       0.37093310       0.47785012 </v>
   <v>      -0.49755540      -0.28911306       0.00905807 </v>
   <v>       0.00052421      -0.12382018      -0.27226910 </v>
   <v>      -0.04527111      -0.38548188      -0.03699096 </v>
   <v>       0.01205475       0.06320161      -0.26467418 </v>
   <v>      -0.21513087      -0.18649007      -0.09685715 </v>
   <v>      -0.03403098      -0.24530102      -0.00899474 </v>
   <v>      -0.00806921       0.18237353       0.18056711 </v>
   <v>      -0.17295262       0.21950065      -0.20396883 </v>
   <v>      -0.07583028      -0.00467561      -0.51669091 </v>
   <v>       0.06410907       0.00074767       0.11353954 </v>
   <v>      -0.07695246      -0.28323670       0.16995605 </v>
   <v>       0.26676072      -0.19649013       0.29993010 </v>
   <v>       0.02634072      -0.12561445       0.08761911 </v>
   <v>      -0.10637538       0.02316588      -0.25823034 </v>
   <v>      -0.31764620      -0.00728637      -0.25813835 </v>
   <v>      -0.29374794      -0.02235116       0.18858013 </v>
   <v>       0.06971830      -0.00977914       0.08287010 </v>
   <v>       0.18079480       0.10244418      -0.01497010 </v>
   <v>       0.04874017      -0.27539059       0.00799902 </v>
   <v>      -0.08197610      -0.01764094      -0.30508453 </v>
   <v>      -0.06352685      -0.04424889      -0.08255726 </v>
   <v>       0.15055572      -0.05706335       0.03378206 </v>
   <v>       0.10730178       0.27910502      -0.08804053 </v>
   <v>       0.00750024       0.09648018       0.01012436 </v>
   <v>      -0.20607498       0.14301170       0.03228763 </v>
   <v>      -0.12633570      -0.03738187       0.07012269 </v>
   <v>      -0.01511847      -0.05043902      -0.11358333 </v>
   <v>       0.27932598       0.01125065      -0.24567954 </v>
   <v>      -0.10333205       0.19847108       0.40862546 </v>
   <v>       0.22226978       0.22558805      -0.12595916 </v>
   <v>      -0.07866527       0.39325730      -0.28774385 </v>
   <v>      -0.25080376       0.07481954      -0.13218827 </v>
   <v>       0.02022641       0.04815873       0.10045476 </v>
   <v>       0.17901237      -0.15566062       0.25746368 </v>
   <v>       0.17178148       0.22657547      -0.17322912 </v>
   <v>      -0.12378675       0.10924965       0.00273071 </v>
   <v>      -0.04272474      -0.04958241      -0.11947672 </v>
   <v>      -0.33484305      -0.11394383      -0.07474884 </v>
   <v>       0.33895819       0.24365113      -0.40146972 </v>
   <v>      -0.06266047      -0.13412261      -0.01575811 </v>
   <v>      -0.21223671       0.12965069       0.20077766 </v>
   <v>       0.09807410       0.15329094      -0.04638862 </v>
   <v>      -0.24122163       0.11727445       0.10770192 </v>
   <v>      -0.02997736      -0.02315931      -0.20571540 </v>
   <v>      -0.01208237       0.24026681      -0.13684647 </v>
   <v>       0.09033211       0.06953109      -0.38543496 </v>
   <v>       0.05839670       0.27260178       0.22949979 </v>
   <v>      -0.25972103       0.02391269      -0.17409909 </v>
   <v>      -0.12643854       0.05103903      -0.22357217 </v>
   <v>       0.38741712       0.26773739      -0.15426195 </v>
   <v>      -0.04885737      -0.04281858      -0.61163116 </v>
   <v>      -0.13074118      -0.03809853       0.38876362 </v>
   <v>       0.12599110       0.07621063      -0.01111200 </v>
   <v>      -0.05525360       0.00510036      -0.29934141 </v>
   <v>       0.33233200      -0.13268836      -0.06016716 </v>
   <v>       0.02579306      -0.06992622       0.32800849 </v>
   <v>       0.00121669       0.22180138       0.12338747 </v>
   <v>      -0.00643638       0.21566182       0.04790088 </v>
   <v>       0.18844611       0.22628912       0.00468069 </v>
   <v>      -0.37182587       0.25593673       0.21036959 </v>
   <v>       0.22362180       0.21994140       0.06631270 </v>
   <v>      -0.38182414       0.17911489       0.11084621 </v>
   <v>       0.70595134       0.08839664       0.06701245 </v>
   <v>      -0.18031933      -0.20544308       0.12641129 </v>
   <v>       0.07395496      -0.22380130      -0.37346518 </v>
   <v>       0.26386880      -0.15158610       0.27156344 </v>
   <v>       0.05504115      -0.39277795       0.01905784 </v>
   <v>       0.05428144       0.13487634       0.49699065 </v>
   <v>       0.20294067      -0.39890808       0.09391188 </v>
   <v>       0.26468768      -0.24694010       0.25982745 </v>
   <v>       0.33867111       0.47211712      -0.54145823 </v>
   <v>      -0.21231179      -0.21610889      -0.32435141 </v>
   <v>      -0.14195644       0.27514973       0.56384460 </v>
   <v>       0.23637450       0.19682157       0.42820739 </v>
   <v>      -0.24841694       0.03871546      -0.81671430 </v>
   <v>       0.12006829      -0.51682623       0.03860440 </v>
   <v>       0.13030254      -0.36994595       0.06660259 </v>
   <v>       0.19279689      -0.22442307       0.16101627 </v>
   <v>       0.01308398      -0.28006314       0.06932409 </v>
  </varray>
  <varray name="stress" >
   <v>      73.62451038      -0.13414296      -1.14028745 </v>
   <v>      -0.13414247      72.19235610      -0.83965812 </v>
   <v>      -1.14028725      -0.83967339      73.17124334 </v>
  </varray>
  <energy>
   <i name="e_fr_energy">  -1095.12602773 </i>
   <i name="e_wo_entrp">  -1095.01774629 </i>
   <i name="e_0_energy">     -0.21656287 </i>
  </energy>
  <time name="totalsc"> 1260.77 1269.42</time>
 </calculation>
 <calculation>
  <scstep>
   <time name="dav">   87.42   88.02</time>
   <time name="total">   89.96   90.58</time>
   <energy>
    <i name="alphaZ">   4871.05958751 </i>
    <i name="ewald"> -46954.06114207 </i>
    <i name="hartreedc"> -16410.09192351 </i>
    <i name="XCdc">  -2018.60996945 </i>
    <i name="pawpsdc">  85459.52623790 </i>
    <i name="pawaedc"> -80447.85422794 </i>
    <i name="eentropy">     -0.21658118 </i>
    <i name="bandstr">  -4810.63700639 </i>
    <i name="atom">  59215.75643617 </i>
    <i name="e_fr_energy">  -1095.12858896 </i>
    <i name="e_wo_entrp">  -1094.91200778 </i>
    <i name="e_0_energy">  -1095.02029837 </i>
   </energy>
  </scstep>
  <scstep>
   <time name="dav">  112.14  112.91</time>
   <time name="total">  114.73  115.51</time>
   <energy>
    <i name="e_fr_energy">  -1095.12875360 </i>
    <i name="e_wo_entrp">  -1094.91215200 </i>
    <i name="e_0_energy">  -1095.02045280 </i>
   </energy>
  </scstep>
  <scstep>
   <time name="dav">  107.08  107.80</time>
   <time name="total">  109.58  110.32</time>
   <energy>
    <i name="e_fr_energy">  -1095.12874744 </i>
    <i name="e_wo_entrp">  -1094.91222053 </i>
    <i name="e_0_energy">  -1095.02048398 </i>
   </energy>
  </scstep>
  <scstep>
   <time name="dav">  100.61  101.27</time>
   <time name="total">  103.15  103.83</time>
   <energy>
    <i name="e_fr_energy">  -1095.12860870 </i>
    <i name="e_wo_entrp">  -1094.91200558 </i>
    <i name="e_0_energy">  -1095.02030714 </i>
   </energy>
  </scstep>
  <scstep>
   <time name="dav">   97.62   98.29</time>
   <time name="total">  100.03  100.71</time>
   <energy>
    <i name="e_fr_energy">  -1095.12863457 </i>
    <i name="e_wo_entrp">  -1094.91211227 </i>
    <i name="e_0_energy">  -1095.02037342 </i>
   </energy>
  </scstep>
  <scstep>
   <time name="dav">   98.96   99.63</time>
   <time name="total">  101.29  101.98</time>
   <energy>
    <i name="e_fr_energy">  -1095.12860996 </i>
    <i name="e_wo_entrp">  -1094.91202045 </i>
    <i name="e_0_energy">  -1095.02031521 </i>
   </energy>
  </scstep>
  <scstep>
   <time name="dav">   96.05   96.70</time>
   <time name="total">   98.61   99.29</time>
   <energy>
    <i name="e_fr_energy">  -1095.12860447 </i>
    <i name="e_wo_entrp">  -1094.91201731 </i>
    <i name="e_0_energy">  -1095.02031089 </i>
   </energy>
  </scstep>
  <scstep>
   <time name="dav">   95.17   95.83</time>
   <time name="total">   97.65   98.34</time>
   <energy>
    <i name="e_fr_energy">  -1095.12860462 </i>
    <i name="e_wo_entrp">  -1094.91202985 </i>
    <i name="e_0_energy">  -1095.02031724 </i>
   </energy>
  </scstep>
  <scstep>
   <time name="dav">   89.97   90.57</time>
   <time name="total">   92.48   93.09</time>
   <energy>
    <i name="e_fr_energy">  -1095.12860339 </i>
    <i name="e_wo_entrp">  -1094.91201604 </i>
    <i name="e_0_energy">  -1095.02030972 </i>
   </energy>
  </scstep>
  <scstep>
   <time name="dav">   83.83   84.42</time>
   <time name="total">   84.32   84.92</time>
   <energy>
    <i name="alphaZ">   4871.05958751 </i>
    <i name="ewald"> -46954.06114207 </i>
    <i name="hartreedc"> -16410.09240108 </i>
    <i name="XCdc">  -2018.60982499 </i>
    <i name="pawpsdc">  85459.12069743 </i>
    <i name="pawaedc"> -80447.44846160 </i>
    <i name="eentropy">     -0.21658004 </i>
    <i name="bandstr">  -4810.63691428 </i>
    <i name="atom">  59215.75643617 </i>
    <i name="e_fr_energy">  -1095.12860295 </i>
    <i name="e_wo_entrp">  -1094.91202291 </i>
    <i name="e_0_energy">  -1095.02031293 </i>
   </energy>
  </scstep>
  <structure>
   <crystal>
    <varray name="basis" >
     <v>       9.12169973       0.00000000       0.00000000 </v>
     <v>       0.00000000       8.37880972       0.00000000 </v>
     <v>       0.00000000       0.00000000      23.69886622 </v>
    </varray>
    <i name="volume">   1811.28032179 </i>
    <varray name="rec_basis" >
     <v>       0.10962869       0.00000000       0.00000000 </v>
     <v>       0.00000000       0.11934869       0.00000000 </v>
     <v>       0.00000000       0.00000000       0.04219611 </v>
    </varray>
   </crystal>
   <varray name="positions" >
    <v>       0.49945717       0.22227243       0.22242003 </v>
    <v>       0.00070118       0.22205451       0.22234153 </v>
    <v>       0.24956005       0.22198081       0.05491038 </v>
    <v>       0.49996588       0.77759055       0.10991619 </v>
    <v>       0.00004795       0.44468439       0.10986285 </v>
    <v>       0.00148144       0.44486166       0.44440382 </v>
    <v>       0.25047156       0.77742870       0.61118403 </v>
    <v>       0.00060889       0.66659512       0.00019203 </v>
    <v>       0.75069806       0.55537664       0.72238100 </v>
    <v>       0.49987171       0.66677549       0.33331142 </v>
    <v>       0.24977592       0.88860132       0.72214626 </v>
    <v>       0.99984612       0.44512892       0.77683095 </v>
    <v>       0.00057451       0.33375202       0.66680444 </v>
    <v>       0.24951062       0.66690778       0.83241258 </v>
    <v>       0.74976410       0.11102736       0.61095971 </v>
    <v>       0.00123244       0.66637673       0.66783514 </v>
    <v>       0.24981463       0.77788080       0.27823344 </v>
    <v>       0.49921610       0.66707320       0.66578240 </v>
    <v>       0.50039648       0.77801080       0.77815084 </v>
    <v>       0.49961187       0.99881015       0.00014401 </v>
    <v>       0.50018019       0.11107501       0.77808003 </v>
    <v>       0.49998553       0.33307265       0.33347759 </v>
    <v>       0.00032032       0.88895854       0.22244812 </v>
    <v>       0.24911680       0.55574890       0.38946554 </v>
    <v>       0.49958214       0.66698097       0.00023386 </v>
    <v>       0.75027631       0.44531190       0.61027104 </v>
    <v>       0.75044206       0.77753263       0.61050967 </v>
    <v>       0.00020895       0.11107666       0.10978511 </v>
    <v>       0.24978244       0.99970668       0.83276859 </v>
    <v>       0.50091830       0.55580766       0.89012015 </v>
    <v>       0.99977438       0.89001285       0.88926997 </v>
    <v>       0.24996115       0.44405207       0.27790571 </v>
    <v>       0.49932172       0.55579543       0.55667193 </v>
    <v>       0.00061817       0.88896585       0.55520306 </v>
    <v>       0.50002708       0.33285617       0.66574520 </v>
    <v>       0.75033506       0.22197818       0.05467092 </v>
    <v>       0.50010698       0.11132238       0.44409871 </v>
    <v>       0.75008532       0.77771801       0.27803904 </v>
    <v>       0.75012042       0.11104979       0.27798802 </v>
    <v>       0.74989649       0.99987078       0.16659989 </v>
    <v>       0.99994881       0.55582707       0.88812638 </v>
    <v>       0.74858472       0.88985542       0.38919541 </v>
    <v>       0.50007465       0.88819263       0.89149955 </v>
    <v>       0.49984622       0.33398801       0.99987228 </v>
    <v>       0.50027798       0.22232851       0.88896697 </v>
    <v>       0.00042892       0.66696825       0.33363339 </v>
    <v>       0.74923593       0.22194247       0.38932022 </v>
    <v>       0.49905075       0.77891992       0.44452202 </v>
    <v>       0.75047247       0.11115583       0.94552311 </v>
    <v>       0.75029444       0.88945360       0.72203072 </v>
    <v>       0.24955179       0.55547222       0.72183323 </v>
    <v>       0.24927061       0.88921082       0.38900346 </v>
    <v>       0.00048412       0.22221846       0.55456145 </v>
    <v>       0.49985817       0.11085338       0.11060927 </v>
    <v>       0.74950566       0.55541758       0.38905500 </v>
    <v>       0.74989740       0.77778519       0.94555353 </v>
    <v>       0.75022894       0.66691646       0.50128919 </v>
    <v>       0.24989517       0.33323698       0.83304055 </v>
    <v>       0.00073197       0.99975969       0.33341754 </v>
    <v>       0.50055529       0.55542708       0.22159482 </v>
    <v>       0.74981024       0.33309458       0.50048188 </v>
    <v>       0.50030633       0.44425820       0.77787930 </v>
    <v>       0.00030115       0.33320097       0.33327480 </v>
    <v>       0.25006595       0.33336972       0.16670861 </v>
    <v>       0.00045932       0.55549436       0.55550848 </v>
    <v>       0.74995897       0.44461966       0.27791979 </v>
    <v>       0.00340421       0.77805406       0.44460661 </v>
    <v>       0.99920445       0.21998696       0.88904808 </v>
    <v>       0.49981687       0.44503749       0.11030006 </v>
    <v>       0.25293316       0.99832440       0.49861423 </v>
    <v>       0.49758329       0.22084767       0.55565163 </v>
    <v>       0.25146827       0.22226731       0.72288400 </v>
    <v>       0.74988949       0.99982728       0.50046733 </v>
    <v>       0.99998007       0.00010918       0.00008716 </v>
    <v>       0.75036008       0.66693378       0.83357632 </v>
    <v>       0.75136949       0.22074985       0.72235731 </v>
    <v>       0.25013305       0.66791043       0.50004182 </v>
    <v>       0.25045806       0.77713746       0.94464345 </v>
    <v>       0.24927900       0.33196863       0.49947688 </v>
    <v>       0.00092896       0.33329642       0.00034986 </v>
    <v>       0.99992977       0.77750540       0.11107950 </v>
    <v>       0.74872147       0.88993154       0.05567009 </v>
    <v>       0.50059382       0.99997644       0.33421264 </v>
    <v>       0.50088101       0.44620564       0.44431666 </v>
    <v>       0.74958925       0.33292517       0.83310577 </v>
    <v>       0.75005035       0.99724810       0.83355425 </v>
    <v>       0.00031881       0.55557723       0.22200997 </v>
    <v>       0.99868386       0.99904984       0.66653727 </v>
    <v>       0.74986852       0.55577792       0.05512321 </v>
    <v>       0.49967079       0.88857318       0.22231807 </v>
    <v>       0.74988295       0.33365027       0.16635742 </v>
    <v>       0.49572253       0.89001527       0.55534058 </v>
    <v>       0.25110623       0.88903065       0.05514298 </v>
    <v>       0.00126089       0.11082081       0.44463359 </v>
    <v>       0.25001601       0.99999079       0.16673732 </v>
    <v>       0.24836089       0.44751174       0.61071844 </v>
    <v>       0.25076309       0.11071119       0.61029143 </v>
    <v>       0.74754952       0.44482553       0.94523391 </v>
    <v>       0.25005873       0.55560233       0.05514820 </v>
    <v>       0.24941840       0.11098159       0.94521184 </v>
    <v>       0.25027455       0.66664661       0.16700932 </v>
    <v>       0.24944113       0.11201480       0.27803469 </v>
    <v>       0.99996294       0.77693734       0.77686000 </v>
    <v>       0.24935849       0.22138662       0.38996976 </v>
    <v>       0.99953975       0.11137892       0.77742645 </v>
    <v>       0.24980698       0.44471200       0.94527758 </v>
    <v>       0.74994366       0.66650248       0.16648761 </v>
    <v>       0.49965470       0.00101009       0.66608812 </v>
   </varray>
  </structure>
  <varray name="forces" >
   <v>      -0.02081332      -0.11248547       0.18228972 </v>
   <v>       0.08279668      -0.05871308       0.29792873 </v>
   <v>       0.26696080       0.31533867      -0.23845548 </v>
   <v>       0.16811777      -0.17641070       1.01142032 </v>
   <v>       0.22892257      -0.07560234       0.03523234 </v>
   <v>      -0.43052556      -0.04415618      -0.06278068 </v>
   <v>      -0.10038952      -0.29116958      -0.07040282 </v>
   <v>       0.25644746      -0.23965207      -0.03288453 </v>
   <v>      -0.40225535       0.02291474      -0.22676063 </v>
   <v>       0.15113318       0.00070223       0.16439378 </v>
   <v>       0.13123260      -0.07562415      -0.01367574 </v>
   <v>       0.23695434       0.03234023       0.24610811 </v>
   <v>       0.06219673       0.06204421      -0.19752359 </v>
   <v>      -0.12928854      -0.01468817       0.02696818 </v>
   <v>      -0.30846675      -0.01510613       0.13763516 </v>
   <v>      -0.27281992       0.22031065       0.08119664 </v>
   <v>      -0.03341674       0.29056418      -0.32689653 </v>
   <v>       0.34199258       0.23036592       0.53339254 </v>
   <v>      -0.10661879      -0.10747537       0.05306942 </v>
   <v>      -0.07083366       0.41671826      -0.15088912 </v>
   <v>      -0.05932246      -0.30946480      -0.48061327 </v>
   <v>      -0.04211540      -0.15459731       0.29955265 </v>
   <v>      -0.28075009       0.00381445       0.16648462 </v>
   <v>       0.13721145      -0.41233178      -0.28664244 </v>
   <v>      -0.26134074      -0.17212784      -0.21004338 </v>
   <v>       0.12681242       0.13312763      -0.04317439 </v>
   <v>      -0.08848346      -0.08939844      -0.02134387 </v>
   <v>       0.10705085       0.02572624       0.55896627 </v>
   <v>      -0.03376386       0.37155419       0.47443883 </v>
   <v>      -0.49705051      -0.28882534       0.01174032 </v>
   <v>       0.00041430      -0.12440480      -0.27226775 </v>
   <v>      -0.04469017      -0.38565457      -0.03728157 </v>
   <v>       0.01362478       0.06315629      -0.26303095 </v>
   <v>      -0.21565582      -0.18666346      -0.09658729 </v>
   <v>      -0.03468962      -0.24724687      -0.01035532 </v>
   <v>      -0.00792628       0.18163247       0.17970726 </v>
   <v>      -0.17320927       0.21908808      -0.20462574 </v>
   <v>      -0.07642013      -0.00463257      -0.51701061 </v>
   <v>       0.06153466       0.00178781       0.11345526 </v>
   <v>      -0.07715423      -0.28324261       0.17004161 </v>
   <v>       0.26642058      -0.19627801       0.29995934 </v>
   <v>       0.02573742      -0.12669897       0.08909896 </v>
   <v>      -0.10652842       0.02353270      -0.25292485 </v>
   <v>      -0.31720378      -0.00743659      -0.25769713 </v>
   <v>      -0.29384179      -0.02256429       0.18801348 </v>
   <v>       0.06949445      -0.00970640       0.08179410 </v>
   <v>       0.18064950       0.10178279      -0.01527834 </v>
   <v>       0.04885305      -0.27534084       0.00772734 </v>
   <v>      -0.08343208      -0.01840546      -0.29721387 </v>
   <v>      -0.06193004      -0.04594994      -0.08390712 </v>
   <v>       0.14971126      -0.05690012       0.03406755 </v>
   <v>       0.10763941       0.27934712      -0.08879854 </v>
   <v>       0.00734063       0.09661129       0.00935505 </v>
   <v>      -0.20581879       0.14304026       0.03136355 </v>
   <v>      -0.12644483      -0.03754661       0.06933914 </v>
   <v>      -0.01501244      -0.05055025      -0.11036153 </v>
   <v>       0.28054868       0.01205978      -0.24466548 </v>
   <v>      -0.10316058       0.19863144       0.40831451 </v>
   <v>       0.22230447       0.22522470      -0.12657326 </v>
   <v>      -0.07877501       0.39337914      -0.28769596 </v>
   <v>      -0.25109653       0.07487011      -0.13204654 </v>
   <v>       0.02000941       0.04806301       0.09947730 </v>
   <v>       0.17918784      -0.15603720       0.25695756 </v>
   <v>       0.17197918       0.22633537      -0.17288801 </v>
   <v>      -0.12442353       0.10900319       0.00169324 </v>
   <v>      -0.04345254      -0.04941510      -0.11937359 </v>
   <v>      -0.33472348      -0.11357513      -0.07504212 </v>
   <v>       0.33911059       0.24389257      -0.40123391 </v>
   <v>      -0.06260090      -0.13392658      -0.01728839 </v>
   <v>      -0.21217966       0.13017049       0.19959330 </v>
   <v>       0.09847385       0.15368059      -0.04612250 </v>
   <v>      -0.24163776       0.11736873       0.10782393 </v>
   <v>      -0.03035566      -0.02306749      -0.20529649 </v>
   <v>      -0.01228952       0.24073462      -0.13581176 </v>
   <v>       0.09070545       0.06902480      -0.38682315 </v>
   <v>       0.05847257       0.27339200       0.22780873 </v>
   <v>      -0.25951127       0.02383310      -0.17420428 </v>
   <v>      -0.12529388       0.05115897      -0.22117946 </v>
   <v>       0.38731071       0.26720926      -0.15424987 </v>
   <v>      -0.04908692      -0.04267974      -0.60943683 </v>
   <v>      -0.13112996      -0.03783669       0.38644945 </v>
   <v>       0.12535431       0.07575408      -0.01226583 </v>
   <v>      -0.05555357       0.00501611      -0.29886383 </v>
   <v>       0.33245274      -0.13264633      -0.05982081 </v>
   <v>       0.02547714      -0.06985800       0.32752892 </v>
   <v>       0.00129705       0.22172514       0.12267202 </v>
   <v>      -0.00624560       0.21600837       0.04837851 </v>
   <v>       0.18801755       0.22572164       0.00314887 </v>
   <v>      -0.37205585       0.25575807       0.20870329 </v>
   <v>       0.22387930       0.21978457       0.06649845 </v>
   <v>      -0.38209593       0.17866153       0.11103923 </v>
   <v>       0.70667142       0.08833579       0.06688746 </v>
   <v>      -0.17979406      -0.20563590       0.12486323 </v>
   <v>       0.07421975      -0.22343201      -0.37238591 </v>
   <v>       0.26406260      -0.15127649       0.27163913 </v>
   <v>       0.05560847      -0.39268579       0.01857842 </v>
   <v>       0.05460833       0.13486688       0.49688346 </v>
   <v>       0.20244431      -0.39923547       0.09567156 </v>
   <v>       0.26482362      -0.24705139       0.25927688 </v>
   <v>       0.33906731       0.47216812      -0.54032134 </v>
   <v>      -0.20766886      -0.21663918      -0.31681260 </v>
   <v>      -0.14170379       0.27504792       0.56331321 </v>
   <v>       0.23954709       0.19940519       0.42572939 </v>
   <v>      -0.25180323       0.03744796      -0.81382130 </v>
   <v>       0.12069952      -0.51677298       0.03938156 </v>
   <v>       0.13136540      -0.37377445       0.07381349 </v>
   <v>       0.19266964      -0.22413199       0.16195002 </v>
   <v>       0.01523265      -0.27250468       0.06483490 </v>
  </varray>
  <varray name="stress" >
   <v>      73.62271710      -0.13508578      -1.13358175 </v>
   <v>      -0.13508586      72.17691362      -0.83909100 </v>
   <v>      -1.13358201      -0.83910545      73.18673718 </v>
  </varray>
  <energy>
   <i name="e_fr_energy">  -1095.12860295 </i>
   <i name="e_wo_entrp">  -1095.02031293 </i>
   <i name="e_0_energy">     -0.21658004 </i>
  </energy>
  <time name="totalsc"> 1056.68 1063.87</time>
 </calculation>
 <calculation>
  <scstep>
   <time name="dav">   87.72   88.34</time>
   <time name="total">   90.28   90.92</time>
   <energy>
    <i name="alphaZ">   4871.05958751 </i>
    <i name="ewald"> -46954.29303178 </i>
    <i name="hartreedc"> -16409.86100229 </i>
    <i name="XCdc">  -2018.60996171 </i>
    <i name="pawpsdc">  85459.10486735 </i>
    <i name="pawaedc"> -80447.43268974 </i>
    <i name="eentropy">     -0.21658984 </i>
    <i name="bandstr">  -4810.63749045 </i>
    <i name="atom">  59215.75643617 </i>
    <i name="e_fr_energy">  -1095.12987477 </i>
    <i name="e_wo_entrp">  -1094.91328493 </i>
    <i name="e_0_energy">  -1095.02157985 </i>
   </energy>
  </scstep>
  <scstep>
   <time name="dav">  112.30  113.08</time>
   <time name="total">  114.79  115.59</time>
   <energy>
    <i name="e_fr_energy">  -1095.12991025 </i>
    <i name="e_wo_entrp">  -1094.91331348 </i>
    <i name="e_0_energy">  -1095.02161187 </i>
   </energy>
  </scstep>
  <scstep>
   <time name="dav">   99.72  100.43</time>
   <time name="total">  102.17  102.90</time>
   <energy>
    <i name="e_fr_energy">  -1095.12991214 </i>
    <i name="e_wo_entrp">  -1094.91333713 </i>
    <i name="e_0_energy">  -1095.02162463 </i>
   </energy>
  </scstep>
  <scstep>
   <time name="dav">   97.40   98.09</time>
   <time name="total">   99.83  100.53</time>
   <energy>
    <i name="e_fr_energy">  -1095.12987984 </i>
    <i name="e_wo_entrp">  -1094.91327784 </i>
    <i name="e_0_energy">  -1095.02157884 </i>
   </energy>
  </scstep>
  <scstep>
   <time name="dav">   93.98   94.67</time>
   <time name="total">   96.52   97.23</time>
   <energy>
    <i name="e_fr_energy">  -1095.12988535 </i>
    <i name="e_wo_entrp">  -1094.91332502 </i>
    <i name="e_0_energy">  -1095.02160518 </i>
   </energy>
  </scstep>
  <scstep>
   <time name="dav">   85.60   86.18</time>
   <time name="total">   88.18   88.77</time>
   <energy>
    <i name="e_fr_energy">  -1095.12988098 </i>
    <i name="e_wo_entrp">  -1094.91328341 </i>
    <i name="e_0_energy">  -1095.02158220 </i>
   </energy>
  </scstep>
  <scstep>
   <time name="dav">   80.72   81.29</time>
   <time name="total">   83.32   83.92</time>
   <energy>
    <i name="e_fr_energy">  -1095.12987878 </i>
    <i name="e_wo_entrp">  -1094.91328573 </i>
    <i name="e_0_energy">  -1095.02158226 </i>
   </energy>
  </scstep>
  <scstep>
   <time name="dav">   74.91   75.45</time>
   <time name="total">   77.43   77.99</time>
   <energy>
    <i name="e_fr_energy">  -1095.12987864 </i>
    <i name="e_wo_entrp">  -1094.91328806 </i>
    <i name="e_0_energy">  -1095.02158335 </i>
   </energy>
  </scstep>
  <scstep>
   <time name="dav">   66.44   66.88</time>
   <time name="total">   68.93   69.38</time>
   <energy>
    <i name="e_fr_energy">  -1095.12987849 </i>
    <i name="e_wo_entrp">  -1094.91328534 </i>
    <i name="e_0_energy">  -1095.02158191 </i>
   </energy>
  </scstep>
  <scstep>
   <time name="dav">   58.22   58.66</time>
   <time name="total">   58.72   59.16</time>
   <energy>
    <i name="alphaZ">   4871.05958751 </i>
    <i name="ewald"> -46954.29303178 </i>
    <i name="hartreedc"> -16409.86544462 </i>
    <i name="XCdc">  -2018.60975836 </i>
    <i name="pawpsdc">  85458.86480273 </i>
    <i name="pawaedc"> -80447.19261282 </i>
    <i name="eentropy">     -0.21659182 </i>
    <i name="bandstr">  -4810.63326539 </i>
    <i name="atom">  59215.75643617 </i>
    <i name="e_fr_energy">  -1095.12987837 </i>
    <i name="e_wo_entrp">  -1094.91328655 </i>
    <i name="e_0_energy">  -1095.02158246 </i>
   </energy>
  </scstep>
  <structure>
   <crystal>
    <varray name="basis" >
     <v>       9.12169973       0.00000000       0.00000000 </v>
     <v>       0.00000000       8.37880972       0.00000000 </v>
     <v>       0.00000000       0.00000000      23.69886622 </v>
    </varray>
    <i name="volume">   1811.28032179 </i>
    <varray name="rec_basis" >
     <v>       0.10962869       0.00000000       0.00000000 </v>
     <v>       0.00000000       0.11934869       0.00000000 </v>
     <v>       0.00000000       0.00000000       0.04219611 </v>
    </varray>
   </crystal>
   <varray name="positions" >
    <v>       0.49945717       0.22227243       0.22241801 </v>
    <v>       0.00070118       0.22205451       0.22234114 </v>
    <v>       0.24956005       0.22198081       0.05491304 </v>
    <v>       0.49996588       0.77759055       0.10992225 </v>
    <v>       0.00004795       0.44468439       0.10987052 </v>
    <v>       0.00148144       0.44486166       0.44440197 </v>
    <v>       0.25047156       0.77742870       0.61118133 </v>
    <v>       0.00060889       0.66659512       0.00019087 </v>
    <v>       0.75069806       0.55537664       0.72238063 </v>
    <v>       0.49987171       0.66677549       0.33331088 </v>
    <v>       0.24977592       0.88860132       0.72214485 </v>
    <v>       0.99984612       0.44512892       0.77683820 </v>
    <v>       0.00057451       0.33375202       0.66680244 </v>
    <v>       0.24951062       0.66690778       0.83242068 </v>
    <v>       0.74976410       0.11102736       0.61096273 </v>
    <v>       0.00123244       0.66637673       0.66782593 </v>
    <v>       0.24981463       0.77788080       0.27823035 </v>
    <v>       0.49921610       0.66707320       0.66578705 </v>
    <v>       0.50039648       0.77801080       0.77814952 </v>
    <v>       0.49961187       0.99881015       0.00014457 </v>
    <v>       0.50018019       0.11107501       0.77807686 </v>
    <v>       0.49998553       0.33307265       0.33347779 </v>
    <v>       0.00032032       0.88895854       0.22244665 </v>
    <v>       0.24911680       0.55574890       0.38946367 </v>
    <v>       0.49958214       0.66698097       0.00023268 </v>
    <v>       0.75027631       0.44531190       0.61027596 </v>
    <v>       0.75044206       0.77753263       0.61051379 </v>
    <v>       0.00020895       0.11107666       0.10979244 </v>
    <v>       0.24978244       0.99970668       0.83277290 </v>
    <v>       0.50091830       0.55580766       0.89011616 </v>
    <v>       0.99977438       0.89001285       0.88927112 </v>
    <v>       0.24996115       0.44405207       0.27790462 </v>
    <v>       0.49932172       0.55579543       0.55666483 </v>
    <v>       0.00061817       0.88896585       0.55520706 </v>
    <v>       0.50002708       0.33285617       0.66575292 </v>
    <v>       0.75033506       0.22197818       0.05467721 </v>
    <v>       0.50010698       0.11132238       0.44410043 </v>
    <v>       0.75008532       0.77771801       0.27803746 </v>
    <v>       0.75012042       0.11104979       0.27798738 </v>
    <v>       0.74989649       0.99987078       0.16659921 </v>
    <v>       0.99994881       0.55582707       0.88813131 </v>
    <v>       0.74858472       0.88985542       0.38919410 </v>
    <v>       0.50007465       0.88819263       0.89148333 </v>
    <v>       0.49984622       0.33398801       0.99987327 </v>
    <v>       0.50027798       0.22232851       0.88896697 </v>
    <v>       0.00042892       0.66696825       0.33363213 </v>
    <v>       0.74923593       0.22194247       0.38931923 </v>
    <v>       0.49905075       0.77891992       0.44452184 </v>
    <v>       0.75047247       0.11115583       0.94551366 </v>
    <v>       0.75029444       0.88945360       0.72203236 </v>
    <v>       0.24955179       0.55547222       0.72183355 </v>
    <v>       0.24927061       0.88921082       0.38900740 </v>
    <v>       0.00048412       0.22221846       0.55457228 </v>
    <v>       0.49985817       0.11085338       0.11061039 </v>
    <v>       0.74950566       0.55541758       0.38905465 </v>
    <v>       0.74989740       0.77778519       0.94554228 </v>
    <v>       0.75022894       0.66691646       0.50127703 </v>
    <v>       0.24989517       0.33323698       0.83304324 </v>
    <v>       0.00073197       0.99975969       0.33341674 </v>
    <v>       0.50055529       0.55542708       0.22159761 </v>
    <v>       0.74981024       0.33309458       0.50047753 </v>
    <v>       0.50030633       0.44425820       0.77787943 </v>
    <v>       0.00030115       0.33320097       0.33327527 </v>
    <v>       0.25006595       0.33336972       0.16670823 </v>
    <v>       0.00045932       0.55549436       0.55551012 </v>
    <v>       0.74995897       0.44461966       0.27791901 </v>
    <v>       0.00340421       0.77805406       0.44460431 </v>
    <v>       0.99920445       0.21998696       0.88904683 </v>
    <v>       0.49981687       0.44503749       0.11030472 </v>
    <v>       0.25293316       0.99832440       0.49861904 </v>
    <v>       0.49758329       0.22084767       0.55565185 </v>
    <v>       0.25146827       0.22226731       0.72288377 </v>
    <v>       0.74988949       0.99982728       0.50046303 </v>
    <v>       0.99998007       0.00010918       0.00008492 </v>
    <v>       0.75036008       0.66693378       0.83357760 </v>
    <v>       0.75136949       0.22074985       0.72236235 </v>
    <v>       0.25013305       0.66791043       0.50004042 </v>
    <v>       0.25045806       0.77713746       0.94464011 </v>
    <v>       0.24927900       0.33196863       0.49947667 </v>
    <v>       0.00092896       0.33329642       0.00034665 </v>
    <v>       0.99992977       0.77750540       0.11108217 </v>
    <v>       0.74872147       0.88993154       0.05567074 </v>
    <v>       0.50059382       0.99997644       0.33420847 </v>
    <v>       0.50088101       0.44620564       0.44431364 </v>
    <v>       0.74958925       0.33292517       0.83310629 </v>
    <v>       0.75005035       0.99724810       0.83355345 </v>
    <v>       0.00031881       0.55557723       0.22201004 </v>
    <v>       0.99868386       0.99904984       0.66654182 </v>
    <v>       0.74986852       0.55577792       0.05512667 </v>
    <v>       0.49967079       0.88857318       0.22231747 </v>
    <v>       0.74988295       0.33365027       0.16635890 </v>
    <v>       0.49572253       0.89001527       0.55534001 </v>
    <v>       0.25110623       0.88903065       0.05514425 </v>
    <v>       0.00126089       0.11082081       0.44463056 </v>
    <v>       0.25001601       0.99999079       0.16673678 </v>
    <v>       0.24836089       0.44751174       0.61071774 </v>
    <v>       0.25076309       0.11071119       0.61029288 </v>
    <v>       0.74754952       0.44482553       0.94522780 </v>
    <v>       0.25005873       0.55560233       0.05514997 </v>
    <v>       0.24941840       0.11098159       0.94520842 </v>
    <v>       0.25027455       0.66664661       0.16700648 </v>
    <v>       0.24944113       0.11201480       0.27803262 </v>
    <v>       0.99996294       0.77693734       0.77686824 </v>
    <v>       0.24935849       0.22138662       0.38996630 </v>
    <v>       0.99953975       0.11137892       0.77742871 </v>
    <v>       0.24980698       0.44471200       0.94527391 </v>
    <v>       0.74994366       0.66650248       0.16648794 </v>
    <v>       0.49965470       0.00101009       0.66609197 </v>
   </varray>
  </structure>
  <varray name="forces" >
   <v>      -0.02096500      -0.11237295       0.18276082 </v>
   <v>       0.08279036      -0.05841257       0.29847038 </v>
   <v>       0.26646935       0.31533432      -0.23941109 </v>
   <v>       0.16815430      -0.17632165       1.00956859 </v>
   <v>       0.22949054      -0.07608890       0.03296375 </v>
   <v>      -0.43080853      -0.04383682      -0.06276775 </v>
   <v>      -0.10046045      -0.29116651      -0.07022916 </v>
   <v>       0.25605928      -0.23956053      -0.03236991 </v>
   <v>      -0.40155765       0.02333666      -0.22630607 </v>
   <v>       0.15088587       0.00092999       0.16436798 </v>
   <v>       0.13140437      -0.07605211      -0.01205800 </v>
   <v>       0.23688159       0.03262382       0.24486379 </v>
   <v>       0.06190471       0.06236797      -0.19651571 </v>
   <v>      -0.12931072      -0.01441349       0.02576933 </v>
   <v>      -0.30840958      -0.01515487       0.13747633 </v>
   <v>      -0.27292136       0.22059297       0.08297920 </v>
   <v>      -0.03342283       0.29065104      -0.32629271 </v>
   <v>       0.34203156       0.23044084       0.53229983 </v>
   <v>      -0.10708482      -0.10717327       0.05295007 </v>
   <v>      -0.07086291       0.41629168      -0.15218495 </v>
   <v>      -0.05971163      -0.30964116      -0.47973638 </v>
   <v>      -0.04223130      -0.15464770       0.29914111 </v>
   <v>      -0.28115046       0.00390327       0.16682023 </v>
   <v>       0.13687651      -0.41217126      -0.28679098 </v>
   <v>      -0.26115777      -0.17173674      -0.20970777 </v>
   <v>       0.12680028       0.13296176      -0.04418837 </v>
   <v>      -0.08868326      -0.08910738      -0.02324657 </v>
   <v>       0.10690709       0.02549182       0.55649288 </v>
   <v>      -0.03379326       0.37179992       0.47339802 </v>
   <v>      -0.49713289      -0.28849419       0.01246048 </v>
   <v>       0.00040535      -0.12441115      -0.27206267 </v>
   <v>      -0.04491384      -0.38563577      -0.03712221 </v>
   <v>       0.01394583       0.06346058      -0.26322785 </v>
   <v>      -0.21435729      -0.18830561      -0.09688434 </v>
   <v>      -0.03407533      -0.24915369      -0.01199633 </v>
   <v>      -0.00731309       0.17995309       0.17758720 </v>
   <v>      -0.17322978       0.21907282      -0.20514852 </v>
   <v>      -0.07647757      -0.00461445      -0.51691140 </v>
   <v>       0.06149538       0.00215852       0.11356781 </v>
   <v>      -0.07726581      -0.28311704       0.17001085 </v>
   <v>       0.26628650      -0.19596299       0.30020831 </v>
   <v>       0.02564383      -0.12661655       0.08910541 </v>
   <v>      -0.10600641       0.02598906      -0.25153445 </v>
   <v>      -0.31735903      -0.00722764      -0.25786066 </v>
   <v>      -0.29399887      -0.02268514       0.18770202 </v>
   <v>       0.06956735      -0.00978983       0.08156538 </v>
   <v>       0.18064920       0.10165941      -0.01538078 </v>
   <v>       0.04888020      -0.27496730       0.00739654 </v>
   <v>      -0.08462066      -0.01942362      -0.29265166 </v>
   <v>      -0.06187224      -0.04582404      -0.08347317 </v>
   <v>       0.14913424      -0.05656170       0.03433227 </v>
   <v>       0.10754444       0.27960231      -0.08926338 </v>
   <v>       0.00741944       0.09448792       0.00840287 </v>
   <v>      -0.20613919       0.14295184       0.03106212 </v>
   <v>      -0.12623738      -0.03762527       0.06899713 </v>
   <v>      -0.01366487      -0.05307458      -0.10803259 </v>
   <v>       0.27896104       0.01291623      -0.23958077 </v>
   <v>      -0.10320719       0.19864652       0.40872432 </v>
   <v>       0.22246506       0.22521673      -0.12664307 </v>
   <v>      -0.07891639       0.39365293      -0.28790839 </v>
   <v>      -0.25091341       0.07492627      -0.13196852 </v>
   <v>       0.01986484       0.04809009       0.09935561 </v>
   <v>       0.17911371      -0.15592178       0.25673683 </v>
   <v>       0.17185427       0.22634495      -0.17283649 </v>
   <v>      -0.12488541       0.10895657       0.00113008 </v>
   <v>      -0.04334863      -0.04948443      -0.11906576 </v>
   <v>      -0.33471579      -0.11322215      -0.07503796 </v>
   <v>       0.33915042       0.24405102      -0.40105387 </v>
   <v>      -0.06253702      -0.13360267      -0.01795757 </v>
   <v>      -0.21215816       0.13050531       0.19850517 </v>
   <v>       0.09862595       0.15383980      -0.04604100 </v>
   <v>      -0.24197142       0.11737531       0.10802114 </v>
   <v>      -0.03043361      -0.02291527      -0.20488232 </v>
   <v>      -0.01241087       0.24103299      -0.13526635 </v>
   <v>       0.09073526       0.06905529      -0.38742162 </v>
   <v>       0.05864010       0.27358349       0.22709270 </v>
   <v>      -0.25981357       0.02394922      -0.17415126 </v>
   <v>      -0.12482414       0.05138195      -0.21995909 </v>
   <v>       0.38694965       0.26702087      -0.15420454 </v>
   <v>      -0.04906805      -0.04237643      -0.60828528 </v>
   <v>      -0.13128181      -0.03764218       0.38525288 </v>
   <v>       0.12507081       0.07536859      -0.01292336 </v>
   <v>      -0.05592549       0.00513697      -0.29823507 </v>
   <v>       0.33252534      -0.13263131      -0.05961999 </v>
   <v>       0.02533755      -0.06990487       0.32757247 </v>
   <v>       0.00125568       0.22168197       0.12232658 </v>
   <v>      -0.00615666       0.21629701       0.04866587 </v>
   <v>       0.18766831       0.22567595       0.00231178 </v>
   <v>      -0.37211525       0.25595395       0.20780952 </v>
   <v>       0.22360814       0.21993247       0.06654372 </v>
   <v>      -0.38217838       0.17878988       0.11127236 </v>
   <v>       0.70729873       0.08872627       0.06702902 </v>
   <v>      -0.17964133      -0.20560168       0.12410888 </v>
   <v>       0.07423177      -0.22314802      -0.37148577 </v>
   <v>       0.26409878      -0.15109285       0.27177385 </v>
   <v>       0.05562413      -0.39256107       0.01826483 </v>
   <v>       0.05441831       0.13495769       0.49673613 </v>
   <v>       0.20227454      -0.39906726       0.09645579 </v>
   <v>       0.26471121      -0.24688802       0.25898764 </v>
   <v>       0.33920011       0.47237622      -0.53984697 </v>
   <v>      -0.20549125      -0.21915471      -0.31409548 </v>
   <v>      -0.14176800       0.27504519       0.56310522 </v>
   <v>       0.24010277       0.20132844       0.42092370 </v>
   <v>      -0.25075541       0.03556768      -0.81035355 </v>
   <v>       0.12085177      -0.51668271       0.03996194 </v>
   <v>       0.13131041      -0.37370553       0.07402190 </v>
   <v>       0.19269429      -0.22407076       0.16200477 </v>
   <v>       0.01544249      -0.27242322       0.06476408 </v>
  </varray>
  <varray name="stress" >
   <v>      73.61806942      -0.13786755      -1.12498151 </v>
   <v>      -0.13786716      72.18543624      -0.83633511 </v>
   <v>      -1.12498186      -0.83634990      73.17247967 </v>
  </varray>
  <energy>
   <i name="e_fr_energy">  -1095.12987837 </i>
   <i name="e_wo_entrp">  -1095.02158246 </i>
   <i name="e_0_energy">     -0.21659182 </i>
  </energy>
  <time name="totalsc">  945.70  952.42</time>
 </calculation>
 <calculation>
  <scstep>
   <time name="dav">   87.96   88.55</time>
   <time name="total">   90.51   91.13</time>
   <energy>
    <i name="alphaZ">   4871.05958751 </i>
    <i name="ewald"> -46954.40888322 </i>
    <i name="hartreedc"> -16409.75027527 </i>
    <i name="XCdc">  -2018.60982933 </i>
    <i name="pawpsdc">  85458.85288743 </i>
    <i name="pawaedc"> -80447.18075471 </i>
    <i name="eentropy">     -0.21659396 </i>
    <i name="bandstr">  -4810.63308627 </i>
    <i name="atom">  59215.75643617 </i>
    <i name="e_fr_energy">  -1095.13051166 </i>
    <i name="e_wo_entrp">  -1094.91391770 </i>
    <i name="e_0_energy">  -1095.02221468 </i>
   </energy>
  </scstep>
  <scstep>
   <time name="dav">  113.52  114.34</time>
   <time name="total">  116.28  117.12</time>
   <energy>
    <i name="e_fr_energy">  -1095.13052098 </i>
    <i name="e_wo_entrp">  -1094.91391641 </i>
    <i name="e_0_energy">  -1095.02221870 </i>
   </energy>
  </scstep>
  <scstep>
   <time name="dav">   87.86   88.46</time>
   <time name="total">   90.47   91.08</time>
   <energy>
    <i name="e_fr_energy">  -1095.13052071 </i>
    <i name="e_wo_entrp">  -1094.91392860 </i>
    <i name="e_0_energy">  -1095.02222465 </i>
   </energy>
  </scstep>
  <scstep>
   <time name="dav">   85.83   86.47</time>
   <time name="total">   88.39   89.04</time>
   <energy>
    <i name="e_fr_energy">  -1095.13051292 </i>
    <i name="e_wo_entrp">  -1094.91391452 </i>
    <i name="e_0_energy">  -1095.02221372 </i>
   </energy>
  </scstep>
  <scstep>
   <time name="dav">   75.70   76.29</time>
   <time name="total">   78.21   78.81</time>
   <energy>
    <i name="e_fr_energy">  -1095.13051397 </i>
    <i name="e_wo_entrp">  -1094.91393212 </i>
    <i name="e_0_energy">  -1095.02222305 </i>
   </energy>
  </scstep>
  <scstep>
   <time name="dav">   58.49   58.89</time>
   <time name="total">   61.07   61.50</time>
   <energy>
    <i name="e_fr_energy">  -1095.13051331 </i>
    <i name="e_wo_entrp">  -1094.91391182 </i>
    <i name="e_0_energy">  -1095.02221257 </i>
   </energy>
  </scstep>
  <scstep>
   <time name="dav">   61.63   62.06</time>
   <time name="total">   64.13   64.58</time>
   <energy>
    <i name="e_fr_energy">  -1095.13051265 </i>
    <i name="e_wo_entrp">  -1094.91391602 </i>
    <i name="e_0_energy">  -1095.02221433 </i>
   </energy>
  </scstep>
  <scstep>
   <time name="dav">   55.97   56.37</time>
   <time name="total">   58.60   59.01</time>
   <energy>
    <i name="e_fr_energy">  -1095.13051266 </i>
    <i name="e_wo_entrp">  -1094.91391879 </i>
    <i name="e_0_energy">  -1095.02221572 </i>
   </energy>
  </scstep>
  <scstep>
   <time name="dav">   56.22   56.62</time>
   <time name="total">   58.80   59.21</time>
   <energy>
    <i name="e_fr_energy">  -1095.13051266 </i>
    <i name="e_wo_entrp">  -1094.91391380 </i>
    <i name="e_0_energy">  -1095.02221323 </i>
   </energy>
  </scstep>
  <scstep>
   <time name="dav">   56.21   56.60</time>
   <time name="total">   56.70   57.09</time>
   <energy>
    <i name="alphaZ">   4871.05958751 </i>
    <i name="ewald"> -46954.40888322 </i>
    <i name="hartreedc"> -16409.75161296 </i>
    <i name="XCdc">  -2018.60976165 </i>
    <i name="pawpsdc">  85458.76208659 </i>
    <i name="pawaedc"> -80447.08975065 </i>
    <i name="eentropy">     -0.21659602 </i>
    <i name="bandstr">  -4810.63201838 </i>
    <i name="atom">  59215.75643617 </i>
    <i name="e_fr_energy">  -1095.13051262 </i>
    <i name="e_wo_entrp">  -1094.91391660 </i>
    <i name="e_0_energy">  -1095.02221461 </i>
   </energy>
  </scstep>
  <structure>
   <crystal>
    <varray name="basis" >
     <v>       9.12169973       0.00000000       0.00000000 </v>
     <v>       0.00000000       8.37880972       0.00000000 </v>
     <v>       0.00000000       0.00000000      23.69886622 </v>
    </varray>
    <i name="volume">   1811.28032179 </i>
    <varray name="rec_basis" >
     <v>       0.10962869       0.00000000       0.00000000 </v>
     <v>       0.00000000       0.11934869       0.00000000 </v>
     <v>       0.00000000       0.00000000       0.04219611 </v>
    </varray>
   </crystal>
   <varray name="positions" >
    <v>       0.49945717       0.22227243       0.22241701 </v>
    <v>       0.00070118       0.22205451       0.22234095 </v>
    <v>       0.24956005       0.22198081       0.05491438 </v>
    <v>       0.49996588       0.77759055       0.10992529 </v>
    <v>       0.00004795       0.44468439       0.10987436 </v>
    <v>       0.00148144       0.44486166       0.44440104 </v>
    <v>       0.25047156       0.77742870       0.61117998 </v>
    <v>       0.00060889       0.66659512       0.00019029 </v>
    <v>       0.75069806       0.55537664       0.72238044 </v>
    <v>       0.49987171       0.66677549       0.33331061 </v>
    <v>       0.24977592       0.88860132       0.72214415 </v>
    <v>       0.99984612       0.44512892       0.77684182 </v>
    <v>       0.00057451       0.33375202       0.66680144 </v>
    <v>       0.24951062       0.66690778       0.83242474 </v>
    <v>       0.74976410       0.11102736       0.61096424 </v>
    <v>       0.00123244       0.66637673       0.66782132 </v>
    <v>       0.24981463       0.77788080       0.27822880 </v>
    <v>       0.49921610       0.66707320       0.66578937 </v>
    <v>       0.50039648       0.77801080       0.77814885 </v>
    <v>       0.49961187       0.99881015       0.00014485 </v>
    <v>       0.50018019       0.11107501       0.77807528 </v>
    <v>       0.49998553       0.33307265       0.33347788 </v>
    <v>       0.00032032       0.88895854       0.22244591 </v>
    <v>       0.24911680       0.55574890       0.38946273 </v>
    <v>       0.49958214       0.66698097       0.00023209 </v>
    <v>       0.75027631       0.44531190       0.61027843 </v>
    <v>       0.75044206       0.77753263       0.61051585 </v>
    <v>       0.00020895       0.11107666       0.10979611 </v>
    <v>       0.24978244       0.99970668       0.83277506 </v>
    <v>       0.50091830       0.55580766       0.89011417 </v>
    <v>       0.99977438       0.89001285       0.88927170 </v>
    <v>       0.24996115       0.44405207       0.27790408 </v>
    <v>       0.49932172       0.55579543       0.55666127 </v>
    <v>       0.00061817       0.88896585       0.55520905 </v>
    <v>       0.50002708       0.33285617       0.66575678 </v>
    <v>       0.75033506       0.22197818       0.05468036 </v>
    <v>       0.50010698       0.11132238       0.44410129 </v>
    <v>       0.75008532       0.77771801       0.27803667 </v>
    <v>       0.75012042       0.11104979       0.27798706 </v>
    <v>       0.74989649       0.99987078       0.16659886 </v>
    <v>       0.99994881       0.55582707       0.88813378 </v>
    <v>       0.74858472       0.88985542       0.38919344 </v>
    <v>       0.50007465       0.88819263       0.89147522 </v>
    <v>       0.49984622       0.33398801       0.99987377 </v>
    <v>       0.50027798       0.22232851       0.88896697 </v>
    <v>       0.00042892       0.66696825       0.33363150 </v>
    <v>       0.74923593       0.22194247       0.38931873 </v>
    <v>       0.49905075       0.77891992       0.44452174 </v>
    <v>       0.75047247       0.11115583       0.94550893 </v>
    <v>       0.75029444       0.88945360       0.72203319 </v>
    <v>       0.24955179       0.55547222       0.72183371 </v>
    <v>       0.24927061       0.88921082       0.38900937 </v>
    <v>       0.00048412       0.22221846       0.55457770 </v>
    <v>       0.49985817       0.11085338       0.11061095 </v>
    <v>       0.74950566       0.55541758       0.38905447 </v>
    <v>       0.74989740       0.77778519       0.94553666 </v>
    <v>       0.75022894       0.66691646       0.50127095 </v>
    <v>       0.24989517       0.33323698       0.83304459 </v>
    <v>       0.00073197       0.99975969       0.33341634 </v>
    <v>       0.50055529       0.55542708       0.22159900 </v>
    <v>       0.74981024       0.33309458       0.50047536 </v>
    <v>       0.50030633       0.44425820       0.77787950 </v>
    <v>       0.00030115       0.33320097       0.33327551 </v>
    <v>       0.25006595       0.33336972       0.16670804 </v>
    <v>       0.00045932       0.55549436       0.55551094 </v>
    <v>       0.74995897       0.44461966       0.27791861 </v>
    <v>       0.00340421       0.77805406       0.44460316 </v>
    <v>       0.99920445       0.21998696       0.88904621 </v>
    <v>       0.49981687       0.44503749       0.11030705 </v>
    <v>       0.25293316       0.99832440       0.49862145 </v>
    <v>       0.49758329       0.22084767       0.55565195 </v>
    <v>       0.25146827       0.22226731       0.72288365 </v>
    <v>       0.74988949       0.99982728       0.50046088 </v>
    <v>       0.99998007       0.00010918       0.00008380 </v>
    <v>       0.75036008       0.66693378       0.83357823 </v>
    <v>       0.75136949       0.22074985       0.72236487 </v>
    <v>       0.25013305       0.66791043       0.50003971 </v>
    <v>       0.25045806       0.77713746       0.94463845 </v>
    <v>       0.24927900       0.33196863       0.49947656 </v>
    <v>       0.00092896       0.33329642       0.00034504 </v>
    <v>       0.99992977       0.77750540       0.11108350 </v>
    <v>       0.74872147       0.88993154       0.05567107 </v>
    <v>       0.50059382       0.99997644       0.33420638 </v>
    <v>       0.50088101       0.44620564       0.44431212 </v>
    <v>       0.74958925       0.33292517       0.83310654 </v>
    <v>       0.75005035       0.99724810       0.83355304 </v>
    <v>       0.00031881       0.55557723       0.22201008 </v>
    <v>       0.99868386       0.99904984       0.66654409 </v>
    <v>       0.74986852       0.55577792       0.05512839 </v>
    <v>       0.49967079       0.88857318       0.22231718 </v>
    <v>       0.74988295       0.33365027       0.16635965 </v>
    <v>       0.49572253       0.89001527       0.55533972 </v>
    <v>       0.25110623       0.88903065       0.05514489 </v>
    <v>       0.00126089       0.11082081       0.44462905 </v>
    <v>       0.25001601       0.99999079       0.16673652 </v>
    <v>       0.24836089       0.44751174       0.61071738 </v>
    <v>       0.25076309       0.11071119       0.61029361 </v>
    <v>       0.74754952       0.44482553       0.94522475 </v>
    <v>       0.25005873       0.55560233       0.05515085 </v>
    <v>       0.24941840       0.11098159       0.94520671 </v>
    <v>       0.25027455       0.66664661       0.16700505 </v>
    <v>       0.24944113       0.11201480       0.27803159 </v>
    <v>       0.99996294       0.77693734       0.77687236 </v>
    <v>       0.24935849       0.22138662       0.38996456 </v>
    <v>       0.99953975       0.11137892       0.77742984 </v>
    <v>       0.24980698       0.44471200       0.94527208 </v>
    <v>       0.74994366       0.66650248       0.16648811 </v>
    <v>       0.49965470       0.00101009       0.66609389 </v>
   </varray>
  </structure>
  <varray name="forces" >
   <v>      -0.02097026      -0.11238586       0.18297092 </v>
   <v>       0.08271607      -0.05837447       0.29882576 </v>
   <v>       0.26630753       0.31523313      -0.23965369 </v>
   <v>       0.16819261      -0.17634498       1.00884730 </v>
   <v>       0.22939381      -0.07623596       0.03220695 </v>
   <v>      -0.43072186      -0.04382353      -0.06265295 </v>
   <v>      -0.10043278      -0.29136914      -0.06998672 </v>
   <v>       0.25591435      -0.23969554      -0.03188755 </v>
   <v>      -0.40132328       0.02334977      -0.22599567 </v>
   <v>       0.15091551       0.00047775       0.16492728 </v>
   <v>       0.13115174      -0.07555088      -0.01109556 </v>
   <v>       0.23686727       0.03268249       0.24419963 </v>
   <v>       0.06114003       0.06272861      -0.19531501 </v>
   <v>      -0.12929101      -0.01439603       0.02502230 </v>
   <v>      -0.30843555      -0.01526573       0.13758789 </v>
   <v>      -0.27286440       0.22060228       0.08401612 </v>
   <v>      -0.03265866       0.29091339      -0.32578683 </v>
   <v>       0.34194831       0.23021518       0.53188690 </v>
   <v>      -0.10735302      -0.10726429       0.05279122 </v>
   <v>      -0.07092068       0.41614472      -0.15241517 </v>
   <v>      -0.05988477      -0.30973516      -0.47938618 </v>
   <v>      -0.04235723      -0.15471915       0.29886107 </v>
   <v>      -0.28122078       0.00393225       0.16697448 </v>
   <v>       0.13665071      -0.41228352      -0.28672714 </v>
   <v>      -0.26110251      -0.17182091      -0.20933218 </v>
   <v>       0.12668958       0.13273087      -0.04444411 </v>
   <v>      -0.08872321      -0.08924335      -0.02358301 </v>
   <v>       0.10691548       0.02544315       0.55581314 </v>
   <v>      -0.03387918       0.37181245       0.47279848 </v>
   <v>      -0.49716097      -0.28855776       0.01278035 </v>
   <v>       0.00044290      -0.12449434      -0.27199632 </v>
   <v>      -0.04502163      -0.38574958      -0.03704127 </v>
   <v>       0.01394729       0.06339473      -0.26299704 </v>
   <v>      -0.21445760      -0.18835961      -0.09666140 </v>
   <v>      -0.03337132      -0.24693799      -0.01421199 </v>
   <v>      -0.00724367       0.17975377       0.17770991 </v>
   <v>      -0.17341636       0.21910127      -0.20512597 </v>
   <v>      -0.07644100      -0.00472425      -0.51699745 </v>
   <v>       0.06158084       0.00220578       0.11345744 </v>
   <v>      -0.07733267      -0.28307171       0.17012412 </v>
   <v>       0.26624153      -0.19595139       0.30035576 </v>
   <v>       0.02582426      -0.12669247       0.08896657 </v>
   <v>      -0.10815003       0.02484187      -0.25021437 </v>
   <v>      -0.31737207      -0.00727185      -0.25760057 </v>
   <v>      -0.29406490      -0.02272852       0.18760309 </v>
   <v>       0.06963401      -0.00995559       0.08138144 </v>
   <v>       0.18079095       0.10153434      -0.01548820 </v>
   <v>       0.04870516      -0.27498460       0.00745843 </v>
   <v>      -0.08453138      -0.01937606      -0.29236305 </v>
   <v>      -0.06183659      -0.04585864      -0.08316134 </v>
   <v>       0.14897990      -0.05660000       0.03449059 </v>
   <v>       0.10829722       0.27867486      -0.09159066 </v>
   <v>       0.00742198       0.09442364       0.00839199 </v>
   <v>      -0.20618650       0.14289375       0.03106701 </v>
   <v>      -0.12600818      -0.03785770       0.06870353 </v>
   <v>      -0.01379758      -0.05322294      -0.10778072 </v>
   <v>       0.27915005       0.01300674      -0.23936471 </v>
   <v>      -0.10317266       0.19859015       0.40880342 </v>
   <v>       0.22257370       0.22512797      -0.12676395 </v>
   <v>      -0.07894890       0.39361787      -0.28791002 </v>
   <v>      -0.25081705       0.07480023      -0.13159673 </v>
   <v>       0.01979750       0.04798600       0.09915661 </v>
   <v>       0.17913247      -0.15598048       0.25656433 </v>
   <v>       0.17184193       0.22620053      -0.17267487 </v>
   <v>      -0.12494995       0.10877529       0.00106022 </v>
   <v>      -0.04324611      -0.04962805      -0.11901214 </v>
   <v>      -0.33459540      -0.11316403      -0.07486140 </v>
   <v>       0.33912747       0.24400893      -0.40087188 </v>
   <v>      -0.06249406      -0.13366474      -0.01824489 </v>
   <v>      -0.21224725       0.13055603       0.19830695 </v>
   <v>       0.09861125       0.15380633      -0.04583774 </v>
   <v>      -0.24209165       0.11730696       0.10821354 </v>
   <v>      -0.03040895      -0.02293880      -0.20435518 </v>
   <v>      -0.01245990       0.24110225      -0.13481183 </v>
   <v>       0.09076744       0.06893121      -0.38768181 </v>
   <v>       0.05917141       0.27413069       0.22631159 </v>
   <v>      -0.25996474       0.02383356      -0.17395359 </v>
   <v>      -0.12462329       0.05134956      -0.21916369 </v>
   <v>       0.38685925       0.26683270      -0.15403588 </v>
   <v>      -0.04913683      -0.04239567      -0.60749579 </v>
   <v>      -0.13136557      -0.03767012       0.38481604 </v>
   <v>       0.12495177       0.07513200      -0.01305707 </v>
   <v>      -0.05611375       0.00509713      -0.29797241 </v>
   <v>       0.33239967      -0.13275996      -0.05929156 </v>
   <v>       0.02526311      -0.07002564       0.32758878 </v>
   <v>       0.00126923       0.22156210       0.12222170 </v>
   <v>      -0.00614580       0.21631140       0.04891560 </v>
   <v>       0.18758986       0.22552858       0.00192994 </v>
   <v>      -0.37215622       0.25581505       0.20748025 </v>
   <v>       0.22356518       0.21985966       0.06668315 </v>
   <v>      -0.38222089       0.17863462       0.11146132 </v>
   <v>       0.70737993       0.08880372       0.06729692 </v>
   <v>      -0.17956220      -0.20571284       0.12387248 </v>
   <v>       0.07433945      -0.22315754      -0.37090180 </v>
   <v>       0.26410795      -0.15105036       0.27195079 </v>
   <v>       0.05569944      -0.39263411       0.01824323 </v>
   <v>       0.05440215       0.13492189       0.49675735 </v>
   <v>       0.20213197      -0.39914499       0.09699475 </v>
   <v>       0.26546346      -0.24395882       0.25576456 </v>
   <v>       0.33921350       0.47235745      -0.53944748 </v>
   <v>      -0.20551775      -0.21929833      -0.31392232 </v>
   <v>      -0.14183758       0.27493769       0.56305729 </v>
   <v>       0.23961994       0.20313798       0.41654456 </v>
   <v>      -0.25089773       0.03544514      -0.81030229 </v>
   <v>       0.12094244      -0.51674123       0.04028523 </v>
   <v>       0.13325907      -0.37320969       0.07746984 </v>
   <v>       0.19270226      -0.22412065       0.16226927 </v>
   <v>       0.01550394      -0.27243795       0.06478375 </v>
  </varray>
  <varray name="stress" >
   <v>      73.61596700      -0.13982906      -1.12217490 </v>
   <v>      -0.13982843      72.18576154      -0.83454957 </v>
   <v>      -1.12217535      -0.83456441      73.17442857 </v>
  </varray>
  <energy>
   <i name="e_fr_energy">  -1095.13051262 </i>
   <i name="e_wo_entrp">  -1095.02221461 </i>
   <i name="e_0_energy">     -0.21659602 </i>
  </energy>
  <time name="totalsc">  828.43  834.32</time>
 </calculation>
 <calculation>
  <scstep>
   <time name="dav">   87.81   88.42</time>
   <time name="total">   90.28   90.91</time>
   <energy>
    <i name="alphaZ">   4871.05958751 </i>
    <i name="ewald"> -46954.46678548 </i>
    <i name="hartreedc"> -16409.69381689 </i>
    <i name="XCdc">  -2018.60980413 </i>
    <i name="pawpsdc">  85458.75413459 </i>
    <i name="pawaedc"> -80447.08183336 </i>
    <i name="eentropy">     -0.21659791 </i>
    <i name="bandstr">  -4810.63214907 </i>
    <i name="atom">  59215.75643617 </i>
    <i name="e_fr_energy">  -1095.13082859 </i>
    <i name="e_wo_entrp">  -1094.91423068 </i>
    <i name="e_0_energy">  -1095.02252963 </i>
   </energy>
  </scstep>
  <scstep>
   <time name="dav">  102.18  102.87</time>
   <time name="total">  104.77  105.47</time>
   <energy>
    <i name="e_fr_energy">  -1095.13083101 </i>
    <i name="e_wo_entrp">  -1094.91423308 </i>
    <i name="e_0_energy">  -1095.02253205 </i>
   </energy>
  </scstep>
  <scstep>
   <time name="dav">   69.22   69.74</time>
   <time name="total">   71.80   72.33</time>
   <energy>
    <i name="e_fr_energy">  -1095.13083078 </i>
    <i name="e_wo_entrp">  -1094.91423125 </i>
    <i name="e_0_energy">  -1095.02253101 </i>
   </energy>
  </scstep>
  <scstep>
   <time name="dav">   65.32   65.79</time>
   <time name="total">   67.91   68.39</time>
   <energy>
    <i name="e_fr_energy">  -1095.13082884 </i>
    <i name="e_wo_entrp">  -1094.91422935 </i>
    <i name="e_0_energy">  -1095.02252909 </i>
   </energy>
  </scstep>
  <scstep>
   <time name="dav">   56.86   57.26</time>
   <time name="total">   59.45   59.87</time>
   <energy>
    <i name="e_fr_energy">  -1095.13082885 </i>
    <i name="e_wo_entrp">  -1094.91423250 </i>
    <i name="e_0_energy">  -1095.02253067 </i>
   </energy>
  </scstep>
  <scstep>
   <time name="dav">   56.39   56.79</time>
   <time name="total">   59.01   59.44</time>
   <energy>
    <i name="e_fr_energy">  -1095.13082881 </i>
    <i name="e_wo_entrp">  -1094.91422979 </i>
    <i name="e_0_energy">  -1095.02252930 </i>
   </energy>
  </scstep>
  <scstep>
   <time name="dav">   57.09   57.53</time>
   <time name="total">   59.83   60.30</time>
   <energy>
    <i name="e_fr_energy">  -1095.13082894 </i>
    <i name="e_wo_entrp">  -1094.91423507 </i>
    <i name="e_0_energy">  -1095.02253200 </i>
   </energy>
  </scstep>
  <scstep>
   <time name="dav">   56.94   57.38</time>
   <time name="total">   59.48   59.94</time>
   <energy>
    <i name="e_fr_energy">  -1095.13082882 </i>
    <i name="e_wo_entrp">  -1094.91422948 </i>
    <i name="e_0_energy">  -1095.02252915 </i>
   </energy>
  </scstep>
  <scstep>
   <time name="dav">   56.44   56.82</time>
   <time name="total">   59.03   59.43</time>
   <energy>
    <i name="e_fr_energy">  -1095.13082882 </i>
    <i name="e_wo_entrp">  -1094.91423005 </i>
    <i name="e_0_energy">  -1095.02252943 </i>
   </energy>
  </scstep>
  <scstep>
   <time name="dav">   56.56   57.00</time>
   <time name="total">   57.05   57.50</time>
   <energy>
    <i name="alphaZ">   4871.05958751 </i>
    <i name="ewald"> -46954.46678548 </i>
    <i name="hartreedc"> -16409.69393326 </i>
    <i name="XCdc">  -2018.60979458 </i>
    <i name="pawpsdc">  85458.69139671 </i>
    <i name="pawaedc"> -80447.01920890 </i>
    <i name="eentropy">     -0.21659839 </i>
    <i name="bandstr">  -4810.63192859 </i>
    <i name="atom">  59215.75643617 </i>
    <i name="e_fr_energy">  -1095.13082882 </i>
    <i name="e_wo_entrp">  -1094.91423043 </i>
    <i name="e_0_energy">  -1095.02252962 </i>
   </energy>
  </scstep>
  <structure>
   <crystal>
    <varray name="basis" >
     <v>       9.12169973       0.00000000       0.00000000 </v>
     <v>       0.00000000       8.37880972       0.00000000 </v>
     <v>       0.00000000       0.00000000      23.69886622 </v>
    </varray>
    <i name="volume">   1811.28032179 </i>
    <varray name="rec_basis" >
     <v>       0.10962869       0.00000000       0.00000000 </v>
     <v>       0.00000000       0.11934869       0.00000000 </v>
     <v>       0.00000000       0.00000000       0.04219611 </v>
    </varray>
   </crystal>
   <varray name="positions" >
    <v>       0.49945717       0.22227243       0.22241650 </v>
    <v>       0.00070118       0.22205451       0.22234086 </v>
    <v>       0.24956005       0.22198081       0.05491504 </v>
    <v>       0.49996588       0.77759055       0.10992680 </v>
    <v>       0.00004795       0.44468439       0.10987628 </v>
    <v>       0.00148144       0.44486166       0.44440058 </v>
    <v>       0.25047156       0.77742870       0.61117931 </v>
    <v>       0.00060889       0.66659512       0.00019000 </v>
    <v>       0.75069806       0.55537664       0.72238035 </v>
    <v>       0.49987171       0.66677549       0.33331048 </v>
    <v>       0.24977592       0.88860132       0.72214380 </v>
    <v>       0.99984612       0.44512892       0.77684363 </v>
    <v>       0.00057451       0.33375202       0.66680094 </v>
    <v>       0.24951062       0.66690778       0.83242676 </v>
    <v>       0.74976410       0.11102736       0.61096499 </v>
    <v>       0.00123244       0.66637673       0.66781902 </v>
    <v>       0.24981463       0.77788080       0.27822803 </v>
    <v>       0.49921610       0.66707320       0.66579053 </v>
    <v>       0.50039648       0.77801080       0.77814852 </v>
    <v>       0.49961187       0.99881015       0.00014499 </v>
    <v>       0.50018019       0.11107501       0.77807449 </v>
    <v>       0.49998553       0.33307265       0.33347793 </v>
    <v>       0.00032032       0.88895854       0.22244554 </v>
    <v>       0.24911680       0.55574890       0.38946226 </v>
    <v>       0.49958214       0.66698097       0.00023180 </v>
    <v>       0.75027631       0.44531190       0.61027966 </v>
    <v>       0.75044206       0.77753263       0.61051687 </v>
    <v>       0.00020895       0.11107666       0.10979794 </v>
    <v>       0.24978244       0.99970668       0.83277613 </v>
    <v>       0.50091830       0.55580766       0.89011318 </v>
    <v>       0.99977438       0.89001285       0.88927199 </v>
    <v>       0.24996115       0.44405207       0.27790380 </v>
    <v>       0.49932172       0.55579543       0.55665949 </v>
    <v>       0.00061817       0.88896585       0.55521005 </v>
    <v>       0.50002708       0.33285617       0.66575871 </v>
    <v>       0.75033506       0.22197818       0.05468193 </v>
    <v>       0.50010698       0.11132238       0.44410172 </v>
    <v>       0.75008532       0.77771801       0.27803628 </v>
    <v>       0.75012042       0.11104979       0.27798690 </v>
    <v>       0.74989649       0.99987078       0.16659869 </v>
    <v>       0.99994881       0.55582707       0.88813501 </v>
    <v>       0.74858472       0.88985542       0.38919311 </v>
    <v>       0.50007465       0.88819263       0.89147117 </v>
    <v>       0.49984622       0.33398801       0.99987402 </v>
    <v>       0.50027798       0.22232851       0.88896697 </v>
    <v>       0.00042892       0.66696825       0.33363119 </v>
    <v>       0.74923593       0.22194247       0.38931848 </v>
    <v>       0.49905075       0.77891992       0.44452170 </v>
    <v>       0.75047247       0.11115583       0.94550656 </v>
    <v>       0.75029444       0.88945360       0.72203360 </v>
    <v>       0.24955179       0.55547222       0.72183379 </v>
    <v>       0.24927061       0.88921082       0.38901035 </v>
    <v>       0.00048412       0.22221846       0.55458041 </v>
    <v>       0.49985817       0.11085338       0.11061123 </v>
    <v>       0.74950566       0.55541758       0.38905438 </v>
    <v>       0.74989740       0.77778519       0.94553385 </v>
    <v>       0.75022894       0.66691646       0.50126791 </v>
    <v>       0.24989517       0.33323698       0.83304526 </v>
    <v>       0.00073197       0.99975969       0.33341614 </v>
    <v>       0.50055529       0.55542708       0.22159970 </v>
    <v>       0.74981024       0.33309458       0.50047427 </v>
    <v>       0.50030633       0.44425820       0.77787953 </v>
    <v>       0.00030115       0.33320097       0.33327562 </v>
    <v>       0.25006595       0.33336972       0.16670795 </v>
    <v>       0.00045932       0.55549436       0.55551134 </v>
    <v>       0.74995897       0.44461966       0.27791842 </v>
    <v>       0.00340421       0.77805406       0.44460258 </v>
    <v>       0.99920445       0.21998696       0.88904589 </v>
    <v>       0.49981687       0.44503749       0.11030822 </v>
    <v>       0.25293316       0.99832440       0.49862265 </v>
    <v>       0.49758329       0.22084767       0.55565201 </v>
    <v>       0.25146827       0.22226731       0.72288359 </v>
    <v>       0.74988949       0.99982728       0.50045981 </v>
    <v>       0.99998007       0.00010918       0.00008324 </v>
    <v>       0.75036008       0.66693378       0.83357855 </v>
    <v>       0.75136949       0.22074985       0.72236613 </v>
    <v>       0.25013305       0.66791043       0.50003936 </v>
    <v>       0.25045806       0.77713746       0.94463761 </v>
    <v>       0.24927900       0.33196863       0.49947650 </v>
    <v>       0.00092896       0.33329642       0.00034423 </v>
    <v>       0.99992977       0.77750540       0.11108417 </v>
    <v>       0.74872147       0.88993154       0.05567123 </v>
    <v>       0.50059382       0.99997644       0.33420534 </v>
    <v>       0.50088101       0.44620564       0.44431137 </v>
    <v>       0.74958925       0.33292517       0.83310667 </v>
    <v>       0.75005035       0.99724810       0.83355284 </v>
    <v>       0.00031881       0.55557723       0.22201010 </v>
    <v>       0.99868386       0.99904984       0.66654523 </v>
    <v>       0.74986852       0.55577792       0.05512926 </v>
    <v>       0.49967079       0.88857318       0.22231703 </v>
    <v>       0.74988295       0.33365027       0.16636002 </v>
    <v>       0.49572253       0.89001527       0.55533958 </v>
    <v>       0.25110623       0.88903065       0.05514521 </v>
    <v>       0.00126089       0.11082081       0.44462829 </v>
    <v>       0.25001601       0.99999079       0.16673638 </v>
    <v>       0.24836089       0.44751174       0.61071720 </v>
    <v>       0.25076309       0.11071119       0.61029397 </v>
    <v>       0.74754952       0.44482553       0.94522323 </v>
    <v>       0.25005873       0.55560233       0.05515129 </v>
    <v>       0.24941840       0.11098159       0.94520586 </v>
    <v>       0.25027455       0.66664661       0.16700434 </v>
    <v>       0.24944113       0.11201480       0.27803107 </v>
    <v>       0.99996294       0.77693734       0.77687442 </v>
    <v>       0.24935849       0.22138662       0.38996370 </v>
    <v>       0.99953975       0.11137892       0.77743041 </v>
    <v>       0.24980698       0.44471200       0.94527117 </v>
    <v>       0.74994366       0.66650248       0.16648819 </v>
    <v>       0.49965470       0.00101009       0.66609485 </v>
   </varray>
  </structure>
  <varray name="forces" >
   <v>      -0.02101104      -0.11230375       0.18310791 </v>
   <v>       0.08274772      -0.05829252       0.29892263 </v>
   <v>       0.26623260       0.31528883      -0.23984701 </v>
   <v>       0.16822389      -0.17630378       1.00844174 </v>
   <v>       0.22937791      -0.07620573       0.03178319 </v>
   <v>      -0.43076432      -0.04370298      -0.06262323 </v>
   <v>      -0.10036330      -0.29136262      -0.06989553 </v>
   <v>       0.25579967      -0.23965373      -0.03174422 </v>
   <v>      -0.40116089       0.02343394      -0.22583529 </v>
   <v>       0.15093418       0.00055451       0.16496317 </v>
   <v>       0.13110718      -0.07554223      -0.01083316 </v>
   <v>       0.23686758       0.03278635       0.24390973 </v>
   <v>       0.06111568       0.06285650      -0.19496886 </v>
   <v>      -0.12928146      -0.01431985       0.02467548 </v>
   <v>      -0.30850431      -0.01526459       0.13757925 </v>
   <v>      -0.27249593       0.22103993       0.08554184 </v>
   <v>      -0.03261235       0.29096037      -0.32564053 </v>
   <v>       0.34193358       0.23027980       0.53164873 </v>
   <v>      -0.10750352      -0.10720970       0.05277814 </v>
   <v>      -0.07090546       0.41610189      -0.15271761 </v>
   <v>      -0.05999092      -0.30971675      -0.47914495 </v>
   <v>      -0.04235910      -0.15468325       0.29881479 </v>
   <v>      -0.28061793       0.00397233       0.16739306 </v>
   <v>       0.13665502      -0.41224960      -0.28666539 </v>
   <v>      -0.26100986      -0.17173421      -0.20925015 </v>
   <v>       0.12590777       0.13235014      -0.04511666 </v>
   <v>      -0.08877677      -0.08924718      -0.02386651 </v>
   <v>       0.10639794       0.02503189       0.55488621 </v>
   <v>      -0.03386389       0.37190275       0.47249804 </v>
   <v>      -0.49713978      -0.28844809       0.01293455 </v>
   <v>       0.00041354      -0.12448684      -0.27195487 </v>
   <v>      -0.04498903      -0.38571032      -0.03702637 </v>
   <v>       0.01401308       0.06351587      -0.26307027 </v>
   <v>      -0.21451469      -0.18831149      -0.09665019 </v>
   <v>      -0.03419787      -0.24751655      -0.01638334 </v>
   <v>      -0.00939722       0.17905204       0.17636680 </v>
   <v>      -0.17339418       0.21911357      -0.20519998 </v>
   <v>      -0.07647988      -0.00469235      -0.51694943 </v>
   <v>       0.06155563       0.00225802       0.11349887 </v>
   <v>      -0.07733838      -0.28302133       0.17017415 </v>
   <v>       0.26619473      -0.19584624       0.30040233 </v>
   <v>       0.02577856      -0.12669602       0.08901635 </v>
   <v>      -0.10811104       0.02490726      -0.25015423 </v>
   <v>      -0.31736807      -0.00718957      -0.25759612 </v>
   <v>      -0.29408135      -0.02271468       0.18751127 </v>
   <v>       0.06959595      -0.00991141       0.08135204 </v>
   <v>       0.18077265       0.10152944      -0.01545733 </v>
   <v>       0.04876049      -0.27493567       0.00743133 </v>
   <v>      -0.08360956      -0.02142521      -0.29171238 </v>
   <v>      -0.06181805      -0.04581728      -0.08301255 </v>
   <v>       0.14887277      -0.05649850       0.03459868 </v>
   <v>       0.10832342       0.27873927      -0.09162211 </v>
   <v>       0.00742110       0.09448113       0.00833460 </v>
   <v>      -0.20621786       0.14292657       0.03102988 </v>
   <v>      -0.12603678      -0.03782870       0.06869841 </v>
   <v>      -0.01389082      -0.05320311      -0.10774619 </v>
   <v>       0.27916965       0.01320501      -0.23949284 </v>
   <v>      -0.10315319       0.19863643       0.40885252 </v>
   <v>       0.22259162       0.22513089      -0.12674981 </v>
   <v>      -0.07895821       0.39371234      -0.28790671 </v>
   <v>      -0.25083730       0.07486162      -0.13163276 </v>
   <v>       0.01977162       0.04801001       0.09917821 </v>
   <v>       0.17912369      -0.15594988       0.25657513 </v>
   <v>       0.17182528       0.22623238      -0.17261069 </v>
   <v>      -0.12502166       0.10881253       0.00093910 </v>
   <v>      -0.04328616      -0.04954603      -0.11890917 </v>
   <v>      -0.33458848      -0.11305820      -0.07478151 </v>
   <v>       0.33913120       0.24409406      -0.40081793 </v>
   <v>      -0.06246647      -0.13360000      -0.01848990 </v>
   <v>      -0.21225068       0.13069095       0.19809863 </v>
   <v>       0.09863095       0.15386774      -0.04578483 </v>
   <v>      -0.24218578       0.11734354       0.10829090 </v>
   <v>      -0.03042027      -0.02288781      -0.20417794 </v>
   <v>      -0.01250723       0.24124189      -0.13456763 </v>
   <v>       0.09081128       0.06893447      -0.38784716 </v>
   <v>       0.05924477       0.27425337       0.22610028 </v>
   <v>      -0.26000117       0.02388740      -0.17393729 </v>
   <v>      -0.12446582       0.05143601      -0.21878118 </v>
   <v>       0.38682972       0.26682989      -0.15402669 </v>
   <v>      -0.04909425      -0.04252779      -0.60680768 </v>
   <v>      -0.13154193      -0.03758221       0.38417152 </v>
   <v>       0.12490031       0.07509763      -0.01320888 </v>
   <v>      -0.05617689       0.00514025      -0.29778257 </v>
   <v>       0.33239795      -0.13269633      -0.05919993 </v>
   <v>       0.02522454      -0.06998829       0.32754272 </v>
   <v>       0.00127371       0.22160897       0.12216413 </v>
   <v>      -0.00610864       0.21641432       0.04902150 </v>
   <v>       0.18757124       0.22554511       0.00171407 </v>
   <v>      -0.37218532       0.25583275       0.20722556 </v>
   <v>       0.22355446       0.21991025       0.06678191 </v>
   <v>      -0.38223099       0.17865680       0.11153595 </v>
   <v>       0.70746197       0.08889169       0.06734551 </v>
   <v>      -0.17951832      -0.20568197       0.12372028 </v>
   <v>       0.07437708      -0.22306194      -0.37064554 </v>
   <v>       0.26413079      -0.15095801       0.27208487 </v>
   <v>       0.05577136      -0.39256817       0.01820405 </v>
   <v>       0.05445465       0.13498479       0.49675420 </v>
   <v>       0.20206323      -0.39909508       0.09734346 </v>
   <v>       0.26545978      -0.24391254       0.25573255 </v>
   <v>       0.33926405       0.47244116      -0.53930850 </v>
   <v>      -0.20552861      -0.21929096      -0.31384488 </v>
   <v>      -0.14182375       0.27497583       0.56303394 </v>
   <v>       0.23968294       0.20310171       0.41639367 </v>
   <v>      -0.25090099       0.03543526      -0.81026738 </v>
   <v>       0.12101524      -0.51669037       0.04043343 </v>
   <v>       0.13608925      -0.37467905       0.07957642 </v>
   <v>       0.19272162      -0.22406234       0.16240394 </v>
   <v>       0.01551112      -0.27241662       0.06475229 </v>
  </varray>
  <varray name="stress" >
   <v>      73.61756057      -0.13826078      -1.12202611 </v>
   <v>      -0.13826073      72.18796088      -0.83461772 </v>
   <v>      -1.12202634      -0.83463226      73.17091781 </v>
  </varray>
  <energy>
   <i name="e_fr_energy">  -1095.13082882 </i>
   <i name="e_wo_entrp">  -1095.02252962 </i>
   <i name="e_0_energy">     -0.21659839 </i>
  </energy>
  <time name="totalsc">  753.96  759.39</time>
 </calculation>
 <calculation>
  <scstep>
   <time name="dav">   87.70   88.32</time>
   <time name="total">   90.23   90.87</time>
   <energy>
    <i name="alphaZ">   4871.05958751 </i>
    <i name="ewald"> -46954.49573063 </i>
    <i name="hartreedc"> -16409.66513849 </i>
    <i name="XCdc">  -2018.60980502 </i>
    <i name="pawpsdc">  85458.69012028 </i>
    <i name="pawaedc"> -80447.01792992 </i>
    <i name="eentropy">     -0.21659900 </i>
    <i name="bandstr">  -4810.63192743 </i>
    <i name="atom">  59215.75643617 </i>
    <i name="e_fr_energy">  -1095.13098654 </i>
    <i name="e_wo_entrp">  -1094.91438754 </i>
    <i name="e_0_energy">  -1095.02268704 </i>
   </energy>
  </scstep>
  <scstep>
   <time name="dav">   63.44   63.90</time>
   <time name="total">   65.99   66.47</time>
   <energy>
    <i name="e_fr_energy">  -1095.13098716 </i>
    <i name="e_wo_entrp">  -1094.91438419 </i>
    <i name="e_0_energy">  -1095.02268568 </i>
   </energy>
  </scstep>
  <scstep>
   <time name="dav">   56.19   56.57</time>
   <time name="total">   58.72   59.12</time>
   <energy>
    <i name="e_fr_energy">  -1095.13098710 </i>
    <i name="e_wo_entrp">  -1094.91439046 </i>
    <i name="e_0_energy">  -1095.02268878 </i>
   </energy>
  </scstep>
  <scstep>
   <time name="dav">   56.28   56.72</time>
   <time name="total">   58.81   59.26</time>
   <energy>
    <i name="e_fr_energy">  -1095.13098662 </i>
    <i name="e_wo_entrp">  -1094.91438556 </i>
    <i name="e_0_energy">  -1095.02268609 </i>
   </energy>
  </scstep>
  <scstep>
   <time name="dav">   56.14   56.56</time>
   <time name="total">   58.66   59.09</time>
   <energy>
    <i name="e_fr_energy">  -1095.13098676 </i>
    <i name="e_wo_entrp">  -1094.91439160 </i>
    <i name="e_0_energy">  -1095.02268918 </i>
   </energy>
  </scstep>
  <scstep>
   <time name="dav">   56.31   56.71</time>
   <time name="total">   58.69   59.10</time>
   <energy>
    <i name="e_fr_energy">  -1095.13098662 </i>
    <i name="e_wo_entrp">  -1094.91438696 </i>
    <i name="e_0_energy">  -1095.02268679 </i>
   </energy>
  </scstep>
  <scstep>
   <time name="dav">   56.28   56.67</time>
   <time name="total">   58.82   59.22</time>
   <energy>
    <i name="e_fr_energy">  -1095.13098660 </i>
    <i name="e_wo_entrp">  -1094.91438681 </i>
    <i name="e_0_energy">  -1095.02268670 </i>
   </energy>
  </scstep>
  <scstep>
   <time name="dav">   56.16   56.60</time>
   <time name="total">   58.73   59.19</time>
   <energy>
    <i name="e_fr_energy">  -1095.13098660 </i>
    <i name="e_wo_entrp">  -1094.91438750 </i>
    <i name="e_0_energy">  -1095.02268705 </i>
   </energy>
  </scstep>
  <scstep>
   <time name="dav">   56.19   56.82</time>
   <time name="total">   58.77   59.41</time>
   <energy>
    <i name="e_fr_energy">  -1095.13098660 </i>
    <i name="e_wo_entrp">  -1094.91438673 </i>
    <i name="e_0_energy">  -1095.02268666 </i>
   </energy>
  </scstep>
  <scstep>
   <time name="dav">   56.14   56.53</time>
   <time name="total">   56.63   57.02</time>
   <energy>
    <i name="alphaZ">   4871.05958751 </i>
    <i name="ewald"> -46954.49573063 </i>
    <i name="hartreedc"> -16409.66554591 </i>
    <i name="XCdc">  -2018.60978114 </i>
    <i name="pawpsdc">  85458.67061292 </i>
    <i name="pawaedc"> -80446.99832346 </i>
    <i name="eentropy">     -0.21659922 </i>
    <i name="bandstr">  -4810.63164283 </i>
    <i name="atom">  59215.75643617 </i>
    <i name="e_fr_energy">  -1095.13098660 </i>
    <i name="e_wo_entrp">  -1094.91438738 </i>
    <i name="e_0_energy">  -1095.02268699 </i>
   </energy>
  </scstep>
  <structure>
   <crystal>
    <varray name="basis" >
     <v>       9.12169973       0.00000000       0.00000000 </v>
     <v>       0.00000000       8.37880972       0.00000000 </v>
     <v>       0.00000000       0.00000000      23.69886622 </v>
    </varray>
    <i name="volume">   1811.28032179 </i>
    <varray name="rec_basis" >
     <v>       0.10962869       0.00000000       0.00000000 </v>
     <v>       0.00000000       0.11934869       0.00000000 </v>
     <v>       0.00000000       0.00000000       0.04219611 </v>
    </varray>
   </crystal>
   <varray name="positions" >
    <v>       0.49945717       0.22227243       0.22241625 </v>
    <v>       0.00070118       0.22205451       0.22234081 </v>
    <v>       0.24956005       0.22198081       0.05491538 </v>
    <v>       0.49996588       0.77759055       0.10992756 </v>
    <v>       0.00004795       0.44468439       0.10987724 </v>
    <v>       0.00148144       0.44486166       0.44440035 </v>
    <v>       0.25047156       0.77742870       0.61117897 </v>
    <v>       0.00060889       0.66659512       0.00018985 </v>
    <v>       0.75069806       0.55537664       0.72238030 </v>
    <v>       0.49987171       0.66677549       0.33331041 </v>
    <v>       0.24977592       0.88860132       0.72214362 </v>
    <v>       0.99984612       0.44512892       0.77684453 </v>
    <v>       0.00057451       0.33375202       0.66680069 </v>
    <v>       0.24951062       0.66690778       0.83242778 </v>
    <v>       0.74976410       0.11102736       0.61096537 </v>
    <v>       0.00123244       0.66637673       0.66781787 </v>
    <v>       0.24981463       0.77788080       0.27822764 </v>
    <v>       0.49921610       0.66707320       0.66579112 </v>
    <v>       0.50039648       0.77801080       0.77814836 </v>
    <v>       0.49961187       0.99881015       0.00014506 </v>
    <v>       0.50018019       0.11107501       0.77807409 </v>
    <v>       0.49998553       0.33307265       0.33347796 </v>
    <v>       0.00032032       0.88895854       0.22244536 </v>
    <v>       0.24911680       0.55574890       0.38946203 </v>
    <v>       0.49958214       0.66698097       0.00023165 </v>
    <v>       0.75027631       0.44531190       0.61028028 </v>
    <v>       0.75044206       0.77753263       0.61051739 </v>
    <v>       0.00020895       0.11107666       0.10979886 </v>
    <v>       0.24978244       0.99970668       0.83277667 </v>
    <v>       0.50091830       0.55580766       0.89011268 </v>
    <v>       0.99977438       0.89001285       0.88927214 </v>
    <v>       0.24996115       0.44405207       0.27790367 </v>
    <v>       0.49932172       0.55579543       0.55665861 </v>
    <v>       0.00061817       0.88896585       0.55521055 </v>
    <v>       0.50002708       0.33285617       0.66575967 </v>
    <v>       0.75033506       0.22197818       0.05468272 </v>
    <v>       0.50010698       0.11132238       0.44410193 </v>
    <v>       0.75008532       0.77771801       0.27803608 </v>
    <v>       0.75012042       0.11104979       0.27798682 </v>
    <v>       0.74989649       0.99987078       0.16659861 </v>
    <v>       0.99994881       0.55582707       0.88813562 </v>
    <v>       0.74858472       0.88985542       0.38919295 </v>
    <v>       0.50007465       0.88819263       0.89146914 </v>
    <v>       0.49984622       0.33398801       0.99987414 </v>
    <v>       0.50027798       0.22232851       0.88896697 </v>
    <v>       0.00042892       0.66696825       0.33363103 </v>
    <v>       0.74923593       0.22194247       0.38931836 </v>
    <v>       0.49905075       0.77891992       0.44452168 </v>
    <v>       0.75047247       0.11115583       0.94550538 </v>
    <v>       0.75029444       0.88945360       0.72203380 </v>
    <v>       0.24955179       0.55547222       0.72183383 </v>
    <v>       0.24927061       0.88921082       0.38901085 </v>
    <v>       0.00048412       0.22221846       0.55458176 </v>
    <v>       0.49985817       0.11085338       0.11061137 </v>
    <v>       0.74950566       0.55541758       0.38905433 </v>
    <v>       0.74989740       0.77778519       0.94553245 </v>
    <v>       0.75022894       0.66691646       0.50126639 </v>
    <v>       0.24989517       0.33323698       0.83304560 </v>
    <v>       0.00073197       0.99975969       0.33341604 </v>
    <v>       0.50055529       0.55542708       0.22160005 </v>
    <v>       0.74981024       0.33309458       0.50047373 </v>
    <v>       0.50030633       0.44425820       0.77787954 </v>
    <v>       0.00030115       0.33320097       0.33327568 </v>
    <v>       0.25006595       0.33336972       0.16670790 </v>
    <v>       0.00045932       0.55549436       0.55551155 </v>
    <v>       0.74995897       0.44461966       0.27791832 </v>
    <v>       0.00340421       0.77805406       0.44460230 </v>
    <v>       0.99920445       0.21998696       0.88904574 </v>
    <v>       0.49981687       0.44503749       0.11030880 </v>
    <v>       0.25293316       0.99832440       0.49862325 </v>
    <v>       0.49758329       0.22084767       0.55565203 </v>
    <v>       0.25146827       0.22226731       0.72288356 </v>
    <v>       0.74988949       0.99982728       0.50045927 </v>
    <v>       0.99998007       0.00010918       0.00008296 </v>
    <v>       0.75036008       0.66693378       0.83357871 </v>
    <v>       0.75136949       0.22074985       0.72236676 </v>
    <v>       0.25013305       0.66791043       0.50003919 </v>
    <v>       0.25045806       0.77713746       0.94463720 </v>
    <v>       0.24927900       0.33196863       0.49947648 </v>
    <v>       0.00092896       0.33329642       0.00034383 </v>
    <v>       0.99992977       0.77750540       0.11108450 </v>
    <v>       0.74872147       0.88993154       0.05567132 </v>
    <v>       0.50059382       0.99997644       0.33420482 </v>
    <v>       0.50088101       0.44620564       0.44431099 </v>
    <v>       0.74958925       0.33292517       0.83310674 </v>
    <v>       0.75005035       0.99724810       0.83355274 </v>
    <v>       0.00031881       0.55557723       0.22201011 </v>
    <v>       0.99868386       0.99904984       0.66654580 </v>
    <v>       0.74986852       0.55577792       0.05512969 </v>
    <v>       0.49967079       0.88857318       0.22231695 </v>
    <v>       0.74988295       0.33365027       0.16636020 </v>
    <v>       0.49572253       0.89001527       0.55533951 </v>
    <v>       0.25110623       0.88903065       0.05514536 </v>
    <v>       0.00126089       0.11082081       0.44462791 </v>
    <v>       0.25001601       0.99999079       0.16673632 </v>
    <v>       0.24836089       0.44751174       0.61071712 </v>
    <v>       0.25076309       0.11071119       0.61029416 </v>
    <v>       0.74754952       0.44482553       0.94522246 </v>
    <v>       0.25005873       0.55560233       0.05515151 </v>
    <v>       0.24941840       0.11098159       0.94520543 </v>
    <v>       0.25027455       0.66664661       0.16700399 </v>
    <v>       0.24944113       0.11201480       0.27803081 </v>
    <v>       0.99996294       0.77693734       0.77687545 </v>
    <v>       0.24935849       0.22138662       0.38996326 </v>
    <v>       0.99953975       0.11137892       0.77743069 </v>
    <v>       0.24980698       0.44471200       0.94527071 </v>
    <v>       0.74994366       0.66650248       0.16648824 </v>
    <v>       0.49965470       0.00101009       0.66609534 </v>
   </varray>
  </structure>
  <varray name="forces" >
   <v>      -0.02101231      -0.11228187       0.18311570 </v>
   <v>       0.08275804      -0.05826699       0.29893988 </v>
   <v>       0.26619498       0.31528548      -0.23995454 </v>
   <v>       0.16824802      -0.17628291       1.00820472 </v>
   <v>       0.22937820      -0.07621629       0.03154260 </v>
   <v>      -0.43074045      -0.04367188      -0.06261855 </v>
   <v>      -0.10034816      -0.29138783      -0.06989126 </v>
   <v>       0.25576661      -0.23965716      -0.03169595 </v>
   <v>      -0.40107535       0.02346760      -0.22581472 </v>
   <v>       0.15090560       0.00056537       0.16488174 </v>
   <v>       0.13108256      -0.07556750      -0.01075726 </v>
   <v>       0.23687755       0.03283027       0.24369785 </v>
   <v>       0.06110520       0.06289972      -0.19486591 </v>
   <v>      -0.12928095      -0.01429558       0.02443901 </v>
   <v>      -0.30849787      -0.01527356       0.13753701 </v>
   <v>      -0.27247740       0.22106615       0.08574359 </v>
   <v>      -0.03258164       0.29095932      -0.32562427 </v>
   <v>       0.34193155       0.23026231       0.53148191 </v>
   <v>      -0.10756006      -0.10719996       0.05269456 </v>
   <v>      -0.07091273       0.41604441      -0.15284949 </v>
   <v>      -0.06002884      -0.30972760      -0.47911535 </v>
   <v>      -0.04238591      -0.15468637       0.29869456 </v>
   <v>      -0.28061941       0.00399960       0.16735319 </v>
   <v>       0.13669165      -0.41232965      -0.28580574 </v>
   <v>      -0.26097660      -0.17170047      -0.20921953 </v>
   <v>       0.12590626       0.13232407      -0.04525782 </v>
   <v>      -0.08877109      -0.08926469      -0.02402101 </v>
   <v>       0.10642162       0.02503044       0.55466725 </v>
   <v>      -0.03386677       0.37192203       0.47229886 </v>
   <v>      -0.49713562      -0.28840769       0.01297072 </v>
   <v>       0.00042933      -0.12450829      -0.27198310 </v>
   <v>      -0.04497130      -0.38570966      -0.03707253 </v>
   <v>       0.01404469       0.06353065      -0.26309365 </v>
   <v>      -0.21454324      -0.18830707      -0.09665306 </v>
   <v>      -0.03419241      -0.24752726      -0.01639547 </v>
   <v>      -0.00936018       0.17901812       0.17635111 </v>
   <v>      -0.17341918       0.21912252      -0.20525873 </v>
   <v>      -0.07649799      -0.00468839      -0.51702745 </v>
   <v>       0.06154471       0.00228658       0.11340959 </v>
   <v>      -0.07735325      -0.28299844       0.17014958 </v>
   <v>       0.26619276      -0.19581236       0.30038455 </v>
   <v>       0.02578144      -0.12669463       0.08896711 </v>
   <v>      -0.10811612       0.02490509      -0.25016475 </v>
   <v>      -0.31738219      -0.00716313      -0.25758772 </v>
   <v>      -0.29410177      -0.02272539       0.18742315 </v>
   <v>       0.06963299      -0.00992920       0.08126365 </v>
   <v>       0.18077859       0.10151125      -0.01550623 </v>
   <v>       0.04874829      -0.27491362       0.00739019 </v>
   <v>      -0.08288879      -0.02324338      -0.29014300 </v>
   <v>      -0.06179091      -0.04581289      -0.08300032 </v>
   <v>       0.14882830      -0.05647382       0.03458528 </v>
   <v>       0.10832980       0.27876733      -0.09171101 </v>
   <v>       0.00742725       0.09448972       0.00827157 </v>
   <v>      -0.20622855       0.14292069       0.03099697 </v>
   <v>      -0.12741744      -0.03669498       0.07004629 </v>
   <v>      -0.01392411      -0.05322195      -0.10773679 </v>
   <v>       0.27922266       0.01326258      -0.23950194 </v>
   <v>      -0.10314783       0.19865048       0.40881940 </v>
   <v>       0.22263948       0.22513377      -0.12682287 </v>
   <v>      -0.07896841       0.39372748      -0.28795677 </v>
   <v>      -0.25080489       0.07485952      -0.13159620 </v>
   <v>       0.01976066       0.04801474       0.09908145 </v>
   <v>       0.17915636      -0.15594563       0.25649486 </v>
   <v>       0.17184402       0.22622070      -0.17261642 </v>
   <v>      -0.12504589       0.10879528       0.00085600 </v>
   <v>      -0.04329465      -0.04955616      -0.11895179 </v>
   <v>      -0.33456090      -0.11301737      -0.07478571 </v>
   <v>       0.33915407       0.24411639      -0.40083970 </v>
   <v>      -0.06245899      -0.13357725      -0.01859220 </v>
   <v>      -0.21225587       0.13073630       0.19797002 </v>
   <v>       0.09865008       0.15388648      -0.04578930 </v>
   <v>      -0.24220706       0.11735436       0.10828633 </v>
   <v>      -0.03041217      -0.02287256      -0.20410288 </v>
   <v>      -0.01249918       0.24127035      -0.13451099 </v>
   <v>       0.09083696       0.06891787      -0.38798366 </v>
   <v>       0.05926932       0.27428925       0.22596128 </v>
   <v>      -0.26001744       0.02388484      -0.17394975 </v>
   <v>      -0.12439081       0.05145384      -0.21864044 </v>
   <v>       0.38681439       0.26679718      -0.15404551 </v>
   <v>      -0.04907984      -0.04250099      -0.60667184 </v>
   <v>      -0.13155269      -0.03756784       0.38400223 </v>
   <v>       0.12487380       0.07505278      -0.01329784 </v>
   <v>      -0.05619847       0.00514778      -0.29774794 </v>
   <v>       0.33238857      -0.13270361      -0.05918348 </v>
   <v>       0.02522335      -0.06998430       0.32747665 </v>
   <v>       0.00128662       0.22160206       0.12206809 </v>
   <v>      -0.00609825       0.21644442       0.04904512 </v>
   <v>       0.18755466       0.22552804       0.00156720 </v>
   <v>      -0.37218269       0.25584466       0.20708501 </v>
   <v>       0.22356522       0.21991607       0.06677402 </v>
   <v>      -0.38223534       0.17864287       0.11156215 </v>
   <v>       0.70751137       0.08891866       0.06734792 </v>
   <v>      -0.17948366      -0.20568700       0.12359441 </v>
   <v>       0.07445759      -0.22295203      -0.37012466 </v>
   <v>       0.26415364      -0.15092445       0.27208406 </v>
   <v>       0.05580618      -0.39255821       0.01814064 </v>
   <v>       0.05446866       0.13499653       0.49670759 </v>
   <v>       0.20205726      -0.39906960       0.09742691 </v>
   <v>       0.26546768      -0.24390913       0.25567965 </v>
   <v>       0.33928079       0.47245549      -0.53925603 </v>
   <v>      -0.20551557      -0.21930846      -0.31384997 </v>
   <v>      -0.14180313       0.27497607       0.56296854 </v>
   <v>       0.23970591       0.20306827       0.41626542 </v>
   <v>      -0.25089911       0.03541519      -0.81030463 </v>
   <v>       0.12105404      -0.51668439       0.04045918 </v>
   <v>       0.13609272      -0.37467489       0.07959361 </v>
   <v>       0.19272742      -0.22404401       0.16242229 </v>
   <v>       0.01554199      -0.27240868       0.06470551 </v>
  </varray>
  <varray name="stress" >
   <v>      73.61625998      -0.13661359      -1.12140717 </v>
   <v>      -0.13661326      72.18498839      -0.83399948 </v>
   <v>      -1.12140727      -0.83401436      73.16636503 </v>
  </varray>
  <energy>
   <i name="e_fr_energy">  -1095.13098660 </i>
   <i name="e_wo_entrp">  -1095.02268699 </i>
   <i name="e_0_energy">     -0.21659922 </i>
  </energy>
  <time name="totalsc">  689.43  694.64</time>
 </calculation>
 <calculation>
  <scstep>
   <time name="dav">   82.25   82.83</time>
   <time name="total">   84.83   85.43</time>
   <energy>
    <i name="alphaZ">   4871.05958751 </i>
    <i name="ewald"> -46954.51020133 </i>
    <i name="hartreedc"> -16409.65124279 </i>
    <i name="XCdc">  -2018.60978558 </i>
    <i name="pawpsdc">  85458.66918513 </i>
    <i name="pawaedc"> -80446.99688130 </i>
    <i name="eentropy">     -0.21659995 </i>
    <i name="bandstr">  -4810.63156284 </i>
    <i name="atom">  59215.75643617 </i>
    <i name="e_fr_energy">  -1095.13106500 </i>
    <i name="e_wo_entrp">  -1094.91446505 </i>
    <i name="e_0_energy">  -1095.02276502 </i>
   </energy>
  </scstep>
  <scstep>
   <time name="dav">   56.50   56.89</time>
   <time name="total">   59.06   59.47</time>
   <energy>
    <i name="e_fr_energy">  -1095.13106514 </i>
    <i name="e_wo_entrp">  -1094.91446435 </i>
    <i name="e_0_energy">  -1095.02276474 </i>
   </energy>
  </scstep>
  <scstep>
   <time name="dav">   56.16   56.55</time>
   <time name="total">   58.60   59.01</time>
   <energy>
    <i name="e_fr_energy">  -1095.13106517 </i>
    <i name="e_wo_entrp">  -1094.91446657 </i>
    <i name="e_0_energy">  -1095.02276587 </i>
   </energy>
  </scstep>
  <scstep>
   <time name="dav">   56.26   56.66</time>
   <time name="total">   58.84   59.25</time>
   <energy>
    <i name="e_fr_energy">  -1095.13106502 </i>
    <i name="e_wo_entrp">  -1094.91446407 </i>
    <i name="e_0_energy">  -1095.02276455 </i>
   </energy>
  </scstep>
  <scstep>
   <time name="dav">   56.43   56.87</time>
   <time name="total">   58.91   59.37</time>
   <energy>
    <i name="e_fr_energy">  -1095.13106506 </i>
    <i name="e_wo_entrp">  -1094.91446734 </i>
    <i name="e_0_energy">  -1095.02276620 </i>
   </energy>
  </scstep>
  <scstep>
   <time name="dav">   56.41   56.80</time>
   <time name="total">   58.94   59.35</time>
   <energy>
    <i name="e_fr_energy">  -1095.13106502 </i>
    <i name="e_wo_entrp">  -1094.91446475 </i>
    <i name="e_0_energy">  -1095.02276489 </i>
   </energy>
  </scstep>
  <scstep>
   <time name="dav">   56.48   56.90</time>
   <time name="total">   59.07   59.51</time>
   <energy>
    <i name="e_fr_energy">  -1095.13106502 </i>
    <i name="e_wo_entrp">  -1094.91446471 </i>
    <i name="e_0_energy">  -1095.02276486 </i>
   </energy>
  </scstep>
  <scstep>
   <time name="dav">   56.30   56.69</time>
   <time name="total">   58.86   59.26</time>
   <energy>
    <i name="e_fr_energy">  -1095.13106502 </i>
    <i name="e_wo_entrp">  -1094.91446497 </i>
    <i name="e_0_energy">  -1095.02276499 </i>
   </energy>
  </scstep>
  <scstep>
   <time name="dav">   56.49   56.91</time>
   <time name="total">   59.23   59.67</time>
   <energy>
    <i name="e_fr_energy">  -1095.13106502 </i>
    <i name="e_wo_entrp">  -1094.91446492 </i>
    <i name="e_0_energy">  -1095.02276497 </i>
   </energy>
  </scstep>
  <scstep>
   <time name="dav">   56.19   56.58</time>
   <time name="total">   56.68   57.07</time>
   <energy>
    <i name="alphaZ">   4871.05958751 </i>
    <i name="ewald"> -46954.51020133 </i>
    <i name="hartreedc"> -16409.65146446 </i>
    <i name="XCdc">  -2018.60977609 </i>
    <i name="pawpsdc">  85458.65703843 </i>
    <i name="pawaedc"> -80446.98469212 </i>
    <i name="eentropy">     -0.21660014 </i>
    <i name="bandstr">  -4810.63139299 </i>
    <i name="atom">  59215.75643617 </i>
    <i name="e_fr_energy">  -1095.13106502 </i>
    <i name="e_wo_entrp">  -1094.91446488 </i>
    <i name="e_0_energy">  -1095.02276495 </i>
   </energy>
  </scstep>
  <structure>
   <crystal>
    <varray name="basis" >
     <v>       9.12169973       0.00000000       0.00000000 </v>
     <v>       0.00000000       8.37880972       0.00000000 </v>
     <v>       0.00000000       0.00000000      23.69886622 </v>
    </varray>
    <i name="volume">   1811.28032179 </i>
    <varray name="rec_basis" >
     <v>       0.10962869       0.00000000       0.00000000 </v>
     <v>       0.00000000       0.11934869       0.00000000 </v>
     <v>       0.00000000       0.00000000       0.04219611 </v>
    </varray>
   </crystal>
   <varray name="positions" >
    <v>       0.49945717       0.22227243       0.22241612 </v>
    <v>       0.00070118       0.22205451       0.22234079 </v>
    <v>       0.24956005       0.22198081       0.05491554 </v>
    <v>       0.49996588       0.77759055       0.10992794 </v>
    <v>       0.00004795       0.44468439       0.10987771 </v>
    <v>       0.00148144       0.44486166       0.44440023 </v>
    <v>       0.25047156       0.77742870       0.61117880 </v>
    <v>       0.00060889       0.66659512       0.00018978 </v>
    <v>       0.75069806       0.55537664       0.72238028 </v>
    <v>       0.49987171       0.66677549       0.33331038 </v>
    <v>       0.24977592       0.88860132       0.72214353 </v>
    <v>       0.99984612       0.44512892       0.77684499 </v>
    <v>       0.00057451       0.33375202       0.66680057 </v>
    <v>       0.24951062       0.66690778       0.83242828 </v>
    <v>       0.74976410       0.11102736       0.61096556 </v>
    <v>       0.00123244       0.66637673       0.66781729 </v>
    <v>       0.24981463       0.77788080       0.27822745 </v>
    <v>       0.49921610       0.66707320       0.66579141 </v>
    <v>       0.50039648       0.77801080       0.77814827 </v>
    <v>       0.49961187       0.99881015       0.00014510 </v>
    <v>       0.50018019       0.11107501       0.77807389 </v>
    <v>       0.49998553       0.33307265       0.33347797 </v>
    <v>       0.00032032       0.88895854       0.22244526 </v>
    <v>       0.24911680       0.55574890       0.38946191 </v>
    <v>       0.49958214       0.66698097       0.00023158 </v>
    <v>       0.75027631       0.44531190       0.61028058 </v>
    <v>       0.75044206       0.77753263       0.61051765 </v>
    <v>       0.00020895       0.11107666       0.10979932 </v>
    <v>       0.24978244       0.99970668       0.83277694 </v>
    <v>       0.50091830       0.55580766       0.89011243 </v>
    <v>       0.99977438       0.89001285       0.88927221 </v>
    <v>       0.24996115       0.44405207       0.27790360 </v>
    <v>       0.49932172       0.55579543       0.55665816 </v>
    <v>       0.00061817       0.88896585       0.55521080 </v>
    <v>       0.50002708       0.33285617       0.66576015 </v>
    <v>       0.75033506       0.22197818       0.05468311 </v>
    <v>       0.50010698       0.11132238       0.44410204 </v>
    <v>       0.75008532       0.77771801       0.27803598 </v>
    <v>       0.75012042       0.11104979       0.27798678 </v>
    <v>       0.74989649       0.99987078       0.16659857 </v>
    <v>       0.99994881       0.55582707       0.88813593 </v>
    <v>       0.74858472       0.88985542       0.38919287 </v>
    <v>       0.50007465       0.88819263       0.89146812 </v>
    <v>       0.49984622       0.33398801       0.99987420 </v>
    <v>       0.50027798       0.22232851       0.88896697 </v>
    <v>       0.00042892       0.66696825       0.33363095 </v>
    <v>       0.74923593       0.22194247       0.38931829 </v>
    <v>       0.49905075       0.77891992       0.44452166 </v>
    <v>       0.75047247       0.11115583       0.94550479 </v>
    <v>       0.75029444       0.88945360       0.72203390 </v>
    <v>       0.24955179       0.55547222       0.72183385 </v>
    <v>       0.24927061       0.88921082       0.38901109 </v>
    <v>       0.00048412       0.22221846       0.55458244 </v>
    <v>       0.49985817       0.11085338       0.11061144 </v>
    <v>       0.74950566       0.55541758       0.38905431 </v>
    <v>       0.74989740       0.77778519       0.94553175 </v>
    <v>       0.75022894       0.66691646       0.50126563 </v>
    <v>       0.24989517       0.33323698       0.83304577 </v>
    <v>       0.00073197       0.99975969       0.33341599 </v>
    <v>       0.50055529       0.55542708       0.22160022 </v>
    <v>       0.74981024       0.33309458       0.50047346 </v>
    <v>       0.50030633       0.44425820       0.77787955 </v>
    <v>       0.00030115       0.33320097       0.33327571 </v>
    <v>       0.25006595       0.33336972       0.16670788 </v>
    <v>       0.00045932       0.55549436       0.55551165 </v>
    <v>       0.74995897       0.44461966       0.27791827 </v>
    <v>       0.00340421       0.77805406       0.44460215 </v>
    <v>       0.99920445       0.21998696       0.88904566 </v>
    <v>       0.49981687       0.44503749       0.11030909 </v>
    <v>       0.25293316       0.99832440       0.49862355 </v>
    <v>       0.49758329       0.22084767       0.55565205 </v>
    <v>       0.25146827       0.22226731       0.72288354 </v>
    <v>       0.74988949       0.99982728       0.50045900 </v>
    <v>       0.99998007       0.00010918       0.00008282 </v>
    <v>       0.75036008       0.66693378       0.83357879 </v>
    <v>       0.75136949       0.22074985       0.72236708 </v>
    <v>       0.25013305       0.66791043       0.50003910 </v>
    <v>       0.25045806       0.77713746       0.94463699 </v>
    <v>       0.24927900       0.33196863       0.49947646 </v>
    <v>       0.00092896       0.33329642       0.00034363 </v>
    <v>       0.99992977       0.77750540       0.11108467 </v>
    <v>       0.74872147       0.88993154       0.05567136 </v>
    <v>       0.50059382       0.99997644       0.33420455 </v>
    <v>       0.50088101       0.44620564       0.44431080 </v>
    <v>       0.74958925       0.33292517       0.83310677 </v>
    <v>       0.75005035       0.99724810       0.83355269 </v>
    <v>       0.00031881       0.55557723       0.22201011 </v>
    <v>       0.99868386       0.99904984       0.66654608 </v>
    <v>       0.74986852       0.55577792       0.05512990 </v>
    <v>       0.49967079       0.88857318       0.22231692 </v>
    <v>       0.74988295       0.33365027       0.16636030 </v>
    <v>       0.49572253       0.89001527       0.55533947 </v>
    <v>       0.25110623       0.88903065       0.05514544 </v>
    <v>       0.00126089       0.11082081       0.44462772 </v>
    <v>       0.25001601       0.99999079       0.16673628 </v>
    <v>       0.24836089       0.44751174       0.61071707 </v>
    <v>       0.25076309       0.11071119       0.61029425 </v>
    <v>       0.74754952       0.44482553       0.94522208 </v>
    <v>       0.25005873       0.55560233       0.05515162 </v>
    <v>       0.24941840       0.11098159       0.94520522 </v>
    <v>       0.25027455       0.66664661       0.16700381 </v>
    <v>       0.24944113       0.11201480       0.27803068 </v>
    <v>       0.99996294       0.77693734       0.77687597 </v>
    <v>       0.24935849       0.22138662       0.38996305 </v>
    <v>       0.99953975       0.11137892       0.77743083 </v>
    <v>       0.24980698       0.44471200       0.94527048 </v>
    <v>       0.74994366       0.66650248       0.16648826 </v>
    <v>       0.49965470       0.00101009       0.66609558 </v>
   </varray>
  </structure>
  <varray name="forces" >
   <v>      -0.02102717      -0.11227738       0.18318125 </v>
   <v>       0.08275327      -0.05826632       0.29899295 </v>
   <v>       0.26616532       0.31528730      -0.23998984 </v>
   <v>       0.16824672      -0.17629735       1.00813832 </v>
   <v>       0.22936171      -0.07621994       0.03147168 </v>
   <v>      -0.43076818      -0.04366427      -0.06259988 </v>
   <v>      -0.10033914      -0.29140194      -0.06985434 </v>
   <v>       0.25667080      -0.23998775      -0.03154004 </v>
   <v>      -0.40103613       0.02347544      -0.22575722 </v>
   <v>       0.15090371       0.00057346       0.16491321 </v>
   <v>       0.13106225      -0.07558634      -0.01067858 </v>
   <v>       0.23687635       0.03284348       0.24365587 </v>
   <v>       0.06109022       0.06291657      -0.19476599 </v>
   <v>      -0.12928816      -0.01429454       0.02439016 </v>
   <v>      -0.30852029      -0.01529103       0.13755538 </v>
   <v>      -0.27247553       0.22106882       0.08587757 </v>
   <v>      -0.03258008       0.29095379      -0.32556397 </v>
   <v>       0.34191843       0.23026538       0.53145039 </v>
   <v>      -0.10760519      -0.10719763       0.05271388 </v>
   <v>      -0.07090817       0.41601769      -0.15291321 </v>
   <v>      -0.06006440      -0.30974325      -0.47904184 </v>
   <v>      -0.04238897      -0.15469707       0.29870662 </v>
   <v>      -0.28062345       0.00399684       0.16738822 </v>
   <v>       0.13668156      -0.41232823      -0.28578120 </v>
   <v>      -0.26095992      -0.17169480      -0.20918327 </v>
   <v>       0.12588978       0.13230779      -0.04528761 </v>
   <v>      -0.08879185      -0.08928219      -0.02406608 </v>
   <v>       0.10642988       0.02502973       0.55459732 </v>
   <v>      -0.03386825       0.37192962       0.47226375 </v>
   <v>      -0.49713850      -0.28839507       0.01302994 </v>
   <v>       0.00041008      -0.12452385      -0.27194193 </v>
   <v>      -0.04497286      -0.38571453      -0.03703914 </v>
   <v>       0.01405920       0.06354456      -0.26310692 </v>
   <v>      -0.21456903      -0.18830777      -0.09662804 </v>
   <v>      -0.03420007      -0.24754932      -0.01635412 </v>
   <v>      -0.00935578       0.17900637       0.17634108 </v>
   <v>      -0.17341405       0.21910654      -0.20526384 </v>
   <v>      -0.07651160      -0.00469553      -0.51698219 </v>
   <v>       0.06153266       0.00228516       0.11346155 </v>
   <v>      -0.07735770      -0.28300479       0.17018601 </v>
   <v>       0.26617363      -0.19580479       0.30042850 </v>
   <v>       0.02576016      -0.12670683       0.08899256 </v>
   <v>      -0.10810724       0.02490824      -0.25013068 </v>
   <v>      -0.31738305      -0.00716290      -0.25756803 </v>
   <v>      -0.29411284      -0.02274275       0.18743590 </v>
   <v>       0.06961489      -0.00992996       0.08127814 </v>
   <v>       0.18076671       0.10148897      -0.01548022 </v>
   <v>       0.04875856      -0.27490879       0.00739432 </v>
   <v>      -0.08290661      -0.02325478      -0.29011355 </v>
   <v>      -0.06179352      -0.04581988      -0.08294516 </v>
   <v>       0.14878596      -0.05646139       0.03463271 </v>
   <v>       0.10832763       0.27876873      -0.09169860 </v>
   <v>       0.00740491       0.09517240       0.00581978 </v>
   <v>      -0.20624573       0.14291466       0.03099702 </v>
   <v>      -0.12742786      -0.03670059       0.07006313 </v>
   <v>      -0.01395942      -0.05322836      -0.10771319 </v>
   <v>       0.27921052       0.01329295      -0.23952601 </v>
   <v>      -0.10315295       0.19864502       0.40886284 </v>
   <v>       0.22262876       0.22511487      -0.12679464 </v>
   <v>      -0.07897786       0.39373454      -0.28792760 </v>
   <v>      -0.25082165       0.07485937      -0.13159600 </v>
   <v>       0.01973725       0.04800937       0.09910976 </v>
   <v>       0.17914043      -0.15595562       0.25651864 </v>
   <v>       0.17182943       0.22621469      -0.17258165 </v>
   <v>      -0.12507813       0.10878868       0.00084322 </v>
   <v>      -0.04331055      -0.04955557      -0.11889789 </v>
   <v>      -0.33456900      -0.11300354      -0.07475989 </v>
   <v>       0.33914940       0.24411710      -0.40080734 </v>
   <v>      -0.06246156      -0.13357183      -0.01862905 </v>
   <v>      -0.21225711       0.13075503       0.19794116 </v>
   <v>       0.09865029       0.15388414      -0.04576608 </v>
   <v>      -0.24224110       0.11734665       0.10833191 </v>
   <v>      -0.03042747      -0.02287304      -0.20404855 </v>
   <v>      -0.01251749       0.24128166      -0.13444468 </v>
   <v>       0.09083960       0.06890906      -0.38799384 </v>
   <v>       0.05928202       0.27430390       0.22595244 </v>
   <v>      -0.26002694       0.02388239      -0.17392844 </v>
   <v>      -0.12435618       0.05145561      -0.21853268 </v>
   <v>       0.38679987       0.26677842      -0.15402592 </v>
   <v>      -0.04909514      -0.04249726      -0.60656892 </v>
   <v>      -0.13156882      -0.03756701       0.38396386 </v>
   <v>       0.12485368       0.07502061      -0.01332538 </v>
   <v>      -0.05621741       0.00513664      -0.29768529 </v>
   <v>       0.33238846      -0.13270632      -0.05913976 </v>
   <v>       0.02520782      -0.06999021       0.32749414 </v>
   <v>       0.00127600       0.22159360       0.12208044 </v>
   <v>      -0.00609774       0.21645324       0.04908917 </v>
   <v>       0.18753686       0.22551414       0.00154484 </v>
   <v>      -0.37219506       0.25584407       0.20705692 </v>
   <v>       0.22354875       0.21990932       0.06681341 </v>
   <v>      -0.38224744       0.17864265       0.11160134 </v>
   <v>       0.70752392       0.08892066       0.06737637 </v>
   <v>      -0.17948066      -0.20569097       0.12358101 </v>
   <v>       0.07445259      -0.22294185      -0.37005148 </v>
   <v>       0.26414719      -0.15092313       0.27212997 </v>
   <v>       0.05581517      -0.39255661       0.01814873 </v>
   <v>       0.05447027       0.13499134       0.49672643 </v>
   <v>       0.20203108      -0.39907010       0.09750819 </v>
   <v>       0.26545945      -0.24390956       0.25569680 </v>
   <v>       0.33928840       0.47245683      -0.53920945 </v>
   <v>      -0.20552453      -0.21931538      -0.31382979 </v>
   <v>      -0.14180794       0.27496611       0.56297837 </v>
   <v>       0.23971177       0.20304165       0.41628100 </v>
   <v>      -0.25090486       0.03538758      -0.81028646 </v>
   <v>       0.12106307      -0.51668830       0.04052493 </v>
   <v>       0.13609381      -0.37468800       0.07963123 </v>
   <v>       0.19272079      -0.22404842       0.16246948 </v>
   <v>       0.01553731      -0.27241878       0.06473168 </v>
  </varray>
  <varray name="stress" >
   <v>      73.61491553      -0.13619825      -1.12148775 </v>
   <v>      -0.13619796      72.18476277      -0.83307606 </v>
   <v>      -1.12148814      -0.83309078      73.16273460 </v>
  </varray>
  <energy>
   <i name="e_fr_energy">  -1095.13106502 </i>
   <i name="e_wo_entrp">  -1095.02276495 </i>
   <i name="e_0_energy">     -0.21660014 </i>
  </energy>
  <time name="totalsc">  679.24  684.09</time>
 </calculation>
 <calculation>
  <scstep>
   <time name="dav">   62.36   62.80</time>
   <time name="total">   64.89   65.35</time>
   <energy>
    <i name="alphaZ">   4871.05958751 </i>
    <i name="ewald"> -46954.51743652 </i>
    <i name="hartreedc"> -16409.64425424 </i>
    <i name="XCdc">  -2018.60978145 </i>
    <i name="pawpsdc">  85458.65582147 </i>
    <i name="pawaedc"> -80446.98347553 </i>
    <i name="eentropy">     -0.21660022 </i>
    <i name="bandstr">  -4810.63140159 </i>
    <i name="atom">  59215.75643617 </i>
    <i name="e_fr_energy">  -1095.13110439 </i>
    <i name="e_wo_entrp">  -1094.91450417 </i>
    <i name="e_0_energy">  -1095.02280428 </i>
   </energy>
  </scstep>
  <scstep>
   <time name="dav">   56.51   56.95</time>
   <time name="total">   59.16   59.61</time>
   <energy>
    <i name="e_fr_energy">  -1095.13110444 </i>
    <i name="e_wo_entrp">  -1094.91450323 </i>
    <i name="e_0_energy">  -1095.02280383 </i>
   </energy>
  </scstep>
  <scstep>
   <time name="dav">   56.32   56.76</time>
   <time name="total">   58.87   59.33</time>
   <energy>
    <i name="e_fr_energy">  -1095.13110448 </i>
    <i name="e_wo_entrp">  -1094.91450495 </i>
    <i name="e_0_energy">  -1095.02280472 </i>
   </energy>
  </scstep>
  <scstep>
   <time name="dav">   56.42   56.81</time>
   <time name="total">   58.92   59.32</time>
   <energy>
    <i name="e_fr_energy">  -1095.13110442 </i>
    <i name="e_wo_entrp">  -1094.91450378 </i>
    <i name="e_0_energy">  -1095.02280410 </i>
   </energy>
  </scstep>
  <scstep>
   <time name="dav">   56.26   56.65</time>
   <time name="total">   59.00   59.42</time>
   <energy>
    <i name="e_fr_energy">  -1095.13110443 </i>
    <i name="e_wo_entrp">  -1094.91450555 </i>
    <i name="e_0_energy">  -1095.02280499 </i>
   </energy>
  </scstep>
  <scstep>
   <time name="dav">   56.02   56.40</time>
   <time name="total">   58.63   59.03</time>
   <energy>
    <i name="e_fr_energy">  -1095.13110441 </i>
    <i name="e_wo_entrp">  -1094.91450376 </i>
    <i name="e_0_energy">  -1095.02280409 </i>
   </energy>
  </scstep>
  <scstep>
   <time name="dav">   56.52   56.93</time>
   <time name="total">   59.17   59.61</time>
   <energy>
    <i name="e_fr_energy">  -1095.13110441 </i>
    <i name="e_wo_entrp">  -1094.91450384 </i>
    <i name="e_0_energy">  -1095.02280413 </i>
   </energy>
  </scstep>
  <scstep>
   <time name="dav">   57.51   57.95</time>
   <time name="total">   59.94   60.40</time>
   <energy>
    <i name="e_fr_energy">  -1095.13110441 </i>
    <i name="e_wo_entrp">  -1094.91450408 </i>
    <i name="e_0_energy">  -1095.02280425 </i>
   </energy>
  </scstep>
  <scstep>
   <time name="dav">   56.28   56.69</time>
   <time name="total">   58.78   59.22</time>
   <energy>
    <i name="e_fr_energy">  -1095.13110441 </i>
    <i name="e_wo_entrp">  -1094.91450388 </i>
    <i name="e_0_energy">  -1095.02280415 </i>
   </energy>
  </scstep>
  <scstep>
   <time name="dav">   56.26   56.65</time>
   <time name="total">   56.75   57.15</time>
   <energy>
    <i name="alphaZ">   4871.05958751 </i>
    <i name="ewald"> -46954.51743652 </i>
    <i name="hartreedc"> -16409.64428755 </i>
    <i name="XCdc">  -2018.60977779 </i>
    <i name="pawpsdc">  85458.65016261 </i>
    <i name="pawaedc"> -80446.97779017 </i>
    <i name="eentropy">     -0.21660032 </i>
    <i name="bandstr">  -4810.63139835 </i>
    <i name="atom">  59215.75643617 </i>
    <i name="e_fr_energy">  -1095.13110441 </i>
    <i name="e_wo_entrp">  -1094.91450409 </i>
    <i name="e_0_energy">  -1095.02280425 </i>
   </energy>
  </scstep>
  <structure>
   <crystal>
    <varray name="basis" >
     <v>       9.12169973       0.00000000       0.00000000 </v>
     <v>       0.00000000       8.37880972       0.00000000 </v>
     <v>       0.00000000       0.00000000      23.69886622 </v>
    </varray>
    <i name="volume">   1811.28032179 </i>
    <varray name="rec_basis" >
     <v>       0.10962869       0.00000000       0.00000000 </v>
     <v>       0.00000000       0.11934869       0.00000000 </v>
     <v>       0.00000000       0.00000000       0.04219611 </v>
    </varray>
   </crystal>
   <varray name="positions" >
    <v>       0.49945717       0.22227243       0.22241606 </v>
    <v>       0.00070118       0.22205451       0.22234077 </v>
    <v>       0.24956005       0.22198081       0.05491563 </v>
    <v>       0.49996588       0.77759055       0.10992813 </v>
    <v>       0.00004795       0.44468439       0.10987795 </v>
    <v>       0.00148144       0.44486166       0.44440017 </v>
    <v>       0.25047156       0.77742870       0.61117872 </v>
    <v>       0.00060889       0.66659512       0.00018974 </v>
    <v>       0.75069806       0.55537664       0.72238026 </v>
    <v>       0.49987171       0.66677549       0.33331036 </v>
    <v>       0.24977592       0.88860132       0.72214349 </v>
    <v>       0.99984612       0.44512892       0.77684521 </v>
    <v>       0.00057451       0.33375202       0.66680050 </v>
    <v>       0.24951062       0.66690778       0.83242854 </v>
    <v>       0.74976410       0.11102736       0.61096566 </v>
    <v>       0.00123244       0.66637673       0.66781700 </v>
    <v>       0.24981463       0.77788080       0.27822735 </v>
    <v>       0.49921610       0.66707320       0.66579155 </v>
    <v>       0.50039648       0.77801080       0.77814823 </v>
    <v>       0.49961187       0.99881015       0.00014511 </v>
    <v>       0.50018019       0.11107501       0.77807380 </v>
    <v>       0.49998553       0.33307265       0.33347798 </v>
    <v>       0.00032032       0.88895854       0.22244522 </v>
    <v>       0.24911680       0.55574890       0.38946185 </v>
    <v>       0.49958214       0.66698097       0.00023154 </v>
    <v>       0.75027631       0.44531190       0.61028074 </v>
    <v>       0.75044206       0.77753263       0.61051777 </v>
    <v>       0.00020895       0.11107666       0.10979955 </v>
    <v>       0.24978244       0.99970668       0.83277708 </v>
    <v>       0.50091830       0.55580766       0.89011230 </v>
    <v>       0.99977438       0.89001285       0.88927225 </v>
    <v>       0.24996115       0.44405207       0.27790357 </v>
    <v>       0.49932172       0.55579543       0.55665794 </v>
    <v>       0.00061817       0.88896585       0.55521093 </v>
    <v>       0.50002708       0.33285617       0.66576039 </v>
    <v>       0.75033506       0.22197818       0.05468331 </v>
    <v>       0.50010698       0.11132238       0.44410209 </v>
    <v>       0.75008532       0.77771801       0.27803594 </v>
    <v>       0.75012042       0.11104979       0.27798676 </v>
    <v>       0.74989649       0.99987078       0.16659854 </v>
    <v>       0.99994881       0.55582707       0.88813609 </v>
    <v>       0.74858472       0.88985542       0.38919282 </v>
    <v>       0.50007465       0.88819263       0.89146762 </v>
    <v>       0.49984622       0.33398801       0.99987423 </v>
    <v>       0.50027798       0.22232851       0.88896697 </v>
    <v>       0.00042892       0.66696825       0.33363091 </v>
    <v>       0.74923593       0.22194247       0.38931826 </v>
    <v>       0.49905075       0.77891992       0.44452166 </v>
    <v>       0.75047247       0.11115583       0.94550450 </v>
    <v>       0.75029444       0.88945360       0.72203395 </v>
    <v>       0.24955179       0.55547222       0.72183386 </v>
    <v>       0.24927061       0.88921082       0.38901121 </v>
    <v>       0.00048412       0.22221846       0.55458278 </v>
    <v>       0.49985817       0.11085338       0.11061147 </v>
    <v>       0.74950566       0.55541758       0.38905430 </v>
    <v>       0.74989740       0.77778519       0.94553139 </v>
    <v>       0.75022894       0.66691646       0.50126525 </v>
    <v>       0.24989517       0.33323698       0.83304585 </v>
    <v>       0.00073197       0.99975969       0.33341597 </v>
    <v>       0.50055529       0.55542708       0.22160031 </v>
    <v>       0.74981024       0.33309458       0.50047332 </v>
    <v>       0.50030633       0.44425820       0.77787956 </v>
    <v>       0.00030115       0.33320097       0.33327573 </v>
    <v>       0.25006595       0.33336972       0.16670787 </v>
    <v>       0.00045932       0.55549436       0.55551170 </v>
    <v>       0.74995897       0.44461966       0.27791825 </v>
    <v>       0.00340421       0.77805406       0.44460208 </v>
    <v>       0.99920445       0.21998696       0.88904562 </v>
    <v>       0.49981687       0.44503749       0.11030924 </v>
    <v>       0.25293316       0.99832440       0.49862370 </v>
    <v>       0.49758329       0.22084767       0.55565205 </v>
    <v>       0.25146827       0.22226731       0.72288354 </v>
    <v>       0.74988949       0.99982728       0.50045887 </v>
    <v>       0.99998007       0.00010918       0.00008275 </v>
    <v>       0.75036008       0.66693378       0.83357883 </v>
    <v>       0.75136949       0.22074985       0.72236723 </v>
    <v>       0.25013305       0.66791043       0.50003905 </v>
    <v>       0.25045806       0.77713746       0.94463689 </v>
    <v>       0.24927900       0.33196863       0.49947646 </v>
    <v>       0.00092896       0.33329642       0.00034353 </v>
    <v>       0.99992977       0.77750540       0.11108475 </v>
    <v>       0.74872147       0.88993154       0.05567138 </v>
    <v>       0.50059382       0.99997644       0.33420442 </v>
    <v>       0.50088101       0.44620564       0.44431070 </v>
    <v>       0.74958925       0.33292517       0.83310678 </v>
    <v>       0.75005035       0.99724810       0.83355267 </v>
    <v>       0.00031881       0.55557723       0.22201012 </v>
    <v>       0.99868386       0.99904984       0.66654623 </v>
    <v>       0.74986852       0.55577792       0.05513001 </v>
    <v>       0.49967079       0.88857318       0.22231690 </v>
    <v>       0.74988295       0.33365027       0.16636034 </v>
    <v>       0.49572253       0.89001527       0.55533945 </v>
    <v>       0.25110623       0.88903065       0.05514548 </v>
    <v>       0.00126089       0.11082081       0.44462763 </v>
    <v>       0.25001601       0.99999079       0.16673627 </v>
    <v>       0.24836089       0.44751174       0.61071705 </v>
    <v>       0.25076309       0.11071119       0.61029429 </v>
    <v>       0.74754952       0.44482553       0.94522189 </v>
    <v>       0.25005873       0.55560233       0.05515168 </v>
    <v>       0.24941840       0.11098159       0.94520511 </v>
    <v>       0.25027455       0.66664661       0.16700372 </v>
    <v>       0.24944113       0.11201480       0.27803062 </v>
    <v>       0.99996294       0.77693734       0.77687622 </v>
    <v>       0.24935849       0.22138662       0.38996294 </v>
    <v>       0.99953975       0.11137892       0.77743090 </v>
    <v>       0.24980698       0.44471200       0.94527036 </v>
    <v>       0.74994366       0.66650248       0.16648827 </v>
    <v>       0.49965470       0.00101009       0.66609570 </v>
   </varray>
  </structure>
  <varray name="forces" >
   <v>      -0.02102422      -0.11227185       0.18319745 </v>
   <v>       0.08275588      -0.05826014       0.29901693 </v>
   <v>       0.26615760       0.31528559      -0.23999629 </v>
   <v>       0.16789986      -0.17635608       1.00734037 </v>
   <v>       0.22936308      -0.07622308       0.03144104 </v>
   <v>      -0.43075772      -0.04365993      -0.06258500 </v>
   <v>      -0.10033572      -0.29140819      -0.06983903 </v>
   <v>       0.25666519      -0.23999048      -0.03150933 </v>
   <v>      -0.40101399       0.02348250      -0.22573777 </v>
   <v>       0.15089712       0.00057197       0.16490389 </v>
   <v>       0.13105826      -0.07559273      -0.01064673 </v>
   <v>       0.23687994       0.03285340       0.24362422 </v>
   <v>       0.06109093       0.06292518      -0.19473038 </v>
   <v>      -0.12928338      -0.01428752       0.02435729 </v>
   <v>      -0.30851603      -0.01529411       0.13756387 </v>
   <v>      -0.27246852       0.22107384       0.08593065 </v>
   <v>      -0.03257567       0.29095238      -0.32554359 </v>
   <v>       0.34192011       0.23026066       0.53143325 </v>
   <v>      -0.10761735      -0.10719582       0.05270719 </v>
   <v>      -0.07090821       0.41600356      -0.15292506 </v>
   <v>      -0.06007194      -0.30974650      -0.47902377 </v>
   <v>      -0.04239378      -0.15469820       0.29869440 </v>
   <v>      -0.28062393       0.00400303       0.16739886 </v>
   <v>       0.13667420      -0.41233269      -0.28577573 </v>
   <v>      -0.26095045      -0.17168786      -0.20916064 </v>
   <v>       0.12589254       0.13229893      -0.04529798 </v>
   <v>      -0.08878648      -0.08928497      -0.02407987 </v>
   <v>       0.10643746       0.02502950       0.55457006 </v>
   <v>      -0.03386695       0.37193393       0.47223611 </v>
   <v>      -0.49713531      -0.28838758       0.01305225 </v>
   <v>       0.00041681      -0.12452726      -0.27193114 </v>
   <v>      -0.04497044      -0.38571581      -0.03703290 </v>
   <v>       0.01406451       0.06354528      -0.26309681 </v>
   <v>      -0.21457103      -0.18830611      -0.09660880 </v>
   <v>      -0.03419775      -0.24755349      -0.01633320 </v>
   <v>      -0.00934528       0.17899740       0.17635930 </v>
   <v>      -0.17342124       0.21911374      -0.20525688 </v>
   <v>      -0.07650865      -0.00469647      -0.51698836 </v>
   <v>       0.06153824       0.00229238       0.11345615 </v>
   <v>      -0.07735732      -0.28299955       0.17019933 </v>
   <v>       0.26617544      -0.19579939       0.30044571 </v>
   <v>       0.02577522      -0.12670416       0.08898927 </v>
   <v>      -0.10810637       0.02490657      -0.25012938 </v>
   <v>      -0.31738578      -0.00715690      -0.25754852 </v>
   <v>      -0.29411495      -0.02274584       0.18743090 </v>
   <v>       0.06962660      -0.00993527       0.08127081 </v>
   <v>       0.18077765       0.10148522      -0.01548141 </v>
   <v>       0.04875098      -0.27490288       0.00740132 </v>
   <v>      -0.08289483      -0.02325479      -0.29010240 </v>
   <v>      -0.06178600      -0.04581897      -0.08292377 </v>
   <v>       0.14877792      -0.05645665       0.03464596 </v>
   <v>       0.10831931       0.27877639      -0.09170457 </v>
   <v>       0.00740965       0.09517262       0.00583058 </v>
   <v>      -0.20624680       0.14291336       0.03100702 </v>
   <v>      -0.12741062      -0.03671257       0.07005107 </v>
   <v>      -0.01396554      -0.05323417      -0.10770188 </v>
   <v>       0.27923175       0.01330298      -0.23951448 </v>
   <v>      -0.10314913       0.19864636       0.40887306 </v>
   <v>       0.22264248       0.22511547      -0.12679803 </v>
   <v>      -0.07897687       0.39373586      -0.28792076 </v>
   <v>      -0.25080851       0.07485420      -0.13157176 </v>
   <v>       0.01973789       0.04800911       0.09910401 </v>
   <v>       0.17914863      -0.15595630       0.25651364 </v>
   <v>       0.17183560       0.22621087      -0.17256589 </v>
   <v>      -0.12507875       0.10878276       0.00084286 </v>
   <v>      -0.04330548      -0.04956004      -0.11889235 </v>
   <v>      -0.33455865      -0.11299317      -0.07474965 </v>
   <v>       0.33915585       0.24412130      -0.40079637 </v>
   <v>      -0.06245766      -0.13356741      -0.01863178 </v>
   <v>      -0.21225525       0.13076492       0.19794525 </v>
   <v>       0.09865690       0.15388886      -0.04575054 </v>
   <v>      -0.24224470       0.11734799       0.10834774 </v>
   <v>      -0.03041787      -0.02286692      -0.20402044 </v>
   <v>      -0.01251565       0.24129081      -0.13442035 </v>
   <v>       0.09084880       0.06890399      -0.38800669 </v>
   <v>       0.05928970       0.27431433       0.22595334 </v>
   <v>      -0.26003155       0.02388013      -0.17391474 </v>
   <v>      -0.12433553       0.05145725      -0.21849194 </v>
   <v>       0.38679555       0.26676882      -0.15401287 </v>
   <v>      -0.04909391      -0.04249365      -0.60653100 </v>
   <v>      -0.13157019      -0.03756557       0.38394680 </v>
   <v>       0.12484639       0.07500922      -0.01333136 </v>
   <v>      -0.05622449       0.00513524      -0.29767777 </v>
   <v>       0.33238786      -0.13271022      -0.05912788 </v>
   <v>       0.02521198      -0.06998973       0.32749626 </v>
   <v>       0.00128083       0.22159158       0.12207122 </v>
   <v>      -0.00609262       0.21645980       0.04911125 </v>
   <v>       0.18753401       0.22550609       0.00153847 </v>
   <v>      -0.37219535       0.25584869       0.20705142 </v>
   <v>       0.22355135       0.21991076       0.06683089 </v>
   <v>      -0.38224777       0.17863869       0.11162344 </v>
   <v>       0.70753418       0.08892774       0.06739255 </v>
   <v>      -0.17946818      -0.20569056       0.12357393 </v>
   <v>       0.07446154      -0.22293421      -0.37001936 </v>
   <v>       0.26415205      -0.15091518       0.27214481 </v>
   <v>       0.05582530      -0.39255514       0.01815006 </v>
   <v>       0.05447325       0.13499367       0.49673592 </v>
   <v>       0.20202776      -0.39906985       0.09752928 </v>
   <v>       0.26546337      -0.24390942       0.25570283 </v>
   <v>       0.33929372       0.47245969      -0.53918303 </v>
   <v>      -0.20552003      -0.21932088      -0.31381956 </v>
   <v>      -0.14180498       0.27496493       0.56298081 </v>
   <v>       0.23971896       0.20303228       0.41627779 </v>
   <v>      -0.25090743       0.03538238      -0.81028381 </v>
   <v>       0.12107386      -0.51668751       0.04054799 </v>
   <v>       0.13609745      -0.37468992       0.07965191 </v>
   <v>       0.19272492      -0.22404456       0.16248856 </v>
   <v>       0.01554638      -0.27241594       0.06474223 </v>
  </varray>
  <varray name="stress" >
   <v>      73.61515465      -0.13613277      -1.12099102 </v>
   <v>      -0.13613250      72.18468393      -0.83296802 </v>
   <v>      -1.12099135      -0.83298293      73.16356961 </v>
  </varray>
  <energy>
   <i name="e_fr_energy">  -1095.13110441 </i>
   <i name="e_wo_entrp">  -1095.02280425 </i>
   <i name="e_0_energy">     -0.21660032 </i>
  </energy>
  <time name="totalsc">  659.38  664.17</time>
 </calculation>
 <calculation>
  <scstep>
   <time name="dav">   56.33   56.76</time>
   <time name="total">   58.96   59.41</time>
   <energy>
    <i name="alphaZ">   4871.05958751 </i>
    <i name="ewald"> -46954.52105403 </i>
    <i name="hartreedc"> -16409.64075277 </i>
    <i name="XCdc">  -2018.60977815 </i>
    <i name="pawpsdc">  85458.64899740 </i>
    <i name="pawaedc"> -80446.97661647 </i>
    <i name="eentropy">     -0.21660048 </i>
    <i name="bandstr">  -4810.63134328 </i>
    <i name="atom">  59215.75643617 </i>
    <i name="e_fr_energy">  -1095.13112410 </i>
    <i name="e_wo_entrp">  -1094.91452362 </i>
    <i name="e_0_energy">  -1095.02282386 </i>
   </energy>
  </scstep>
  <scstep>
   <time name="dav">   56.23   56.63</time>
   <time name="total">   58.84   59.26</time>
   <energy>
    <i name="e_fr_energy">  -1095.13112411 </i>
    <i name="e_wo_entrp">  -1094.91452346 </i>
    <i name="e_0_energy">  -1095.02282379 </i>
   </energy>
  </scstep>
  <scstep>
   <time name="dav">   56.41   56.80</time>
   <time name="total">   58.96   59.37</time>
   <energy>
    <i name="e_fr_energy">  -1095.13112413 </i>
    <i name="e_wo_entrp">  -1094.91452373 </i>
    <i name="e_0_energy">  -1095.02282393 </i>
   </energy>
  </scstep>
  <scstep>
   <time name="dav">   56.47   56.85</time>
   <time name="total">   58.98   59.37</time>
   <energy>
    <i name="e_fr_energy">  -1095.13112411 </i>
    <i name="e_wo_entrp">  -1094.91452341 </i>
    <i name="e_0_energy">  -1095.02282376 </i>
   </energy>
  </scstep>
  <scstep>
   <time name="dav">   56.55   56.92</time>
   <time name="total">   59.16   59.55</time>
   <energy>
    <i name="e_fr_energy">  -1095.13112411 </i>
    <i name="e_wo_entrp">  -1094.91452409 </i>
    <i name="e_0_energy">  -1095.02282410 </i>
   </energy>
  </scstep>
  <scstep>
   <time name="dav">   56.47   56.84</time>
   <time name="total">   59.11   59.50</time>
   <energy>
    <i name="e_fr_energy">  -1095.13112411 </i>
    <i name="e_wo_entrp">  -1094.91452322 </i>
    <i name="e_0_energy">  -1095.02282366 </i>
   </energy>
  </scstep>
  <scstep>
   <time name="dav">   56.53   56.92</time>
   <time name="total">   59.06   59.47</time>
   <energy>
    <i name="e_fr_energy">  -1095.13112411 </i>
    <i name="e_wo_entrp">  -1094.91452347 </i>
    <i name="e_0_energy">  -1095.02282379 </i>
   </energy>
  </scstep>
  <scstep>
   <time name="dav">   56.41   56.79</time>
   <time name="total">   59.01   59.41</time>
   <energy>
    <i name="e_fr_energy">  -1095.13112411 </i>
    <i name="e_wo_entrp">  -1094.91452357 </i>
    <i name="e_0_energy">  -1095.02282384 </i>
   </energy>
  </scstep>
  <scstep>
   <time name="dav">   56.11   56.50</time>
   <time name="total">   58.76   59.17</time>
   <energy>
    <i name="e_fr_energy">  -1095.13112411 </i>
    <i name="e_wo_entrp">  -1094.91452357 </i>
    <i name="e_0_energy">  -1095.02282384 </i>
   </energy>
  </scstep>
  <scstep>
   <time name="dav">   55.94   56.37</time>
   <time name="total">   56.43   56.87</time>
   <energy>
    <i name="alphaZ">   4871.05958751 </i>
    <i name="ewald"> -46954.52105403 </i>
    <i name="hartreedc"> -16409.64080173 </i>
    <i name="XCdc">  -2018.60977657 </i>
    <i name="pawpsdc">  85458.64627134 </i>
    <i name="pawaedc"> -80446.97388189 </i>
    <i name="eentropy">     -0.21660055 </i>
    <i name="bandstr">  -4810.63130435 </i>
    <i name="atom">  59215.75643617 </i>
    <i name="e_fr_energy">  -1095.13112411 </i>
    <i name="e_wo_entrp">  -1094.91452356 </i>
    <i name="e_0_energy">  -1095.02282383 </i>
   </energy>
  </scstep>
  <structure>
   <crystal>
    <varray name="basis" >
     <v>       9.12169973       0.00000000       0.00000000 </v>
     <v>       0.00000000       8.37880972       0.00000000 </v>
     <v>       0.00000000       0.00000000      23.69886622 </v>
    </varray>
    <i name="volume">   1811.28032179 </i>
    <varray name="rec_basis" >
     <v>       0.10962869       0.00000000       0.00000000 </v>
     <v>       0.00000000       0.11934869       0.00000000 </v>
     <v>       0.00000000       0.00000000       0.04219611 </v>
    </varray>
   </crystal>
   <varray name="positions" >
    <v>       0.49945717       0.22227243       0.22241603 </v>
    <v>       0.00070118       0.22205451       0.22234077 </v>
    <v>       0.24956005       0.22198081       0.05491567 </v>
    <v>       0.49996588       0.77759055       0.10992822 </v>
    <v>       0.00004795       0.44468439       0.10987807 </v>
    <v>       0.00148144       0.44486166       0.44440014 </v>
    <v>       0.25047156       0.77742870       0.61117867 </v>
    <v>       0.00060889       0.66659512       0.00018972 </v>
    <v>       0.75069806       0.55537664       0.72238026 </v>
    <v>       0.49987171       0.66677549       0.33331035 </v>
    <v>       0.24977592       0.88860132       0.72214347 </v>
    <v>       0.99984612       0.44512892       0.77684532 </v>
    <v>       0.00057451       0.33375202       0.66680047 </v>
    <v>       0.24951062       0.66690778       0.83242866 </v>
    <v>       0.74976410       0.11102736       0.61096570 </v>
    <v>       0.00123244       0.66637673       0.66781686 </v>
    <v>       0.24981463       0.77788080       0.27822730 </v>
    <v>       0.49921610       0.66707320       0.66579162 </v>
    <v>       0.50039648       0.77801080       0.77814821 </v>
    <v>       0.49961187       0.99881015       0.00014512 </v>
    <v>       0.50018019       0.11107501       0.77807375 </v>
    <v>       0.49998553       0.33307265       0.33347798 </v>
    <v>       0.00032032       0.88895854       0.22244519 </v>
    <v>       0.24911680       0.55574890       0.38946182 </v>
    <v>       0.49958214       0.66698097       0.00023152 </v>
    <v>       0.75027631       0.44531190       0.61028081 </v>
    <v>       0.75044206       0.77753263       0.61051784 </v>
    <v>       0.00020895       0.11107666       0.10979966 </v>
    <v>       0.24978244       0.99970668       0.83277714 </v>
    <v>       0.50091830       0.55580766       0.89011224 </v>
    <v>       0.99977438       0.89001285       0.88927226 </v>
    <v>       0.24996115       0.44405207       0.27790355 </v>
    <v>       0.49932172       0.55579543       0.55665783 </v>
    <v>       0.00061817       0.88896585       0.55521099 </v>
    <v>       0.50002708       0.33285617       0.66576051 </v>
    <v>       0.75033506       0.22197818       0.05468341 </v>
    <v>       0.50010698       0.11132238       0.44410212 </v>
    <v>       0.75008532       0.77771801       0.27803591 </v>
    <v>       0.75012042       0.11104979       0.27798675 </v>
    <v>       0.74989649       0.99987078       0.16659853 </v>
    <v>       0.99994881       0.55582707       0.88813616 </v>
    <v>       0.74858472       0.88985542       0.38919280 </v>
    <v>       0.50007465       0.88819263       0.89146736 </v>
    <v>       0.49984622       0.33398801       0.99987425 </v>
    <v>       0.50027798       0.22232851       0.88896697 </v>
    <v>       0.00042892       0.66696825       0.33363090 </v>
    <v>       0.74923593       0.22194247       0.38931825 </v>
    <v>       0.49905075       0.77891992       0.44452166 </v>
    <v>       0.75047247       0.11115583       0.94550435 </v>
    <v>       0.75029444       0.88945360       0.72203398 </v>
    <v>       0.24955179       0.55547222       0.72183386 </v>
    <v>       0.24927061       0.88921082       0.38901128 </v>
    <v>       0.00048412       0.22221846       0.55458295 </v>
    <v>       0.49985817       0.11085338       0.11061149 </v>
    <v>       0.74950566       0.55541758       0.38905430 </v>
    <v>       0.74989740       0.77778519       0.94553122 </v>
    <v>       0.75022894       0.66691646       0.50126506 </v>
    <v>       0.24989517       0.33323698       0.83304589 </v>
    <v>       0.00073197       0.99975969       0.33341596 </v>
    <v>       0.50055529       0.55542708       0.22160035 </v>
    <v>       0.74981024       0.33309458       0.50047325 </v>
    <v>       0.50030633       0.44425820       0.77787956 </v>
    <v>       0.00030115       0.33320097       0.33327573 </v>
    <v>       0.25006595       0.33336972       0.16670786 </v>
    <v>       0.00045932       0.55549436       0.55551173 </v>
    <v>       0.74995897       0.44461966       0.27791823 </v>
    <v>       0.00340421       0.77805406       0.44460205 </v>
    <v>       0.99920445       0.21998696       0.88904560 </v>
    <v>       0.49981687       0.44503749       0.11030931 </v>
    <v>       0.25293316       0.99832440       0.49862378 </v>
    <v>       0.49758329       0.22084767       0.55565206 </v>
    <v>       0.25146827       0.22226731       0.72288353 </v>
    <v>       0.74988949       0.99982728       0.50045880 </v>
    <v>       0.99998007       0.00010918       0.00008271 </v>
    <v>       0.75036008       0.66693378       0.83357885 </v>
    <v>       0.75136949       0.22074985       0.72236731 </v>
    <v>       0.25013305       0.66791043       0.50003903 </v>
    <v>       0.25045806       0.77713746       0.94463683 </v>
    <v>       0.24927900       0.33196863       0.49947645 </v>
    <v>       0.00092896       0.33329642       0.00034348 </v>
    <v>       0.99992977       0.77750540       0.11108480 </v>
    <v>       0.74872147       0.88993154       0.05567139 </v>
    <v>       0.50059382       0.99997644       0.33420436 </v>
    <v>       0.50088101       0.44620564       0.44431066 </v>
    <v>       0.74958925       0.33292517       0.83310679 </v>
    <v>       0.75005035       0.99724810       0.83355265 </v>
    <v>       0.00031881       0.55557723       0.22201012 </v>
    <v>       0.99868386       0.99904984       0.66654630 </v>
    <v>       0.74986852       0.55577792       0.05513007 </v>
    <v>       0.49967079       0.88857318       0.22231689 </v>
    <v>       0.74988295       0.33365027       0.16636037 </v>
    <v>       0.49572253       0.89001527       0.55533944 </v>
    <v>       0.25110623       0.88903065       0.05514550 </v>
    <v>       0.00126089       0.11082081       0.44462758 </v>
    <v>       0.25001601       0.99999079       0.16673626 </v>
    <v>       0.24836089       0.44751174       0.61071704 </v>
    <v>       0.25076309       0.11071119       0.61029431 </v>
    <v>       0.74754952       0.44482553       0.94522180 </v>
    <v>       0.25005873       0.55560233       0.05515171 </v>
    <v>       0.24941840       0.11098159       0.94520506 </v>
    <v>       0.25027455       0.66664661       0.16700368 </v>
    <v>       0.24944113       0.11201480       0.27803059 </v>
    <v>       0.99996294       0.77693734       0.77687635 </v>
    <v>       0.24935849       0.22138662       0.38996288 </v>
    <v>       0.99953975       0.11137892       0.77743094 </v>
    <v>       0.24980698       0.44471200       0.94527031 </v>
    <v>       0.74994366       0.66650248       0.16648827 </v>
    <v>       0.49965470       0.00101009       0.66609576 </v>
   </varray>
  </structure>
  <varray name="forces" >
   <v>      -0.02102426      -0.11226958       0.18320812 </v>
   <v>       0.08275522      -0.05825978       0.29902417 </v>
   <v>       0.26615126       0.31528717      -0.24000932 </v>
   <v>       0.16790173      -0.17635908       1.00732289 </v>
   <v>       0.22936046      -0.07622287       0.03142168 </v>
   <v>      -0.43076235      -0.04365670      -0.06258688 </v>
   <v>      -0.10032971      -0.29141212      -0.06983408 </v>
   <v>       0.25665814      -0.23999166      -0.03150004 </v>
   <v>      -0.40100311       0.02348492      -0.22573037 </v>
   <v>       0.15090045       0.00057561       0.16490554 </v>
   <v>       0.13105564      -0.07559789      -0.01063416 </v>
   <v>       0.23688316       0.03285819       0.24360895 </v>
   <v>       0.06108989       0.06293088      -0.19471180 </v>
   <v>      -0.12928252      -0.01428779       0.02434007 </v>
   <v>      -0.30852039      -0.01529742       0.13756428 </v>
   <v>      -0.27246447       0.22107429       0.08595622 </v>
   <v>      -0.03257315       0.29095175      -0.32553559 </v>
   <v>       0.34191781       0.23026023       0.53142226 </v>
   <v>      -0.10762723      -0.10719591       0.05270414 </v>
   <v>      -0.07090634       0.41599675      -0.15294422 </v>
   <v>      -0.06007965      -0.30974772      -0.47901374 </v>
   <v>      -0.04239030      -0.15470027       0.29869265 </v>
   <v>      -0.28062397       0.00400255       0.16740223 </v>
   <v>       0.13667404      -0.41233125      -0.28577566 </v>
   <v>      -0.26094497      -0.17168634      -0.20915658 </v>
   <v>       0.12588871       0.13229541      -0.04530734 </v>
   <v>      -0.08879108      -0.08928916      -0.02409498 </v>
   <v>       0.10644140       0.02503048       0.55455079 </v>
   <v>      -0.03386537       0.37193734       0.47222301 </v>
   <v>      -0.49713475      -0.28838471       0.01305823 </v>
   <v>       0.00041510      -0.12453044      -0.27192679 </v>
   <v>      -0.04496778      -0.38571556      -0.03703074 </v>
   <v>       0.01407066       0.06354968      -0.26310497 </v>
   <v>      -0.21457582      -0.18830486      -0.09660776 </v>
   <v>      -0.03419820      -0.24755630      -0.01632705 </v>
   <v>      -0.00934105       0.17899645       0.17635293 </v>
   <v>      -0.17341714       0.21910969      -0.20526477 </v>
   <v>      -0.07650983      -0.00469747      -0.51698184 </v>
   <v>       0.06153725       0.00229227       0.11346517 </v>
   <v>      -0.07735550      -0.28300017       0.17020524 </v>
   <v>       0.26617395      -0.19579689       0.30045084 </v>
   <v>       0.02577050      -0.12670640       0.08898875 </v>
   <v>      -0.10810310       0.02490837      -0.25012818 </v>
   <v>      -0.31738402      -0.00715526      -0.25754913 </v>
   <v>      -0.29411637      -0.02274836       0.18742695 </v>
   <v>       0.06962229      -0.00993401       0.08126726 </v>
   <v>       0.18077546       0.10147936      -0.01548256 </v>
   <v>       0.04875710      -0.27490020       0.00739662 </v>
   <v>      -0.08289666      -0.02325581      -0.29010071 </v>
   <v>      -0.06178477      -0.04582021      -0.08291619 </v>
   <v>       0.14877102      -0.05645372       0.03465221 </v>
   <v>       0.10832200       0.27877770      -0.09170661 </v>
   <v>       0.00740791       0.09517285       0.00582976 </v>
   <v>      -0.20624860       0.14291223       0.03100206 </v>
   <v>      -0.12741163      -0.03671187       0.07004851 </v>
   <v>      -0.01397164      -0.05323588      -0.10770131 </v>
   <v>       0.27922890       0.01331242      -0.23952715 </v>
   <v>      -0.10314744       0.19864692       0.40887587 </v>
   <v>       0.22263954       0.22511027      -0.12679781 </v>
   <v>      -0.07897542       0.39373915      -0.28791727 </v>
   <v>      -0.25081187       0.07485531      -0.13157773 </v>
   <v>       0.01973271       0.04800883       0.09910415 </v>
   <v>       0.17914485      -0.15595783       0.25651312 </v>
   <v>       0.17183321       0.22621045      -0.17256260 </v>
   <v>      -0.12508499       0.10878190       0.00083550 </v>
   <v>      -0.04330791      -0.04955851      -0.11888457 </v>
   <v>      -0.33455694      -0.11298925      -0.07474930 </v>
   <v>       0.33915753       0.24412214      -0.40079340 </v>
   <v>      -0.06245595      -0.13356350      -0.01864330 </v>
   <v>      -0.21225539       0.13077137       0.19793171 </v>
   <v>       0.09865921       0.15388884      -0.04575054 </v>
   <v>      -0.24225079       0.11734861       0.10835219 </v>
   <v>      -0.03042153      -0.02286789      -0.20401419 </v>
   <v>      -0.01251693       0.24129375      -0.13440647 </v>
   <v>       0.09085131       0.06890249      -0.38801654 </v>
   <v>       0.05929455       0.27431830       0.22594103 </v>
   <v>      -0.26003135       0.02388018      -0.17391678 </v>
   <v>      -0.12432473       0.05145898      -0.21846556 </v>
   <v>       0.38679517       0.26676485      -0.15401544 </v>
   <v>      -0.04909621      -0.04249137      -0.60650751 </v>
   <v>      -0.13157207      -0.03756234       0.38393071 </v>
   <v>       0.12484482       0.07500270      -0.01334204 </v>
   <v>      -0.05622556       0.00513458      -0.29766655 </v>
   <v>       0.33238798      -0.13271043      -0.05912427 </v>
   <v>       0.02520904      -0.06998952       0.32749484 </v>
   <v>       0.00128084       0.22159014       0.12206950 </v>
   <v>      -0.00609042       0.21646245       0.04911655 </v>
   <v>       0.18753261       0.22550329       0.00152990 </v>
   <v>      -0.37219599       0.25584823       0.20703590 </v>
   <v>       0.22355155       0.21990818       0.06683360 </v>
   <v>      -0.38224909       0.17863795       0.11162981 </v>
   <v>       0.70754235       0.08892918       0.06739391 </v>
   <v>      -0.17946648      -0.20569139       0.12356210 </v>
   <v>       0.07446485      -0.22293232      -0.37000684 </v>
   <v>       0.26415344      -0.15091315       0.27215118 </v>
   <v>       0.05583102      -0.39255358       0.01814676 </v>
   <v>       0.05447702       0.13499383       0.49673419 </v>
   <v>       0.20202450      -0.39906836       0.09754935 </v>
   <v>       0.26546340      -0.24390817       0.25570342 </v>
   <v>       0.33929777       0.47246028      -0.53917911 </v>
   <v>      -0.20551974      -0.21932181      -0.31382244 </v>
   <v>      -0.14180412       0.27496308       0.56297670 </v>
   <v>       0.23972263       0.20302592       0.41628045 </v>
   <v>      -0.25090577       0.03537586      -0.81028642 </v>
   <v>       0.12107896      -0.51668709       0.04055896 </v>
   <v>       0.13609929      -0.37469260       0.07965391 </v>
   <v>       0.19272484      -0.22404439       0.16249618 </v>
   <v>       0.01554734      -0.27241741       0.06474415 </v>
  </varray>
  <varray name="stress" >
   <v>      73.61510380      -0.13613614      -1.12098869 </v>
   <v>      -0.13613604      72.18471611      -0.83297913 </v>
   <v>      -1.12098877      -0.83299435      73.16343705 </v>
  </varray>
  <energy>
   <i name="e_fr_energy">  -1095.13112411 </i>
   <i name="e_wo_entrp">  -1095.02282383 </i>
   <i name="e_0_energy">     -0.21660055 </i>
  </energy>
  <time name="totalsc">  652.71  657.28</time>
 </calculation>
 <calculation>
  <scstep>
   <time name="dav">   56.12   56.57</time>
   <time name="total">   58.60   59.07</time>
   <energy>
    <i name="alphaZ">   4871.05958751 </i>
    <i name="ewald"> -46954.52286276 </i>
    <i name="hartreedc"> -16409.63903694 </i>
    <i name="XCdc">  -2018.60977661 </i>
    <i name="pawpsdc">  85458.64574687 </i>
    <i name="pawaedc"> -80446.97335478 </i>
    <i name="eentropy">     -0.21660060 </i>
    <i name="bandstr">  -4810.63127282 </i>
    <i name="atom">  59215.75643617 </i>
    <i name="e_fr_energy">  -1095.13113396 </i>
    <i name="e_wo_entrp">  -1094.91453336 </i>
    <i name="e_0_energy">  -1095.02283366 </i>
   </energy>
  </scstep>
  <scstep>
   <time name="dav">   56.01   56.41</time>
   <time name="total">   58.63   59.05</time>
   <energy>
    <i name="e_fr_energy">  -1095.13113396 </i>
    <i name="e_wo_entrp">  -1094.91453342 </i>
    <i name="e_0_energy">  -1095.02283369 </i>
   </energy>
  </scstep>
  <scstep>
   <time name="dav">   55.99   56.40</time>
   <time name="total">   58.53   58.96</time>
   <energy>
    <i name="e_fr_energy">  -1095.13113396 </i>
    <i name="e_wo_entrp">  -1094.91453292 </i>
    <i name="e_0_energy">  -1095.02283344 </i>
   </energy>
  </scstep>
  <scstep>
   <time name="dav">   56.02   56.45</time>
   <time name="total">   58.62   59.07</time>
   <energy>
    <i name="e_fr_energy">  -1095.13113396 </i>
    <i name="e_wo_entrp">  -1094.91453347 </i>
    <i name="e_0_energy">  -1095.02283372 </i>
   </energy>
  </scstep>
  <scstep>
   <time name="dav">   55.67   56.07</time>
   <time name="total">   58.22   58.64</time>
   <energy>
    <i name="e_fr_energy">  -1095.13113396 </i>
    <i name="e_wo_entrp">  -1094.91453303 </i>
    <i name="e_0_energy">  -1095.02283349 </i>
   </energy>
  </scstep>
  <scstep>
   <time name="dav">   55.44   55.83</time>
   <time name="total">   58.00   58.41</time>
   <energy>
    <i name="e_fr_energy">  -1095.13113396 </i>
    <i name="e_wo_entrp">  -1094.91453344 </i>
    <i name="e_0_energy">  -1095.02283370 </i>
   </energy>
  </scstep>
  <scstep>
   <time name="dav">   55.25   55.66</time>
   <time name="total">   57.85   58.28</time>
   <energy>
    <i name="e_fr_energy">  -1095.13113396 </i>
    <i name="e_wo_entrp">  -1094.91453329 </i>
    <i name="e_0_energy">  -1095.02283362 </i>
   </energy>
  </scstep>
  <scstep>
   <time name="dav">   54.99   55.37</time>
   <time name="total">   57.58   57.98</time>
   <energy>
    <i name="e_fr_energy">  -1095.13113396 </i>
    <i name="e_wo_entrp">  -1094.91453337 </i>
    <i name="e_0_energy">  -1095.02283366 </i>
   </energy>
  </scstep>
  <scstep>
   <time name="dav">   54.66   55.03</time>
   <time name="total">   57.26   57.65</time>
   <energy>
    <i name="e_fr_energy">  -1095.13113396 </i>
    <i name="e_wo_entrp">  -1094.91453331 </i>
    <i name="e_0_energy">  -1095.02283363 </i>
   </energy>
  </scstep>
  <scstep>
   <time name="dav">   55.64   56.01</time>
   <time name="total">   56.13   56.51</time>
   <energy>
    <i name="alphaZ">   4871.05958751 </i>
    <i name="ewald"> -46954.52286276 </i>
    <i name="hartreedc"> -16409.63903231 </i>
    <i name="XCdc">  -2018.60977610 </i>
    <i name="pawpsdc">  85458.64404992 </i>
    <i name="pawaedc"> -80446.97165322 </i>
    <i name="eentropy">     -0.21660059 </i>
    <i name="bandstr">  -4810.63128257 </i>
    <i name="atom">  59215.75643617 </i>
    <i name="e_fr_energy">  -1095.13113396 </i>
    <i name="e_wo_entrp">  -1094.91453336 </i>
    <i name="e_0_energy">  -1095.02283366 </i>
   </energy>
  </scstep>
  <structure>
   <crystal>
    <varray name="basis" >
     <v>       9.12169973       0.00000000       0.00000000 </v>
     <v>       0.00000000       8.37880972       0.00000000 </v>
     <v>       0.00000000       0.00000000      23.69886622 </v>
    </varray>
    <i name="volume">   1811.28032179 </i>
    <varray name="rec_basis" >
     <v>       0.10962869       0.00000000       0.00000000 </v>
     <v>       0.00000000       0.11934869       0.00000000 </v>
     <v>       0.00000000       0.00000000       0.04219611 </v>
    </varray>
   </crystal>
   <varray name="positions" >
    <v>       0.49945717       0.22227243       0.22241601 </v>
    <v>       0.00070118       0.22205451       0.22234077 </v>
    <v>       0.24956005       0.22198081       0.05491569 </v>
    <v>       0.49996588       0.77759055       0.10992827 </v>
    <v>       0.00004795       0.44468439       0.10987813 </v>
    <v>       0.00148144       0.44486166       0.44440013 </v>
    <v>       0.25047156       0.77742870       0.61117865 </v>
    <v>       0.00060889       0.66659512       0.00018971 </v>
    <v>       0.75069806       0.55537664       0.72238026 </v>
    <v>       0.49987171       0.66677549       0.33331035 </v>
    <v>       0.24977592       0.88860132       0.72214346 </v>
    <v>       0.99984612       0.44512892       0.77684538 </v>
    <v>       0.00057451       0.33375202       0.66680046 </v>
    <v>       0.24951062       0.66690778       0.83242873 </v>
    <v>       0.74976410       0.11102736       0.61096573 </v>
    <v>       0.00123244       0.66637673       0.66781679 </v>
    <v>       0.24981463       0.77788080       0.27822728 </v>
    <v>       0.49921610       0.66707320       0.66579166 </v>
    <v>       0.50039648       0.77801080       0.77814820 </v>
    <v>       0.49961187       0.99881015       0.00014513 </v>
    <v>       0.50018019       0.11107501       0.77807372 </v>
    <v>       0.49998553       0.33307265       0.33347798 </v>
    <v>       0.00032032       0.88895854       0.22244518 </v>
    <v>       0.24911680       0.55574890       0.38946181 </v>
    <v>       0.49958214       0.66698097       0.00023151 </v>
    <v>       0.75027631       0.44531190       0.61028085 </v>
    <v>       0.75044206       0.77753263       0.61051787 </v>
    <v>       0.00020895       0.11107666       0.10979972 </v>
    <v>       0.24978244       0.99970668       0.83277718 </v>
    <v>       0.50091830       0.55580766       0.89011221 </v>
    <v>       0.99977438       0.89001285       0.88927227 </v>
    <v>       0.24996115       0.44405207       0.27790354 </v>
    <v>       0.49932172       0.55579543       0.55665777 </v>
    <v>       0.00061817       0.88896585       0.55521102 </v>
    <v>       0.50002708       0.33285617       0.66576057 </v>
    <v>       0.75033506       0.22197818       0.05468346 </v>
    <v>       0.50010698       0.11132238       0.44410213 </v>
    <v>       0.75008532       0.77771801       0.27803590 </v>
    <v>       0.75012042       0.11104979       0.27798675 </v>
    <v>       0.74989649       0.99987078       0.16659853 </v>
    <v>       0.99994881       0.55582707       0.88813620 </v>
    <v>       0.74858472       0.88985542       0.38919279 </v>
    <v>       0.50007465       0.88819263       0.89146724 </v>
    <v>       0.49984622       0.33398801       0.99987426 </v>
    <v>       0.50027798       0.22232851       0.88896697 </v>
    <v>       0.00042892       0.66696825       0.33363089 </v>
    <v>       0.74923593       0.22194247       0.38931824 </v>
    <v>       0.49905075       0.77891992       0.44452165 </v>
    <v>       0.75047247       0.11115583       0.94550427 </v>
    <v>       0.75029444       0.88945360       0.72203399 </v>
    <v>       0.24955179       0.55547222       0.72183387 </v>
    <v>       0.24927061       0.88921082       0.38901131 </v>
    <v>       0.00048412       0.22221846       0.55458303 </v>
    <v>       0.49985817       0.11085338       0.11061150 </v>
    <v>       0.74950566       0.55541758       0.38905429 </v>
    <v>       0.74989740       0.77778519       0.94553113 </v>
    <v>       0.75022894       0.66691646       0.50126496 </v>
    <v>       0.24989517       0.33323698       0.83304591 </v>
    <v>       0.00073197       0.99975969       0.33341595 </v>
    <v>       0.50055529       0.55542708       0.22160037 </v>
    <v>       0.74981024       0.33309458       0.50047322 </v>
    <v>       0.50030633       0.44425820       0.77787956 </v>
    <v>       0.00030115       0.33320097       0.33327574 </v>
    <v>       0.25006595       0.33336972       0.16670786 </v>
    <v>       0.00045932       0.55549436       0.55551174 </v>
    <v>       0.74995897       0.44461966       0.27791823 </v>
    <v>       0.00340421       0.77805406       0.44460203 </v>
    <v>       0.99920445       0.21998696       0.88904559 </v>
    <v>       0.49981687       0.44503749       0.11030935 </v>
    <v>       0.25293316       0.99832440       0.49862382 </v>
    <v>       0.49758329       0.22084767       0.55565206 </v>
    <v>       0.25146827       0.22226731       0.72288353 </v>
    <v>       0.74988949       0.99982728       0.50045877 </v>
    <v>       0.99998007       0.00010918       0.00008270 </v>
    <v>       0.75036008       0.66693378       0.83357886 </v>
    <v>       0.75136949       0.22074985       0.72236735 </v>
    <v>       0.25013305       0.66791043       0.50003902 </v>
    <v>       0.25045806       0.77713746       0.94463681 </v>
    <v>       0.24927900       0.33196863       0.49947645 </v>
    <v>       0.00092896       0.33329642       0.00034346 </v>
    <v>       0.99992977       0.77750540       0.11108482 </v>
    <v>       0.74872147       0.88993154       0.05567139 </v>
    <v>       0.50059382       0.99997644       0.33420433 </v>
    <v>       0.50088101       0.44620564       0.44431063 </v>
    <v>       0.74958925       0.33292517       0.83310680 </v>
    <v>       0.75005035       0.99724810       0.83355265 </v>
    <v>       0.00031881       0.55557723       0.22201012 </v>
    <v>       0.99868386       0.99904984       0.66654633 </v>
    <v>       0.74986852       0.55577792       0.05513009 </v>
    <v>       0.49967079       0.88857318       0.22231688 </v>
    <v>       0.74988295       0.33365027       0.16636038 </v>
    <v>       0.49572253       0.89001527       0.55533944 </v>
    <v>       0.25110623       0.88903065       0.05514551 </v>
    <v>       0.00126089       0.11082081       0.44462756 </v>
    <v>       0.25001601       0.99999079       0.16673625 </v>
    <v>       0.24836089       0.44751174       0.61071703 </v>
    <v>       0.25076309       0.11071119       0.61029433 </v>
    <v>       0.74754952       0.44482553       0.94522175 </v>
    <v>       0.25005873       0.55560233       0.05515172 </v>
    <v>       0.24941840       0.11098159       0.94520503 </v>
    <v>       0.25027455       0.66664661       0.16700365 </v>
    <v>       0.24944113       0.11201480       0.27803057 </v>
    <v>       0.99996294       0.77693734       0.77687642 </v>
    <v>       0.24935849       0.22138662       0.38996286 </v>
    <v>       0.99953975       0.11137892       0.77743095 </v>
    <v>       0.24980698       0.44471200       0.94527028 </v>
    <v>       0.74994366       0.66650248       0.16648827 </v>
    <v>       0.49965470       0.00101009       0.66609579 </v>
   </varray>
  </structure>
  <varray name="forces" >
   <v>      -0.02102490      -0.11226809       0.18320942 </v>
   <v>       0.08275567      -0.05825838       0.29902748 </v>
   <v>       0.26614784       0.31528702      -0.24001172 </v>
   <v>       0.16790266      -0.17635851       1.00731446 </v>
   <v>       0.22936056      -0.07622387       0.03141413 </v>
   <v>      -0.43076058      -0.04365599      -0.06258363 </v>
   <v>      -0.10033037      -0.29141405      -0.06983304 </v>
   <v>       0.25665572      -0.23999270      -0.03149435 </v>
   <v>      -0.40099828       0.02348676      -0.22572824 </v>
   <v>       0.15089731       0.00057575       0.16490171 </v>
   <v>       0.13105391      -0.07560003      -0.01062863 </v>
   <v>       0.23688285       0.03286110       0.24360054 </v>
   <v>       0.06108855       0.06293317      -0.19470658 </v>
   <v>      -0.12928201      -0.01428589       0.02433234 </v>
   <v>      -0.30851963      -0.01529771       0.13756470 </v>
   <v>      -0.27246368       0.22107511       0.08596427 </v>
   <v>      -0.03257229       0.29095145      -0.32553314 </v>
   <v>       0.34191745       0.23025817       0.53141629 </v>
   <v>      -0.10763069      -0.10719542       0.05270014 </v>
   <v>      -0.07090776       0.41599188      -0.15294832 </v>
   <v>      -0.06008217      -0.30974913      -0.47901310 </v>
   <v>      -0.04239282      -0.15470094       0.29868850 </v>
   <v>      -0.28062472       0.00400384       0.16740153 </v>
   <v>       0.13667195      -0.41233197      -0.28577619 </v>
   <v>      -0.26094336      -0.17168458      -0.20915339 </v>
   <v>       0.12588769       0.13229309      -0.04531163 </v>
   <v>      -0.08878998      -0.08929004      -0.02409914 </v>
   <v>       0.10644317       0.02503046       0.55454378 </v>
   <v>      -0.03386594       0.37193785       0.47221615 </v>
   <v>      -0.49713510      -0.28838213       0.01306148 </v>
   <v>       0.00041556      -0.12453175      -0.27192525 </v>
   <v>      -0.04496752      -0.38571601      -0.03703209 </v>
   <v>       0.01407179       0.06354910      -0.26310425 </v>
   <v>      -0.21457757      -0.18830428      -0.09660459 </v>
   <v>      -0.03419773      -0.24755681      -0.01632455 </v>
   <v>      -0.00933885       0.17899469       0.17635537 </v>
   <v>      -0.17342022       0.21911058      -0.20526466 </v>
   <v>      -0.07651087      -0.00469780      -0.51698580 </v>
   <v>       0.06153672       0.00229413       0.11346116 </v>
   <v>      -0.07735628      -0.28299905       0.17020636 </v>
   <v>       0.26617346      -0.19579550       0.30045422 </v>
   <v>       0.02577125      -0.12670588       0.08898685 </v>
   <v>      -0.10810327       0.02490707      -0.25012955 </v>
   <v>      -0.31738601      -0.00715306      -0.25754599 </v>
   <v>      -0.29411770      -0.02274953       0.18742487 </v>
   <v>       0.06962522      -0.00993599       0.08126356 </v>
   <v>       0.18077608       0.10147823      -0.01548372 </v>
   <v>       0.04875335      -0.27489848       0.00739677 </v>
   <v>      -0.08289413      -0.02325672      -0.29010052 </v>
   <v>      -0.06178369      -0.04582009      -0.08291240 </v>
   <v>       0.14876805      -0.05645225       0.03465352 </v>
   <v>       0.10832092       0.27877944      -0.09170911 </v>
   <v>       0.00740747       0.09517265       0.00583074 </v>
   <v>      -0.20625036       0.14291157       0.03100227 </v>
   <v>      -0.12740875      -0.03671490       0.07004437 </v>
   <v>      -0.01397396      -0.05323816      -0.10770053 </v>
   <v>       0.27923235       0.01331400      -0.23952447 </v>
   <v>      -0.10314783       0.19864746       0.40887722 </v>
   <v>       0.22264328       0.22511050      -0.12680036 </v>
   <v>      -0.07897626       0.39373912      -0.28791738 </v>
   <v>      -0.25080947       0.07485411      -0.13157142 </v>
   <v>       0.01973232       0.04800937       0.09910043 </v>
   <v>       0.17914693      -0.15595782       0.25650990 </v>
   <v>       0.17183392       0.22620935      -0.17256122 </v>
   <v>      -0.12508647       0.10878024       0.00083387 </v>
   <v>      -0.04330829      -0.04955999      -0.11888581 </v>
   <v>      -0.33455394      -0.11298693      -0.07474676 </v>
   <v>       0.33915797       0.24412258      -0.40079327 </v>
   <v>      -0.06245568      -0.13356237      -0.01864419 </v>
   <v>      -0.21225745       0.13077460       0.19793052 </v>
   <v>       0.09866049       0.15389037      -0.04574865 </v>
   <v>      -0.24225269       0.11734942       0.10835324 </v>
   <v>      -0.03041998      -0.02286678      -0.20400935 </v>
   <v>      -0.01251685       0.24129512      -0.13440074 </v>
   <v>       0.09085229       0.06890122      -0.38802289 </v>
   <v>       0.05929577       0.27432034       0.22593837 </v>
   <v>      -0.26003339       0.02387868      -0.17391611 </v>
   <v>      -0.12432025       0.05145942      -0.21845503 </v>
   <v>       0.38679301       0.26676190      -0.15401470 </v>
   <v>      -0.04909599      -0.04249028      -0.60649766 </v>
   <v>      -0.13157304      -0.03756061       0.38392349 </v>
   <v>       0.12484341       0.07499980      -0.01334551 </v>
   <v>      -0.05622830       0.00513555      -0.29766617 </v>
   <v>       0.33238568      -0.13271204      -0.05912220 </v>
   <v>       0.02520868      -0.06998958       0.32749211 </v>
   <v>       0.00128097       0.22158954       0.12206500 </v>
   <v>      -0.00609001       0.21646305       0.04912050 </v>
   <v>       0.18753137       0.22550162       0.00152782 </v>
   <v>      -0.37219625       0.25584812       0.20702996 </v>
   <v>       0.22355235       0.21990748       0.06683499 </v>
   <v>      -0.38224945       0.17863618       0.11163487 </v>
   <v>       0.70754604       0.08892986       0.06739679 </v>
   <v>      -0.17946540      -0.20569143       0.12355649 </v>
   <v>       0.07446815      -0.22293099      -0.36999857 </v>
   <v>       0.26415416      -0.15091005       0.27215333 </v>
   <v>       0.05583364      -0.39255277       0.01814542 </v>
   <v>       0.05447718       0.13499474       0.49673447 </v>
   <v>       0.20202341      -0.39906753       0.09755538 </v>
   <v>       0.26546352      -0.24390806       0.25570353 </v>
   <v>       0.33929814       0.47246074      -0.53917580 </v>
   <v>      -0.20551890      -0.21932362      -0.31382382 </v>
   <v>      -0.14180381       0.27496261       0.56297461 </v>
   <v>       0.23972307       0.20302316       0.41628153 </v>
   <v>      -0.25090643       0.03537350      -0.81028875 </v>
   <v>       0.12108083      -0.51668680       0.04056357 </v>
   <v>       0.13609925      -0.37469336       0.07965562 </v>
   <v>       0.19272457      -0.22404332       0.16249875 </v>
   <v>       0.01554935      -0.27241680       0.06474625 </v>
  </varray>
  <varray name="stress" >
   <v>      73.61511326      -0.13612721      -1.12097735 </v>
   <v>      -0.13612660      72.18469538      -0.83297163 </v>
   <v>      -1.12097824      -0.83298643      73.16340994 </v>
  </varray>
  <energy>
   <i name="e_fr_energy">  -1095.13113396 </i>
   <i name="e_wo_entrp">  -1095.02283366 </i>
   <i name="e_0_energy">     -0.21660059 </i>
  </energy>
  <time name="totalsc">  645.29  649.94</time>
 </calculation>
 <calculation>
  <scstep>
   <time name="dav">   54.74   55.12</time>
   <time name="total">   57.26   57.65</time>
   <energy>
    <i name="alphaZ">   4871.05958751 </i>
    <i name="ewald"> -46954.52376712 </i>
    <i name="hartreedc"> -16409.63815287 </i>
    <i name="XCdc">  -2018.60977621 </i>
    <i name="pawpsdc">  85458.64382813 </i>
    <i name="pawaedc"> -80446.97143046 </i>
    <i name="eentropy">     -0.21660063 </i>
    <i name="bandstr">  -4810.63126342 </i>
    <i name="atom">  59215.75643617 </i>
    <i name="e_fr_energy">  -1095.13113888 </i>
    <i name="e_wo_entrp">  -1094.91453825 </i>
    <i name="e_0_energy">  -1095.02283857 </i>
   </energy>
  </scstep>
  <scstep>
   <time name="dav">   54.32   54.73</time>
   <time name="total">   56.92   57.34</time>
   <energy>
    <i name="e_fr_energy">  -1095.13113888 </i>
    <i name="e_wo_entrp">  -1094.91453812 </i>
    <i name="e_0_energy">  -1095.02283850 </i>
   </energy>
  </scstep>
  <scstep>
   <time name="dav">   55.49   55.92</time>
   <time name="total">   58.19   58.64</time>
   <energy>
    <i name="e_fr_energy">  -1095.13113888 </i>
    <i name="e_wo_entrp">  -1094.91453847 </i>
    <i name="e_0_energy">  -1095.02283868 </i>
   </energy>
  </scstep>
  <scstep>
   <time name="dav">   54.69   55.09</time>
   <time name="total">   57.26   57.68</time>
   <energy>
    <i name="e_fr_energy">  -1095.13113888 </i>
    <i name="e_wo_entrp">  -1094.91453815 </i>
    <i name="e_0_energy">  -1095.02283852 </i>
   </energy>
  </scstep>
  <scstep>
   <time name="dav">   54.60   55.02</time>
   <time name="total">   57.23   57.67</time>
   <energy>
    <i name="e_fr_energy">  -1095.13113888 </i>
    <i name="e_wo_entrp">  -1094.91453845 </i>
    <i name="e_0_energy">  -1095.02283867 </i>
   </energy>
  </scstep>
  <scstep>
   <time name="dav">   53.96   54.35</time>
   <time name="total">   56.53   56.93</time>
   <energy>
    <i name="e_fr_energy">  -1095.13113888 </i>
    <i name="e_wo_entrp">  -1094.91453823 </i>
    <i name="e_0_energy">  -1095.02283856 </i>
   </energy>
  </scstep>
  <scstep>
   <time name="dav">   53.99   54.38</time>
   <time name="total">   56.57   56.97</time>
   <energy>
    <i name="e_fr_energy">  -1095.13113888 </i>
    <i name="e_wo_entrp">  -1094.91453820 </i>
    <i name="e_0_energy">  -1095.02283854 </i>
   </energy>
  </scstep>
  <scstep>
   <time name="dav">   53.96   54.37</time>
   <time name="total">   56.50   56.92</time>
   <energy>
    <i name="e_fr_energy">  -1095.13113888 </i>
    <i name="e_wo_entrp">  -1094.91453823 </i>
    <i name="e_0_energy">  -1095.02283856 </i>
   </energy>
  </scstep>
  <scstep>
   <time name="dav">   53.96   54.33</time>
   <time name="total">   56.49   56.88</time>
   <energy>
    <i name="e_fr_energy">  -1095.13113888 </i>
    <i name="e_wo_entrp">  -1094.91453823 </i>
    <i name="e_0_energy">  -1095.02283856 </i>
   </energy>
  </scstep>
  <scstep>
   <time name="dav">   54.11   54.53</time>
   <time name="total">   54.60   55.02</time>
   <energy>
    <i name="alphaZ">   4871.05958751 </i>
    <i name="ewald"> -46954.52376712 </i>
    <i name="hartreedc"> -16409.63814987 </i>
    <i name="XCdc">  -2018.60977586 </i>
    <i name="pawpsdc">  85458.64319197 </i>
    <i name="pawaedc"> -80446.97079811 </i>
    <i name="eentropy">     -0.21660065 </i>
    <i name="bandstr">  -4810.63126292 </i>
    <i name="atom">  59215.75643617 </i>
    <i name="e_fr_energy">  -1095.13113888 </i>
    <i name="e_wo_entrp">  -1094.91453823 </i>
    <i name="e_0_energy">  -1095.02283855 </i>
   </energy>
  </scstep>
  <structure>
   <crystal>
    <varray name="basis" >
     <v>       9.12169973       0.00000000       0.00000000 </v>
     <v>       0.00000000       8.37880972       0.00000000 </v>
     <v>       0.00000000       0.00000000      23.69886622 </v>
    </varray>
    <i name="volume">   1811.28032179 </i>
    <varray name="rec_basis" >
     <v>       0.10962869       0.00000000       0.00000000 </v>
     <v>       0.00000000       0.11934869       0.00000000 </v>
     <v>       0.00000000       0.00000000       0.04219611 </v>
    </varray>
   </crystal>
   <varray name="positions" >
    <v>       0.49945717       0.22227243       0.22241601 </v>
    <v>       0.00070118       0.22205451       0.22234076 </v>
    <v>       0.24956005       0.22198081       0.05491570 </v>
    <v>       0.49996588       0.77759055       0.10992830 </v>
    <v>       0.00004795       0.44468439       0.10987816 </v>
    <v>       0.00148144       0.44486166       0.44440012 </v>
    <v>       0.25047156       0.77742870       0.61117864 </v>
    <v>       0.00060889       0.66659512       0.00018971 </v>
    <v>       0.75069806       0.55537664       0.72238025 </v>
    <v>       0.49987171       0.66677549       0.33331035 </v>
    <v>       0.24977592       0.88860132       0.72214345 </v>
    <v>       0.99984612       0.44512892       0.77684541 </v>
    <v>       0.00057451       0.33375202       0.66680045 </v>
    <v>       0.24951062       0.66690778       0.83242876 </v>
    <v>       0.74976410       0.11102736       0.61096574 </v>
    <v>       0.00123244       0.66637673       0.66781675 </v>
    <v>       0.24981463       0.77788080       0.27822727 </v>
    <v>       0.49921610       0.66707320       0.66579168 </v>
    <v>       0.50039648       0.77801080       0.77814820 </v>
    <v>       0.49961187       0.99881015       0.00014513 </v>
    <v>       0.50018019       0.11107501       0.77807371 </v>
    <v>       0.49998553       0.33307265       0.33347798 </v>
    <v>       0.00032032       0.88895854       0.22244518 </v>
    <v>       0.24911680       0.55574890       0.38946180 </v>
    <v>       0.49958214       0.66698097       0.00023151 </v>
    <v>       0.75027631       0.44531190       0.61028087 </v>
    <v>       0.75044206       0.77753263       0.61051789 </v>
    <v>       0.00020895       0.11107666       0.10979975 </v>
    <v>       0.24978244       0.99970668       0.83277719 </v>
    <v>       0.50091830       0.55580766       0.89011220 </v>
    <v>       0.99977438       0.89001285       0.88927228 </v>
    <v>       0.24996115       0.44405207       0.27790354 </v>
    <v>       0.49932172       0.55579543       0.55665774 </v>
    <v>       0.00061817       0.88896585       0.55521104 </v>
    <v>       0.50002708       0.33285617       0.66576060 </v>
    <v>       0.75033506       0.22197818       0.05468348 </v>
    <v>       0.50010698       0.11132238       0.44410214 </v>
    <v>       0.75008532       0.77771801       0.27803589 </v>
    <v>       0.75012042       0.11104979       0.27798674 </v>
    <v>       0.74989649       0.99987078       0.16659853 </v>
    <v>       0.99994881       0.55582707       0.88813622 </v>
    <v>       0.74858472       0.88985542       0.38919279 </v>
    <v>       0.50007465       0.88819263       0.89146717 </v>
    <v>       0.49984622       0.33398801       0.99987426 </v>
    <v>       0.50027798       0.22232851       0.88896697 </v>
    <v>       0.00042892       0.66696825       0.33363088 </v>
    <v>       0.74923593       0.22194247       0.38931823 </v>
    <v>       0.49905075       0.77891992       0.44452165 </v>
    <v>       0.75047247       0.11115583       0.94550424 </v>
    <v>       0.75029444       0.88945360       0.72203400 </v>
    <v>       0.24955179       0.55547222       0.72183387 </v>
    <v>       0.24927061       0.88921082       0.38901132 </v>
    <v>       0.00048412       0.22221846       0.55458307 </v>
    <v>       0.49985817       0.11085338       0.11061150 </v>
    <v>       0.74950566       0.55541758       0.38905429 </v>
    <v>       0.74989740       0.77778519       0.94553109 </v>
    <v>       0.75022894       0.66691646       0.50126492 </v>
    <v>       0.24989517       0.33323698       0.83304593 </v>
    <v>       0.00073197       0.99975969       0.33341595 </v>
    <v>       0.50055529       0.55542708       0.22160038 </v>
    <v>       0.74981024       0.33309458       0.50047320 </v>
    <v>       0.50030633       0.44425820       0.77787956 </v>
    <v>       0.00030115       0.33320097       0.33327574 </v>
    <v>       0.25006595       0.33336972       0.16670786 </v>
    <v>       0.00045932       0.55549436       0.55551175 </v>
    <v>       0.74995897       0.44461966       0.27791822 </v>
    <v>       0.00340421       0.77805406       0.44460202 </v>
    <v>       0.99920445       0.21998696       0.88904559 </v>
    <v>       0.49981687       0.44503749       0.11030936 </v>
    <v>       0.25293316       0.99832440       0.49862384 </v>
    <v>       0.49758329       0.22084767       0.55565206 </v>
    <v>       0.25146827       0.22226731       0.72288353 </v>
    <v>       0.74988949       0.99982728       0.50045875 </v>
    <v>       0.99998007       0.00010918       0.00008269 </v>
    <v>       0.75036008       0.66693378       0.83357887 </v>
    <v>       0.75136949       0.22074985       0.72236737 </v>
    <v>       0.25013305       0.66791043       0.50003902 </v>
    <v>       0.25045806       0.77713746       0.94463679 </v>
    <v>       0.24927900       0.33196863       0.49947645 </v>
    <v>       0.00092896       0.33329642       0.00034344 </v>
    <v>       0.99992977       0.77750540       0.11108483 </v>
    <v>       0.74872147       0.88993154       0.05567140 </v>
    <v>       0.50059382       0.99997644       0.33420431 </v>
    <v>       0.50088101       0.44620564       0.44431062 </v>
    <v>       0.74958925       0.33292517       0.83310680 </v>
    <v>       0.75005035       0.99724810       0.83355264 </v>
    <v>       0.00031881       0.55557723       0.22201012 </v>
    <v>       0.99868386       0.99904984       0.66654635 </v>
    <v>       0.74986852       0.55577792       0.05513011 </v>
    <v>       0.49967079       0.88857318       0.22231688 </v>
    <v>       0.74988295       0.33365027       0.16636038 </v>
    <v>       0.49572253       0.89001527       0.55533944 </v>
    <v>       0.25110623       0.88903065       0.05514552 </v>
    <v>       0.00126089       0.11082081       0.44462755 </v>
    <v>       0.25001601       0.99999079       0.16673625 </v>
    <v>       0.24836089       0.44751174       0.61071703 </v>
    <v>       0.25076309       0.11071119       0.61029433 </v>
    <v>       0.74754952       0.44482553       0.94522172 </v>
    <v>       0.25005873       0.55560233       0.05515173 </v>
    <v>       0.24941840       0.11098159       0.94520502 </v>
    <v>       0.25027455       0.66664661       0.16700364 </v>
    <v>       0.24944113       0.11201480       0.27803056 </v>
    <v>       0.99996294       0.77693734       0.77687645 </v>
    <v>       0.24935849       0.22138662       0.38996284 </v>
    <v>       0.99953975       0.11137892       0.77743096 </v>
    <v>       0.24980698       0.44471200       0.94527026 </v>
    <v>       0.74994366       0.66650248       0.16648828 </v>
    <v>       0.49965470       0.00101009       0.66609580 </v>
   </varray>
  </structure>
  <varray name="forces" >
   <v>      -0.02102531      -0.11226757       0.18321210 </v>
   <v>       0.08275599      -0.05825841       0.29902926 </v>
   <v>       0.26614608       0.31528747      -0.24001525 </v>
   <v>       0.16790310      -0.17635944       1.00731035 </v>
   <v>       0.22935992      -0.07622375       0.03140950 </v>
   <v>      -0.43076145      -0.04365547      -0.06258362 </v>
   <v>      -0.10032924      -0.29141505      -0.06983201 </v>
   <v>       0.25665354      -0.23999284      -0.03149277 </v>
   <v>      -0.40099500       0.02348776      -0.22572654 </v>
   <v>       0.15089734       0.00057681       0.16490236 </v>
   <v>       0.13105315      -0.07560128      -0.01062574 </v>
   <v>       0.23688383       0.03286245       0.24359741 </v>
   <v>       0.06108839       0.06293470      -0.19470212 </v>
   <v>      -0.12928211      -0.01428594       0.02432874 </v>
   <v>      -0.30852045      -0.01529874       0.13756500 </v>
   <v>      -0.27246259       0.22107535       0.08596964 </v>
   <v>      -0.03257163       0.29095131      -0.32553131 </v>
   <v>       0.34191685       0.23025850       0.53141411 </v>
   <v>      -0.10763307      -0.10719481       0.05269978 </v>
   <v>      -0.07090676       0.41598996      -0.15295408 </v>
   <v>      -0.06008426      -0.30974974      -0.47901032 </v>
   <v>      -0.04239248      -0.15470149       0.29868820 </v>
   <v>      -0.28062428       0.00400369       0.16740253 </v>
   <v>       0.13667198      -0.41233158      -0.28577627 </v>
   <v>      -0.26094165      -0.17168373      -0.20915289 </v>
   <v>       0.12588716       0.13229230      -0.04531368 </v>
   <v>      -0.08879083      -0.08929094      -0.02410242 </v>
   <v>       0.10644421       0.02503072       0.55453885 </v>
   <v>      -0.03386504       0.37193855       0.47221342 </v>
   <v>      -0.49713492      -0.28838113       0.01306307 </v>
   <v>       0.00041465      -0.12453310      -0.27192380 </v>
   <v>      -0.04496692      -0.38571585      -0.03703138 </v>
   <v>       0.01407320       0.06355044      -0.26310684 </v>
   <v>      -0.21457875      -0.18830403      -0.09660393 </v>
   <v>      -0.03419800      -0.24755776      -0.01632308 </v>
   <v>      -0.00933772       0.17899427       0.17635338 </v>
   <v>      -0.17341943       0.21910934      -0.20526636 </v>
   <v>      -0.07651128      -0.00469793      -0.51698455 </v>
   <v>       0.06153650       0.00229408       0.11346348 </v>
   <v>      -0.07735586      -0.28299951       0.17020748 </v>
   <v>       0.26617294      -0.19579470       0.30045553 </v>
   <v>       0.02576995      -0.12670613       0.08898715 </v>
   <v>      -0.10810183       0.02490790      -0.25012920 </v>
   <v>      -0.31738533      -0.00715298      -0.25754678 </v>
   <v>      -0.29411789      -0.02275084       0.18742421 </v>
   <v>       0.06962505      -0.00993537       0.08126263 </v>
   <v>       0.18077555       0.10147663      -0.01548342 </v>
   <v>       0.04875448      -0.27489782       0.00739593 </v>
   <v>      -0.08289542      -0.02325752      -0.29010040 </v>
   <v>      -0.06178330      -0.04582040      -0.08291074 </v>
   <v>       0.14876576      -0.05645129       0.03465490 </v>
   <v>       0.10832161       0.27877970      -0.09170936 </v>
   <v>       0.00740710       0.09517258       0.00583091 </v>
   <v>      -0.20625079       0.14291123       0.03100098 </v>
   <v>      -0.12740915      -0.03671481       0.07004441 </v>
   <v>      -0.01397570      -0.05323818      -0.10770087 </v>
   <v>       0.27923176       0.01331652      -0.23952737 </v>
   <v>      -0.10314750       0.19864744       0.40887828 </v>
   <v>       0.22264314       0.22510933      -0.12680018 </v>
   <v>      -0.07897637       0.39374007      -0.28791640 </v>
   <v>      -0.25081011       0.07485434      -0.13157283 </v>
   <v>       0.01973058       0.04800937       0.09910070 </v>
   <v>       0.17914660      -0.15595850       0.25651010 </v>
   <v>       0.17183340       0.22620934      -0.17256026 </v>
   <v>      -0.12508795       0.10878023       0.00083211 </v>
   <v>      -0.04330906      -0.04955969      -0.11888422 </v>
   <v>      -0.33455340      -0.11298595      -0.07474707 </v>
   <v>       0.33915815       0.24412264      -0.40079318 </v>
   <v>      -0.06245521      -0.13356118      -0.01864655 </v>
   <v>      -0.21225720       0.13077618       0.19793061 </v>
   <v>       0.09866125       0.15389056      -0.04574813 </v>
   <v>      -0.24225415       0.11734931       0.10835489 </v>
   <v>      -0.03042095      -0.02286703      -0.20400911 </v>
   <v>      -0.01251711       0.24129586      -0.13439940 </v>
   <v>       0.09085266       0.06890104      -0.38802430 </v>
   <v>       0.05929706       0.27432132       0.22593876 </v>
   <v>      -0.26003334       0.02387874      -0.17391671 </v>
   <v>      -0.12431731       0.05146016      -0.21845086 </v>
   <v>       0.38679266       0.26676089      -0.15401444 </v>
   <v>      -0.04909626      -0.04248991      -0.60649341 </v>
   <v>      -0.13157349      -0.03755971       0.38391901 </v>
   <v>       0.12484300       0.07499810      -0.01334961 </v>
   <v>      -0.05622856       0.00513540      -0.29766416 </v>
   <v>       0.33238586      -0.13271245      -0.05912207 </v>
   <v>       0.02520776      -0.06998971       0.32749242 </v>
   <v>       0.00128081       0.22158927       0.12206414 </v>
   <v>      -0.00608979       0.21646383       0.04912194 </v>
   <v>       0.18753092       0.22550083       0.00152895 </v>
   <v>      -0.37219621       0.25584810       0.20702638 </v>
   <v>       0.22355227       0.21990676       0.06683522 </v>
   <v>      -0.38224959       0.17863629       0.11163607 </v>
   <v>       0.70754816       0.08892981       0.06739734 </v>
   <v>      -0.17946497      -0.20569154       0.12355299 </v>
   <v>       0.07446899      -0.22293056      -0.36999613 </v>
   <v>       0.26415425      -0.15090964       0.27215393 </v>
   <v>       0.05583496      -0.39255240       0.01814486 </v>
   <v>       0.05447784       0.13499459       0.49673523 </v>
   <v>       0.20202249      -0.39906713       0.09755728 </v>
   <v>       0.26546350      -0.24390755       0.25570341 </v>
   <v>       0.33929952       0.47246089      -0.53917532 </v>
   <v>      -0.20551881      -0.21932369      -0.31382509 </v>
   <v>      -0.14180377       0.27496209       0.56297360 </v>
   <v>       0.23972384       0.20302152       0.41628301 </v>
   <v>      -0.25090596       0.03537166      -0.81028966 </v>
   <v>       0.12108213      -0.51668666       0.04056629 </v>
   <v>       0.13609953      -0.37469405       0.07965583 </v>
   <v>       0.19272450      -0.22404337       0.16250004 </v>
   <v>       0.01554963      -0.27241731       0.06474746 </v>
  </varray>
  <varray name="stress" >
   <v>      73.61510251      -0.13613294      -1.12097001 </v>
   <v>      -0.13613292      72.18469183      -0.83297269 </v>
   <v>      -1.12097019      -0.83298742      73.16336138 </v>
  </varray>
  <energy>
   <i name="e_fr_energy">  -1095.13113888 </i>
   <i name="e_wo_entrp">  -1095.02283855 </i>
   <i name="e_0_energy">     -0.21660065 </i>
  </energy>
  <time name="totalsc">  633.20  637.83</time>
 </calculation>
 <calculation>
  <scstep>
   <time name="dav">   54.12   54.49</time>
   <time name="total">   56.70   57.09</time>
   <energy>
    <i name="alphaZ">   4871.05958751 </i>
    <i name="ewald"> -46954.52421930 </i>
    <i name="hartreedc"> -16409.63770045 </i>
    <i name="XCdc">  -2018.60977610 </i>
    <i name="pawpsdc">  85458.64294803 </i>
    <i name="pawaedc"> -80446.97055465 </i>
    <i name="eentropy">     -0.21660066 </i>
    <i name="bandstr">  -4810.63126190 </i>
    <i name="atom">  59215.75643617 </i>
    <i name="e_fr_energy">  -1095.13114134 </i>
    <i name="e_wo_entrp">  -1094.91454068 </i>
    <i name="e_0_energy">  -1095.02284101 </i>
   </energy>
  </scstep>
  <scstep>
   <time name="dav">   54.16   54.56</time>
   <time name="total">   56.79   57.22</time>
   <energy>
    <i name="e_fr_energy">  -1095.13114134 </i>
    <i name="e_wo_entrp">  -1094.91454066 </i>
    <i name="e_0_energy">  -1095.02284100 </i>
   </energy>
  </scstep>
  <scstep>
   <time name="dav">   54.11   54.47</time>
   <time name="total">   56.65   57.04</time>
   <energy>
    <i name="e_fr_energy">  -1095.13114134 </i>
    <i name="e_wo_entrp">  -1094.91454063 </i>
    <i name="e_0_energy">  -1095.02284098 </i>
   </energy>
  </scstep>
  <scstep>
   <time name="dav">   54.24   54.61</time>
   <time name="total">   56.82   57.21</time>
   <energy>
    <i name="e_fr_energy">  -1095.13114134 </i>
    <i name="e_wo_entrp">  -1094.91454070 </i>
    <i name="e_0_energy">  -1095.02284102 </i>
   </energy>
  </scstep>
  <scstep>
   <time name="dav">   54.80   55.20</time>
   <time name="total">   57.59   58.01</time>
   <energy>
    <i name="e_fr_energy">  -1095.13114134 </i>
    <i name="e_wo_entrp">  -1094.91454063 </i>
    <i name="e_0_energy">  -1095.02284098 </i>
   </energy>
  </scstep>
  <scstep>
   <time name="dav">   54.29   54.67</time>
   <time name="total">   56.96   57.37</time>
   <energy>
    <i name="e_fr_energy">  -1095.13114134 </i>
    <i name="e_wo_entrp">  -1094.91454072 </i>
    <i name="e_0_energy">  -1095.02284103 </i>
   </energy>
  </scstep>
  <scstep>
   <time name="dav">   54.14   54.56</time>
   <time name="total">   56.76   57.20</time>
   <energy>
    <i name="e_fr_energy">  -1095.13114134 </i>
    <i name="e_wo_entrp">  -1094.91454066 </i>
    <i name="e_0_energy">  -1095.02284100 </i>
   </energy>
  </scstep>
  <scstep>
   <time name="dav">   53.84   54.21</time>
   <time name="total">   56.36   56.74</time>
   <energy>
    <i name="e_fr_energy">  -1095.13114134 </i>
    <i name="e_wo_entrp">  -1094.91454068 </i>
    <i name="e_0_energy">  -1095.02284101 </i>
   </energy>
  </scstep>
  <scstep>
   <time name="dav">   54.04   54.40</time>
   <time name="total">   56.46   56.84</time>
   <energy>
    <i name="e_fr_energy">  -1095.13114134 </i>
    <i name="e_wo_entrp">  -1094.91454067 </i>
    <i name="e_0_energy">  -1095.02284100 </i>
   </energy>
  </scstep>
  <scstep>
   <time name="dav">   53.95   54.34</time>
   <time name="total">   54.45   54.83</time>
   <energy>
    <i name="alphaZ">   4871.05958751 </i>
    <i name="ewald"> -46954.52421930 </i>
    <i name="hartreedc"> -16409.63770450 </i>
    <i name="XCdc">  -2018.60977585 </i>
    <i name="pawpsdc">  85458.64240349 </i>
    <i name="pawaedc"> -80446.97000895 </i>
    <i name="eentropy">     -0.21660066 </i>
    <i name="bandstr">  -4810.63125924 </i>
    <i name="atom">  59215.75643617 </i>
    <i name="e_fr_energy">  -1095.13114134 </i>
    <i name="e_wo_entrp">  -1094.91454068 </i>
    <i name="e_0_energy">  -1095.02284101 </i>
   </energy>
  </scstep>
  <structure>
   <crystal>
    <varray name="basis" >
     <v>       9.12169973       0.00000000       0.00000000 </v>
     <v>       0.00000000       8.37880972       0.00000000 </v>
     <v>       0.00000000       0.00000000      23.69886622 </v>
    </varray>
    <i name="volume">   1811.28032179 </i>
    <varray name="rec_basis" >
     <v>       0.10962869       0.00000000       0.00000000 </v>
     <v>       0.00000000       0.11934869       0.00000000 </v>
     <v>       0.00000000       0.00000000       0.04219611 </v>
    </varray>
   </crystal>
   <varray name="positions" >
    <v>       0.49945717       0.22227243       0.22241600 </v>
    <v>       0.00070118       0.22205451       0.22234076 </v>
    <v>       0.24956005       0.22198081       0.05491570 </v>
    <v>       0.49996588       0.77759055       0.10992831 </v>
    <v>       0.00004795       0.44468439       0.10987818 </v>
    <v>       0.00148144       0.44486166       0.44440012 </v>
    <v>       0.25047156       0.77742870       0.61117864 </v>
    <v>       0.00060889       0.66659512       0.00018971 </v>
    <v>       0.75069806       0.55537664       0.72238025 </v>
    <v>       0.49987171       0.66677549       0.33331035 </v>
    <v>       0.24977592       0.88860132       0.72214345 </v>
    <v>       0.99984612       0.44512892       0.77684542 </v>
    <v>       0.00057451       0.33375202       0.66680045 </v>
    <v>       0.24951062       0.66690778       0.83242878 </v>
    <v>       0.74976410       0.11102736       0.61096574 </v>
    <v>       0.00123244       0.66637673       0.66781673 </v>
    <v>       0.24981463       0.77788080       0.27822726 </v>
    <v>       0.49921610       0.66707320       0.66579169 </v>
    <v>       0.50039648       0.77801080       0.77814819 </v>
    <v>       0.49961187       0.99881015       0.00014513 </v>
    <v>       0.50018019       0.11107501       0.77807370 </v>
    <v>       0.49998553       0.33307265       0.33347798 </v>
    <v>       0.00032032       0.88895854       0.22244517 </v>
    <v>       0.24911680       0.55574890       0.38946180 </v>
    <v>       0.49958214       0.66698097       0.00023150 </v>
    <v>       0.75027631       0.44531190       0.61028088 </v>
    <v>       0.75044206       0.77753263       0.61051789 </v>
    <v>       0.00020895       0.11107666       0.10979976 </v>
    <v>       0.24978244       0.99970668       0.83277720 </v>
    <v>       0.50091830       0.55580766       0.89011219 </v>
    <v>       0.99977438       0.89001285       0.88927228 </v>
    <v>       0.24996115       0.44405207       0.27790354 </v>
    <v>       0.49932172       0.55579543       0.55665773 </v>
    <v>       0.00061817       0.88896585       0.55521104 </v>
    <v>       0.50002708       0.33285617       0.66576062 </v>
    <v>       0.75033506       0.22197818       0.05468349 </v>
    <v>       0.50010698       0.11132238       0.44410214 </v>
    <v>       0.75008532       0.77771801       0.27803589 </v>
    <v>       0.75012042       0.11104979       0.27798674 </v>
    <v>       0.74989649       0.99987078       0.16659852 </v>
    <v>       0.99994881       0.55582707       0.88813623 </v>
    <v>       0.74858472       0.88985542       0.38919279 </v>
    <v>       0.50007465       0.88819263       0.89146714 </v>
    <v>       0.49984622       0.33398801       0.99987426 </v>
    <v>       0.50027798       0.22232851       0.88896697 </v>
    <v>       0.00042892       0.66696825       0.33363088 </v>
    <v>       0.74923593       0.22194247       0.38931823 </v>
    <v>       0.49905075       0.77891992       0.44452165 </v>
    <v>       0.75047247       0.11115583       0.94550422 </v>
    <v>       0.75029444       0.88945360       0.72203400 </v>
    <v>       0.24955179       0.55547222       0.72183387 </v>
    <v>       0.24927061       0.88921082       0.38901133 </v>
    <v>       0.00048412       0.22221846       0.55458309 </v>
    <v>       0.49985817       0.11085338       0.11061151 </v>
    <v>       0.74950566       0.55541758       0.38905429 </v>
    <v>       0.74989740       0.77778519       0.94553107 </v>
    <v>       0.75022894       0.66691646       0.50126489 </v>
    <v>       0.24989517       0.33323698       0.83304593 </v>
    <v>       0.00073197       0.99975969       0.33341595 </v>
    <v>       0.50055529       0.55542708       0.22160039 </v>
    <v>       0.74981024       0.33309458       0.50047319 </v>
    <v>       0.50030633       0.44425820       0.77787956 </v>
    <v>       0.00030115       0.33320097       0.33327574 </v>
    <v>       0.25006595       0.33336972       0.16670785 </v>
    <v>       0.00045932       0.55549436       0.55551175 </v>
    <v>       0.74995897       0.44461966       0.27791822 </v>
    <v>       0.00340421       0.77805406       0.44460201 </v>
    <v>       0.99920445       0.21998696       0.88904558 </v>
    <v>       0.49981687       0.44503749       0.11030937 </v>
    <v>       0.25293316       0.99832440       0.49862385 </v>
    <v>       0.49758329       0.22084767       0.55565206 </v>
    <v>       0.25146827       0.22226731       0.72288353 </v>
    <v>       0.74988949       0.99982728       0.50045874 </v>
    <v>       0.99998007       0.00010918       0.00008268 </v>
    <v>       0.75036008       0.66693378       0.83357887 </v>
    <v>       0.75136949       0.22074985       0.72236738 </v>
    <v>       0.25013305       0.66791043       0.50003901 </v>
    <v>       0.25045806       0.77713746       0.94463679 </v>
    <v>       0.24927900       0.33196863       0.49947645 </v>
    <v>       0.00092896       0.33329642       0.00034344 </v>
    <v>       0.99992977       0.77750540       0.11108483 </v>
    <v>       0.74872147       0.88993154       0.05567140 </v>
    <v>       0.50059382       0.99997644       0.33420430 </v>
    <v>       0.50088101       0.44620564       0.44431062 </v>
    <v>       0.74958925       0.33292517       0.83310680 </v>
    <v>       0.75005035       0.99724810       0.83355264 </v>
    <v>       0.00031881       0.55557723       0.22201012 </v>
    <v>       0.99868386       0.99904984       0.66654636 </v>
    <v>       0.74986852       0.55577792       0.05513011 </v>
    <v>       0.49967079       0.88857318       0.22231688 </v>
    <v>       0.74988295       0.33365027       0.16636039 </v>
    <v>       0.49572253       0.89001527       0.55533944 </v>
    <v>       0.25110623       0.88903065       0.05514552 </v>
    <v>       0.00126089       0.11082081       0.44462754 </v>
    <v>       0.25001601       0.99999079       0.16673625 </v>
    <v>       0.24836089       0.44751174       0.61071703 </v>
    <v>       0.25076309       0.11071119       0.61029433 </v>
    <v>       0.74754952       0.44482553       0.94522171 </v>
    <v>       0.25005873       0.55560233       0.05515173 </v>
    <v>       0.24941840       0.11098159       0.94520501 </v>
    <v>       0.25027455       0.66664661       0.16700364 </v>
    <v>       0.24944113       0.11201480       0.27803056 </v>
    <v>       0.99996294       0.77693734       0.77687647 </v>
    <v>       0.24935849       0.22138662       0.38996284 </v>
    <v>       0.99953975       0.11137892       0.77743097 </v>
    <v>       0.24980698       0.44471200       0.94527026 </v>
    <v>       0.74994366       0.66650248       0.16648828 </v>
    <v>       0.49965470       0.00101009       0.66609581 </v>
   </varray>
  </structure>
  <varray name="forces" >
   <v>      -0.02101254      -0.11227300       0.18322772 </v>
   <v>       0.08276892      -0.05826371       0.29904559 </v>
   <v>       0.26615845       0.31528179      -0.24000027 </v>
   <v>       0.16791620      -0.17636475       1.00732402 </v>
   <v>       0.22937270      -0.07622963       0.03142328 </v>
   <v>      -0.43074821      -0.04366091      -0.06256737 </v>
   <v>      -0.10031647      -0.29142119      -0.06981622 </v>
   <v>       0.25666595      -0.23999884      -0.03147548 </v>
   <v>      -0.40098108       0.02348235      -0.22571048 </v>
   <v>       0.15090958       0.00057107       0.16491686 </v>
   <v>       0.13106561      -0.07560742      -0.01060890 </v>
   <v>       0.23689655       0.03285747       0.24361080 </v>
   <v>       0.06110094       0.06292957      -0.19468544 </v>
   <v>      -0.12926901      -0.01429107       0.02434246 </v>
   <v>      -0.30850743      -0.01530443       0.13758062 </v>
   <v>      -0.27244954       0.22106983       0.08598697 </v>
   <v>      -0.03255862       0.29094554      -0.32551528 </v>
   <v>       0.34192967       0.23025231       0.53142831 </v>
   <v>      -0.10762118      -0.10720053       0.05271425 </v>
   <v>      -0.07089414       0.41598357      -0.15293909 </v>
   <v>      -0.06007205      -0.30975561      -0.47899483 </v>
   <v>      -0.04238017      -0.15470730       0.29870278 </v>
   <v>      -0.28061159       0.00399834       0.16741787 </v>
   <v>       0.13668422      -0.41233755      -0.28576091 </v>
   <v>      -0.26092851      -0.17168926      -0.20913638 </v>
   <v>       0.12589984       0.13228600      -0.04529898 </v>
   <v>      -0.08877771      -0.08929687      -0.02408803 </v>
   <v>       0.10645735       0.02502516       0.55455271 </v>
   <v>      -0.03385236       0.37193310       0.47222729 </v>
   <v>      -0.49712214      -0.28838627       0.01307938 </v>
   <v>       0.00042776      -0.12453889      -0.27190787 </v>
   <v>      -0.04495406      -0.38572165      -0.03701607 </v>
   <v>       0.01408637       0.06354459      -0.26309107 </v>
   <v>      -0.21456630      -0.18830953      -0.09658763 </v>
   <v>      -0.03418502      -0.24756349      -0.01630669 </v>
   <v>      -0.01071568       0.17959904       0.17468815 </v>
   <v>      -0.17340725       0.21910419      -0.20525077 </v>
   <v>      -0.07649852      -0.00470381      -0.51696988 </v>
   <v>       0.06154931       0.00228890       0.11347806 </v>
   <v>      -0.07734327      -0.28300473       0.17022309 </v>
   <v>       0.26618578      -0.19580017       0.30047200 </v>
   <v>       0.02578331      -0.12671175       0.08900215 </v>
   <v>      -0.10808910       0.02490196      -0.25011410 </v>
   <v>      -0.31737272      -0.00715829      -0.25753005 </v>
   <v>      -0.29410522      -0.02275663       0.18743948 </v>
   <v>       0.06963847      -0.00994160       0.08127728 </v>
   <v>       0.18078868       0.10147085      -0.01546825 </v>
   <v>       0.04876664      -0.27490311       0.00741147 </v>
   <v>      -0.08288190      -0.02326306      -0.29008438 </v>
   <v>      -0.06177020      -0.04582606      -0.08289424 </v>
   <v>       0.14877810      -0.05645665       0.03467079 </v>
   <v>       0.10833394       0.27877457      -0.09169451 </v>
   <v>       0.00741990       0.09516690       0.00584687 </v>
   <v>      -0.20623822       0.14290559       0.03101630 </v>
   <v>      -0.12739542      -0.03672127       0.07005885 </v>
   <v>      -0.01396346      -0.05324430      -0.10768504 </v>
   <v>       0.27924570       0.01331121      -0.23951131 </v>
   <v>      -0.10313462       0.19864193       0.40889408 </v>
   <v>       0.22265685       0.22510371      -0.12678530 </v>
   <v>      -0.07896360       0.39373437      -0.28790089 </v>
   <v>      -0.25079659       0.07484845      -0.13155583 </v>
   <v>       0.01974351       0.04800383       0.09911531 </v>
   <v>       0.17915990      -0.15596406       0.25652486 </v>
   <v>       0.17184647       0.22620333      -0.17254449 </v>
   <v>      -0.12507546       0.10877410       0.00084727 </v>
   <v>      -0.04329612      -0.04956567      -0.11886882 </v>
   <v>      -0.33453971      -0.11299113      -0.07473120 </v>
   <v>       0.33917108       0.24411721      -0.40077741 </v>
   <v>      -0.06244208      -0.13356679      -0.01863063 </v>
   <v>      -0.21224485       0.13077136       0.19794657 </v>
   <v>       0.09867444       0.15388514      -0.04573213 </v>
   <v>      -0.24224187       0.11734393       0.10837059 </v>
   <v>      -0.03040758      -0.02287251      -0.20399286 </v>
   <v>      -0.01250439       0.24129052      -0.13438244 </v>
   <v>       0.09086587       0.06889510      -0.38800995 </v>
   <v>       0.05931031       0.27431622       0.22595429 </v>
   <v>      -0.26002122       0.02387271      -0.17390125 </v>
   <v>      -0.12430337       0.05145459      -0.21843292 </v>
   <v>       0.38680487       0.26675447      -0.15399885 </v>
   <v>      -0.04908343      -0.04249539      -0.60647532 </v>
   <v>      -0.13156090      -0.03756483       0.38393335 </v>
   <v>       0.12485556       0.07499201      -0.01333457 </v>
   <v>      -0.05621655       0.00512997      -0.29764923 </v>
   <v>       0.33239806      -0.13271859      -0.05910680 </v>
   <v>       0.02522051      -0.06999531       0.32750763 </v>
   <v>       0.00129370       0.22158343       0.12207899 </v>
   <v>      -0.00607668       0.21645834       0.04913821 </v>
   <v>       0.18754353       0.22549476       0.00154473 </v>
   <v>      -0.37218341       0.25584225       0.20704115 </v>
   <v>       0.22356531       0.21990102       0.06685083 </v>
   <v>      -0.38223695       0.17863004       0.11165266 </v>
   <v>       0.70756188       0.08892451       0.06741354 </v>
   <v>      -0.17945178      -0.20569719       0.12356758 </v>
   <v>       0.07448264      -0.22293592      -0.36997892 </v>
   <v>       0.26416750      -0.15091448       0.27216985 </v>
   <v>       0.05584826      -0.39255787       0.01815968 </v>
   <v>       0.05449072       0.13498908       0.49675079 </v>
   <v>       0.20203503      -0.39907283       0.09757406 </v>
   <v>       0.26547647      -0.24391321       0.25571916 </v>
   <v>       0.33931247       0.47245527      -0.53915884 </v>
   <v>      -0.20550577      -0.21932972      -0.31381003 </v>
   <v>      -0.14179082       0.27495630       0.56298855 </v>
   <v>       0.23973692       0.20301515       0.41629912 </v>
   <v>      -0.25089333       0.03536554      -0.81027482 </v>
   <v>       0.12109548      -0.51669225       0.04058303 </v>
   <v>       0.13611260      -0.37469999       0.07967201 </v>
   <v>       0.19273736      -0.22404871       0.16251616 </v>
   <v>       0.01556293      -0.27242276       0.06476355 </v>
  </varray>
  <varray name="stress" >
   <v>      73.61395340      -0.13562633      -1.12235532 </v>
   <v>      -0.13562591      72.18446266      -0.83236244 </v>
   <v>      -1.12235574      -0.83237713      73.16168440 </v>
  </varray>
  <energy>
   <i name="e_fr_energy">  -1095.13114134 </i>
   <i name="e_wo_entrp">  -1095.02284101 </i>
   <i name="e_0_energy">     -0.21660066 </i>
  </energy>
  <time name="totalsc">  630.78  635.23</time>
 </calculation>
 <calculation>
  <scstep>
   <time name="dav">   54.47   54.88</time>
   <time name="total">   57.15   57.58</time>
   <energy>
    <i name="alphaZ">   4871.05958751 </i>
    <i name="ewald"> -46954.52444538 </i>
    <i name="hartreedc"> -16409.63748448 </i>
    <i name="XCdc">  -2018.60977586 </i>
    <i name="pawpsdc">  85458.64234302 </i>
    <i name="pawaedc"> -80446.96994804 </i>
    <i name="eentropy">     -0.21660067 </i>
    <i name="bandstr">  -4810.63125485 </i>
    <i name="atom">  59215.75643617 </i>
    <i name="e_fr_energy">  -1095.13114257 </i>
    <i name="e_wo_entrp">  -1094.91454190 </i>
    <i name="e_0_energy">  -1095.02284224 </i>
   </energy>
  </scstep>
  <scstep>
   <time name="dav">   54.66   55.07</time>
   <time name="total">   57.21   57.65</time>
   <energy>
    <i name="e_fr_energy">  -1095.13114257 </i>
    <i name="e_wo_entrp">  -1094.91454184 </i>
    <i name="e_0_energy">  -1095.02284221 </i>
   </energy>
  </scstep>
  <scstep>
   <time name="dav">   54.06   54.45</time>
   <time name="total">   56.61   57.02</time>
   <energy>
    <i name="e_fr_energy">  -1095.13114257 </i>
    <i name="e_wo_entrp">  -1094.91454197 </i>
    <i name="e_0_energy">  -1095.02284227 </i>
   </energy>
  </scstep>
  <scstep>
   <time name="dav">   53.92   54.32</time>
   <time name="total">   56.51   56.93</time>
   <energy>
    <i name="e_fr_energy">  -1095.13114257 </i>
    <i name="e_wo_entrp">  -1094.91454188 </i>
    <i name="e_0_energy">  -1095.02284223 </i>
   </energy>
  </scstep>
  <scstep>
   <time name="dav">   54.00   54.38</time>
   <time name="total">   56.57   56.97</time>
   <energy>
    <i name="e_fr_energy">  -1095.13114257 </i>
    <i name="e_wo_entrp">  -1094.91454193 </i>
    <i name="e_0_energy">  -1095.02284225 </i>
   </energy>
  </scstep>
  <scstep>
   <time name="dav">   53.94   54.36</time>
   <time name="total">   56.45   56.88</time>
   <energy>
    <i name="e_fr_energy">  -1095.13114257 </i>
    <i name="e_wo_entrp">  -1094.91454190 </i>
    <i name="e_0_energy">  -1095.02284224 </i>
   </energy>
  </scstep>
  <scstep>
   <time name="dav">   53.97   54.34</time>
   <time name="total">   56.52   56.91</time>
   <energy>
    <i name="e_fr_energy">  -1095.13114257 </i>
    <i name="e_wo_entrp">  -1094.91454189 </i>
    <i name="e_0_energy">  -1095.02284223 </i>
   </energy>
  </scstep>
  <scstep>
   <time name="dav">   53.95   54.36</time>
   <time name="total">   56.48   56.90</time>
   <energy>
    <i name="e_fr_energy">  -1095.13114257 </i>
    <i name="e_wo_entrp">  -1094.91454190 </i>
    <i name="e_0_energy">  -1095.02284224 </i>
   </energy>
  </scstep>
  <scstep>
   <time name="dav">   54.09   54.48</time>
   <time name="total">   56.69   57.10</time>
   <energy>
    <i name="e_fr_energy">  -1095.13114257 </i>
    <i name="e_wo_entrp">  -1094.91454190 </i>
    <i name="e_0_energy">  -1095.02284223 </i>
   </energy>
  </scstep>
  <scstep>
   <time name="dav">   54.15   54.52</time>
   <time name="total">   54.64   55.01</time>
   <energy>
    <i name="alphaZ">   4871.05958751 </i>
    <i name="ewald"> -46954.52444538 </i>
    <i name="hartreedc"> -16409.63748770 </i>
    <i name="XCdc">  -2018.60977569 </i>
    <i name="pawpsdc">  85458.64220645 </i>
    <i name="pawaedc"> -80446.96981092 </i>
    <i name="eentropy">     -0.21660068 </i>
    <i name="bandstr">  -4810.63125234 </i>
    <i name="atom">  59215.75643617 </i>
    <i name="e_fr_energy">  -1095.13114257 </i>
    <i name="e_wo_entrp">  -1094.91454190 </i>
    <i name="e_0_energy">  -1095.02284223 </i>
   </energy>
  </scstep>
  <structure>
   <crystal>
    <varray name="basis" >
     <v>       9.12169973       0.00000000       0.00000000 </v>
     <v>       0.00000000       8.37880972       0.00000000 </v>
     <v>       0.00000000       0.00000000      23.69886622 </v>
    </varray>
    <i name="volume">   1811.28032179 </i>
    <varray name="rec_basis" >
     <v>       0.10962869       0.00000000       0.00000000 </v>
     <v>       0.00000000       0.11934869       0.00000000 </v>
     <v>       0.00000000       0.00000000       0.04219611 </v>
    </varray>
   </crystal>
   <varray name="positions" >
    <v>       0.49945717       0.22227243       0.22241600 </v>
    <v>       0.00070118       0.22205451       0.22234076 </v>
    <v>       0.24956005       0.22198081       0.05491571 </v>
    <v>       0.49996588       0.77759055       0.10992831 </v>
    <v>       0.00004795       0.44468439       0.10987819 </v>
    <v>       0.00148144       0.44486166       0.44440012 </v>
    <v>       0.25047156       0.77742870       0.61117863 </v>
    <v>       0.00060889       0.66659512       0.00018971 </v>
    <v>       0.75069806       0.55537664       0.72238025 </v>
    <v>       0.49987171       0.66677549       0.33331035 </v>
    <v>       0.24977592       0.88860132       0.72214345 </v>
    <v>       0.99984612       0.44512892       0.77684543 </v>
    <v>       0.00057451       0.33375202       0.66680044 </v>
    <v>       0.24951062       0.66690778       0.83242878 </v>
    <v>       0.74976410       0.11102736       0.61096575 </v>
    <v>       0.00123244       0.66637673       0.66781673 </v>
    <v>       0.24981463       0.77788080       0.27822726 </v>
    <v>       0.49921610       0.66707320       0.66579169 </v>
    <v>       0.50039648       0.77801080       0.77814819 </v>
    <v>       0.49961187       0.99881015       0.00014513 </v>
    <v>       0.50018019       0.11107501       0.77807370 </v>
    <v>       0.49998553       0.33307265       0.33347798 </v>
    <v>       0.00032032       0.88895854       0.22244517 </v>
    <v>       0.24911680       0.55574890       0.38946180 </v>
    <v>       0.49958214       0.66698097       0.00023150 </v>
    <v>       0.75027631       0.44531190       0.61028089 </v>
    <v>       0.75044206       0.77753263       0.61051790 </v>
    <v>       0.00020895       0.11107666       0.10979977 </v>
    <v>       0.24978244       0.99970668       0.83277721 </v>
    <v>       0.50091830       0.55580766       0.89011218 </v>
    <v>       0.99977438       0.89001285       0.88927228 </v>
    <v>       0.24996115       0.44405207       0.27790353 </v>
    <v>       0.49932172       0.55579543       0.55665772 </v>
    <v>       0.00061817       0.88896585       0.55521105 </v>
    <v>       0.50002708       0.33285617       0.66576063 </v>
    <v>       0.75033506       0.22197818       0.05468350 </v>
    <v>       0.50010698       0.11132238       0.44410215 </v>
    <v>       0.75008532       0.77771801       0.27803589 </v>
    <v>       0.75012042       0.11104979       0.27798674 </v>
    <v>       0.74989649       0.99987078       0.16659852 </v>
    <v>       0.99994881       0.55582707       0.88813624 </v>
    <v>       0.74858472       0.88985542       0.38919278 </v>
    <v>       0.50007465       0.88819263       0.89146713 </v>
    <v>       0.49984622       0.33398801       0.99987426 </v>
    <v>       0.50027798       0.22232851       0.88896697 </v>
    <v>       0.00042892       0.66696825       0.33363088 </v>
    <v>       0.74923593       0.22194247       0.38931823 </v>
    <v>       0.49905075       0.77891992       0.44452165 </v>
    <v>       0.75047247       0.11115583       0.94550421 </v>
    <v>       0.75029444       0.88945360       0.72203400 </v>
    <v>       0.24955179       0.55547222       0.72183387 </v>
    <v>       0.24927061       0.88921082       0.38901133 </v>
    <v>       0.00048412       0.22221846       0.55458310 </v>
    <v>       0.49985817       0.11085338       0.11061151 </v>
    <v>       0.74950566       0.55541758       0.38905429 </v>
    <v>       0.74989740       0.77778519       0.94553105 </v>
    <v>       0.75022894       0.66691646       0.50126488 </v>
    <v>       0.24989517       0.33323698       0.83304593 </v>
    <v>       0.00073197       0.99975969       0.33341594 </v>
    <v>       0.50055529       0.55542708       0.22160039 </v>
    <v>       0.74981024       0.33309458       0.50047319 </v>
    <v>       0.50030633       0.44425820       0.77787956 </v>
    <v>       0.00030115       0.33320097       0.33327574 </v>
    <v>       0.25006595       0.33336972       0.16670785 </v>
    <v>       0.00045932       0.55549436       0.55551175 </v>
    <v>       0.74995897       0.44461966       0.27791822 </v>
    <v>       0.00340421       0.77805406       0.44460201 </v>
    <v>       0.99920445       0.21998696       0.88904558 </v>
    <v>       0.49981687       0.44503749       0.11030938 </v>
    <v>       0.25293316       0.99832440       0.49862385 </v>
    <v>       0.49758329       0.22084767       0.55565206 </v>
    <v>       0.25146827       0.22226731       0.72288353 </v>
    <v>       0.74988949       0.99982728       0.50045874 </v>
    <v>       0.99998007       0.00010918       0.00008268 </v>
    <v>       0.75036008       0.66693378       0.83357887 </v>
    <v>       0.75136949       0.22074985       0.72236739 </v>
    <v>       0.25013305       0.66791043       0.50003901 </v>
    <v>       0.25045806       0.77713746       0.94463678 </v>
    <v>       0.24927900       0.33196863       0.49947645 </v>
    <v>       0.00092896       0.33329642       0.00034343 </v>
    <v>       0.99992977       0.77750540       0.11108484 </v>
    <v>       0.74872147       0.88993154       0.05567140 </v>
    <v>       0.50059382       0.99997644       0.33420430 </v>
    <v>       0.50088101       0.44620564       0.44431061 </v>
    <v>       0.74958925       0.33292517       0.83310680 </v>
    <v>       0.75005035       0.99724810       0.83355264 </v>
    <v>       0.00031881       0.55557723       0.22201012 </v>
    <v>       0.99868386       0.99904984       0.66654636 </v>
    <v>       0.74986852       0.55577792       0.05513012 </v>
    <v>       0.49967079       0.88857318       0.22231688 </v>
    <v>       0.74988295       0.33365027       0.16636039 </v>
    <v>       0.49572253       0.89001527       0.55533944 </v>
    <v>       0.25110623       0.88903065       0.05514552 </v>
    <v>       0.00126089       0.11082081       0.44462754 </v>
    <v>       0.25001601       0.99999079       0.16673625 </v>
    <v>       0.24836089       0.44751174       0.61071703 </v>
    <v>       0.25076309       0.11071119       0.61029434 </v>
    <v>       0.74754952       0.44482553       0.94522171 </v>
    <v>       0.25005873       0.55560233       0.05515173 </v>
    <v>       0.24941840       0.11098159       0.94520501 </v>
    <v>       0.25027455       0.66664661       0.16700363 </v>
    <v>       0.24944113       0.11201480       0.27803056 </v>
    <v>       0.99996294       0.77693734       0.77687647 </v>
    <v>       0.24935849       0.22138662       0.38996283 </v>
    <v>       0.99953975       0.11137892       0.77743097 </v>
    <v>       0.24980698       0.44471200       0.94527025 </v>
    <v>       0.74994366       0.66650248       0.16648828 </v>
    <v>       0.49965470       0.00101009       0.66609581 </v>
   </varray>
  </structure>
  <varray name="forces" >
   <v>      -0.02101258      -0.11227281       0.18322850 </v>
   <v>       0.08276894      -0.05826370       0.29904611 </v>
   <v>       0.26615787       0.31528191      -0.24000111 </v>
   <v>       0.16791632      -0.17636503       1.00732307 </v>
   <v>       0.22937254      -0.07622962       0.03142219 </v>
   <v>      -0.43074844      -0.04366080      -0.06256742 </v>
   <v>      -0.10031616      -0.29142147      -0.06981596 </v>
   <v>       0.25666543      -0.23999892      -0.03147510 </v>
   <v>      -0.40098029       0.02348262      -0.22571010 </v>
   <v>       0.15090967       0.00057129       0.16491698 </v>
   <v>       0.13106542      -0.07560777      -0.01060822 </v>
   <v>       0.23689686       0.03285782       0.24361002 </v>
   <v>       0.06110091       0.06292997      -0.19468433 </v>
   <v>      -0.12926905      -0.01429118       0.02434147 </v>
   <v>      -0.30850768      -0.01530467       0.13758071 </v>
   <v>      -0.27244924       0.22106988       0.08598831 </v>
   <v>      -0.03255843       0.29094547      -0.32551482 </v>
   <v>       0.34192950       0.23025231       0.53142778 </v>
   <v>      -0.10762175      -0.10720041       0.05271406 </v>
   <v>      -0.07089401       0.41598297      -0.15294048 </v>
   <v>      -0.06007258      -0.30975567      -0.47899415 </v>
   <v>      -0.04237998      -0.15470740       0.29870270 </v>
   <v>      -0.28061155       0.00399830       0.16741818 </v>
   <v>       0.13668422      -0.41233750      -0.28576092 </v>
   <v>      -0.26092811      -0.17168904      -0.20913624 </v>
   <v>       0.12589964       0.13228577      -0.04529947 </v>
   <v>      -0.08877796      -0.08929709      -0.02408878 </v>
   <v>       0.10645759       0.02502523       0.55455156 </v>
   <v>      -0.03385216       0.37193334       0.47222657 </v>
   <v>      -0.49712213      -0.28838612       0.01307969 </v>
   <v>       0.00042758      -0.12453927      -0.27190756 </v>
   <v>      -0.04495389      -0.38572161      -0.03701588 </v>
   <v>       0.01408669       0.06354487      -0.26309168 </v>
   <v>      -0.21456660      -0.18830948      -0.09658744 </v>
   <v>      -0.03418510      -0.24756369      -0.01630633 </v>
   <v>      -0.01071523       0.17959898       0.17468784 </v>
   <v>      -0.17340702       0.21910395      -0.20525119 </v>
   <v>      -0.07649866      -0.00470389      -0.51696957 </v>
   <v>       0.06154925       0.00228895       0.11347867 </v>
   <v>      -0.07734311      -0.28300484       0.17022350 </v>
   <v>       0.26618570      -0.19579996       0.30047229 </v>
   <v>       0.02578298      -0.12671182       0.08900215 </v>
   <v>      -0.10808880       0.02490217      -0.25011409 </v>
   <v>      -0.31737262      -0.00715819      -0.25753032 </v>
   <v>      -0.29410538      -0.02275687       0.18743913 </v>
   <v>       0.06963834      -0.00994152       0.08127701 </v>
   <v>       0.18078856       0.10147052      -0.01546828 </v>
   <v>       0.04876693      -0.27490301       0.00741127 </v>
   <v>      -0.08288216      -0.02326323      -0.29008443 </v>
   <v>      -0.06177009      -0.04582614      -0.08289387 </v>
   <v>       0.14877755      -0.05645647       0.03467112 </v>
   <v>       0.10833413       0.27877463      -0.09169457 </v>
   <v>       0.00741979       0.09516690       0.00584692 </v>
   <v>      -0.20623830       0.14290549       0.03101611 </v>
   <v>      -0.12739552      -0.03672132       0.07005875 </v>
   <v>      -0.01396382      -0.05324440      -0.10768510 </v>
   <v>       0.27924552       0.01331179      -0.23951205 </v>
   <v>      -0.10313449       0.19864195       0.40889428 </v>
   <v>       0.22265674       0.22510346      -0.12678531 </v>
   <v>      -0.07896356       0.39373460      -0.28790054 </v>
   <v>      -0.25079680       0.07484850      -0.13155620 </v>
   <v>       0.01974300       0.04800380       0.09911533 </v>
   <v>       0.17915972      -0.15596419       0.25652488 </v>
   <v>       0.17184632       0.22620335      -0.17254418 </v>
   <v>      -0.12507580       0.10877409       0.00084685 </v>
   <v>      -0.04329633      -0.04956561      -0.11886836 </v>
   <v>      -0.33453955      -0.11299087      -0.07473141 </v>
   <v>       0.33917116       0.24411730      -0.40077754 </v>
   <v>      -0.06244199      -0.13356641      -0.01863079 </v>
   <v>      -0.21224478       0.13077179       0.19794680 </v>
   <v>       0.09867462       0.15388520      -0.04573196 </v>
   <v>      -0.24224219       0.11734394       0.10837094 </v>
   <v>      -0.03040779      -0.02287255      -0.20399299 </v>
   <v>      -0.01250437       0.24129073      -0.13438228 </v>
   <v>       0.09086596       0.06889500      -0.38801031 </v>
   <v>       0.05931057       0.27431648       0.22595452 </v>
   <v>      -0.26002119       0.02387268      -0.17390149 </v>
   <v>      -0.12430264       0.05145477      -0.21843214 </v>
   <v>       0.38680483       0.26675424      -0.15399882 </v>
   <v>      -0.04908342      -0.04249531      -0.60647443 </v>
   <v>      -0.13156098      -0.03756461       0.38393248 </v>
   <v>       0.12485546       0.07499154      -0.01333550 </v>
   <v>      -0.05621656       0.00512998      -0.29764880 </v>
   <v>       0.33239806      -0.13271873      -0.05910688 </v>
   <v>       0.02522026      -0.06999535       0.32750763 </v>
   <v>       0.00129365       0.22158341       0.12207856 </v>
   <v>      -0.00607668       0.21645852       0.04913875 </v>
   <v>       0.18754341       0.22549460       0.00154521 </v>
   <v>      -0.37218334       0.25584230       0.20704060 </v>
   <v>       0.22356535       0.21990082       0.06685106 </v>
   <v>      -0.38223694       0.17863010       0.11165330 </v>
   <v>       0.70756240       0.08892453       0.06741368 </v>
   <v>      -0.17945169      -0.20569724       0.12356680 </v>
   <v>       0.07448284      -0.22293582      -0.36997848 </v>
   <v>       0.26416747      -0.15091438       0.27217011 </v>
   <v>       0.05584865      -0.39255780       0.01815951 </v>
   <v>       0.05449095       0.13498908       0.49675101 </v>
   <v>       0.20203486      -0.39907269       0.09757401 </v>
   <v>       0.26547645      -0.24391307       0.25571915 </v>
   <v>       0.33931282       0.47245532      -0.53915878 </v>
   <v>      -0.20550574      -0.21932978      -0.31381031 </v>
   <v>      -0.14179081       0.27495619       0.56298835 </v>
   <v>       0.23973707       0.20301476       0.41629946 </v>
   <v>      -0.25089325       0.03536512      -0.81027506 </v>
   <v>       0.12109581      -0.51669220       0.04058366 </v>
   <v>       0.13611260      -0.37470016       0.07967198 </v>
   <v>       0.19273733      -0.22404873       0.16251659 </v>
   <v>       0.01556303      -0.27242286       0.06476382 </v>
  </varray>
  <varray name="stress" >
   <v>      73.61395043      -0.13562737      -1.12235358 </v>
   <v>      -0.13562719      72.18446204      -0.83236230 </v>
   <v>      -1.12235395      -0.83237722      73.16167227 </v>
  </varray>
  <energy>
   <i name="e_fr_energy">  -1095.13114257 </i>
   <i name="e_wo_entrp">  -1095.02284223 </i>
   <i name="e_0_energy">     -0.21660068 </i>
  </energy>
  <time name="totalsc">  630.48  635.10</time>
 </calculation>
 <calculation>
  <scstep>
   <time name="dav">   54.15   54.52</time>
   <time name="total">   56.82   57.21</time>
   <energy>
    <i name="alphaZ">   4871.05958751 </i>
    <i name="ewald"> -46954.52455843 </i>
    <i name="hartreedc"> -16409.63737521 </i>
    <i name="XCdc">  -2018.60977574 </i>
    <i name="pawpsdc">  85458.64216679 </i>
    <i name="pawaedc"> -80446.96977115 </i>
    <i name="eentropy">     -0.21660068 </i>
    <i name="bandstr">  -4810.63125245 </i>
    <i name="atom">  59215.75643617 </i>
    <i name="e_fr_energy">  -1095.13114319 </i>
    <i name="e_wo_entrp">  -1094.91454251 </i>
    <i name="e_0_energy">  -1095.02284285 </i>
   </energy>
  </scstep>
  <scstep>
   <time name="dav">   54.24   54.63</time>
   <time name="total">   56.77   57.18</time>
   <energy>
    <i name="e_fr_energy">  -1095.13114319 </i>
    <i name="e_wo_entrp">  -1094.91454251 </i>
    <i name="e_0_energy">  -1095.02284285 </i>
   </energy>
  </scstep>
  <scstep>
   <time name="dav">   54.21   54.62</time>
   <time name="total">   56.78   57.22</time>
   <energy>
    <i name="e_fr_energy">  -1095.13114319 </i>
    <i name="e_wo_entrp">  -1094.91454249 </i>
    <i name="e_0_energy">  -1095.02284284 </i>
   </energy>
  </scstep>
  <scstep>
   <time name="dav">   54.52   54.93</time>
   <time name="total">   57.10   57.53</time>
   <energy>
    <i name="e_fr_energy">  -1095.13114319 </i>
    <i name="e_wo_entrp">  -1094.91454251 </i>
    <i name="e_0_energy">  -1095.02284285 </i>
   </energy>
  </scstep>
  <scstep>
   <time name="dav">   56.66   57.14</time>
   <time name="total">   59.23   59.73</time>
   <energy>
    <i name="e_fr_energy">  -1095.13114319 </i>
    <i name="e_wo_entrp">  -1094.91454249 </i>
    <i name="e_0_energy">  -1095.02284284 </i>
   </energy>
  </scstep>
  <scstep>
   <time name="dav">   54.01   54.38</time>
   <time name="total">   56.53   56.92</time>
   <energy>
    <i name="e_fr_energy">  -1095.13114319 </i>
    <i name="e_wo_entrp">  -1094.91454252 </i>
    <i name="e_0_energy">  -1095.02284285 </i>
   </energy>
  </scstep>
  <scstep>
   <time name="dav">   54.17   54.58</time>
   <time name="total">   56.73   57.16</time>
   <energy>
    <i name="e_fr_energy">  -1095.13114319 </i>
    <i name="e_wo_entrp">  -1094.91454250 </i>
    <i name="e_0_energy">  -1095.02284285 </i>
   </energy>
  </scstep>
  <scstep>
   <time name="dav">   53.89   54.26</time>
   <time name="total">   56.40   56.79</time>
   <energy>
    <i name="e_fr_energy">  -1095.13114319 </i>
    <i name="e_wo_entrp">  -1094.91454251 </i>
    <i name="e_0_energy">  -1095.02284285 </i>
   </energy>
  </scstep>
  <scstep>
   <time name="dav">   53.93   54.34</time>
   <time name="total">   56.54   56.97</time>
   <energy>
    <i name="e_fr_energy">  -1095.13114319 </i>
    <i name="e_wo_entrp">  -1094.91454251 </i>
    <i name="e_0_energy">  -1095.02284285 </i>
   </energy>
  </scstep>
  <scstep>
   <time name="dav">   53.69   54.05</time>
   <time name="total">   54.18   54.55</time>
   <energy>
    <i name="alphaZ">   4871.05958751 </i>
    <i name="ewald"> -46954.52455843 </i>
    <i name="hartreedc"> -16409.63737615 </i>
    <i name="XCdc">  -2018.60977569 </i>
    <i name="pawpsdc">  85458.64202701 </i>
    <i name="pawaedc"> -80446.96963134 </i>
    <i name="eentropy">     -0.21660068 </i>
    <i name="bandstr">  -4810.63125159 </i>
    <i name="atom">  59215.75643617 </i>
    <i name="e_fr_energy">  -1095.13114319 </i>
    <i name="e_wo_entrp">  -1094.91454251 </i>
    <i name="e_0_energy">  -1095.02284285 </i>
   </energy>
  </scstep>
  <structure>
   <crystal>
    <varray name="basis" >
     <v>       9.12169973       0.00000000       0.00000000 </v>
     <v>       0.00000000       8.37880972       0.00000000 </v>
     <v>       0.00000000       0.00000000      23.69886622 </v>
    </varray>
    <i name="volume">   1811.28032179 </i>
    <varray name="rec_basis" >
     <v>       0.10962869       0.00000000       0.00000000 </v>
     <v>       0.00000000       0.11934869       0.00000000 </v>
     <v>       0.00000000       0.00000000       0.04219611 </v>
    </varray>
   </crystal>
   <varray name="positions" >
    <v>       0.49945717       0.22227243       0.22241600 </v>
    <v>       0.00070118       0.22205451       0.22234076 </v>
    <v>       0.24956005       0.22198081       0.05491571 </v>
    <v>       0.49996588       0.77759055       0.10992832 </v>
    <v>       0.00004795       0.44468439       0.10987819 </v>
    <v>       0.00148144       0.44486166       0.44440011 </v>
    <v>       0.25047156       0.77742870       0.61117863 </v>
    <v>       0.00060889       0.66659512       0.00018971 </v>
    <v>       0.75069806       0.55537664       0.72238025 </v>
    <v>       0.49987171       0.66677549       0.33331035 </v>
    <v>       0.24977592       0.88860132       0.72214345 </v>
    <v>       0.99984612       0.44512892       0.77684543 </v>
    <v>       0.00057451       0.33375202       0.66680044 </v>
    <v>       0.24951062       0.66690778       0.83242879 </v>
    <v>       0.74976410       0.11102736       0.61096575 </v>
    <v>       0.00123244       0.66637673       0.66781672 </v>
    <v>       0.24981463       0.77788080       0.27822726 </v>
    <v>       0.49921610       0.66707320       0.66579170 </v>
    <v>       0.50039648       0.77801080       0.77814819 </v>
    <v>       0.49961187       0.99881015       0.00014513 </v>
    <v>       0.50018019       0.11107501       0.77807370 </v>
    <v>       0.49998553       0.33307265       0.33347798 </v>
    <v>       0.00032032       0.88895854       0.22244517 </v>
    <v>       0.24911680       0.55574890       0.38946179 </v>
    <v>       0.49958214       0.66698097       0.00023150 </v>
    <v>       0.75027631       0.44531190       0.61028089 </v>
    <v>       0.75044206       0.77753263       0.61051790 </v>
    <v>       0.00020895       0.11107666       0.10979977 </v>
    <v>       0.24978244       0.99970668       0.83277721 </v>
    <v>       0.50091830       0.55580766       0.89011218 </v>
    <v>       0.99977438       0.89001285       0.88927228 </v>
    <v>       0.24996115       0.44405207       0.27790353 </v>
    <v>       0.49932172       0.55579543       0.55665772 </v>
    <v>       0.00061817       0.88896585       0.55521105 </v>
    <v>       0.50002708       0.33285617       0.66576063 </v>
    <v>       0.75033506       0.22197818       0.05468350 </v>
    <v>       0.50010698       0.11132238       0.44410215 </v>
    <v>       0.75008532       0.77771801       0.27803589 </v>
    <v>       0.75012042       0.11104979       0.27798674 </v>
    <v>       0.74989649       0.99987078       0.16659852 </v>
    <v>       0.99994881       0.55582707       0.88813624 </v>
    <v>       0.74858472       0.88985542       0.38919278 </v>
    <v>       0.50007465       0.88819263       0.89146712 </v>
    <v>       0.49984622       0.33398801       0.99987426 </v>
    <v>       0.50027798       0.22232851       0.88896697 </v>
    <v>       0.00042892       0.66696825       0.33363088 </v>
    <v>       0.74923593       0.22194247       0.38931823 </v>
    <v>       0.49905075       0.77891992       0.44452165 </v>
    <v>       0.75047247       0.11115583       0.94550420 </v>
    <v>       0.75029444       0.88945360       0.72203401 </v>
    <v>       0.24955179       0.55547222       0.72183387 </v>
    <v>       0.24927061       0.88921082       0.38901134 </v>
    <v>       0.00048412       0.22221846       0.55458311 </v>
    <v>       0.49985817       0.11085338       0.11061151 </v>
    <v>       0.74950566       0.55541758       0.38905429 </v>
    <v>       0.74989740       0.77778519       0.94553105 </v>
    <v>       0.75022894       0.66691646       0.50126487 </v>
    <v>       0.24989517       0.33323698       0.83304593 </v>
    <v>       0.00073197       0.99975969       0.33341594 </v>
    <v>       0.50055529       0.55542708       0.22160039 </v>
    <v>       0.74981024       0.33309458       0.50047319 </v>
    <v>       0.50030633       0.44425820       0.77787956 </v>
    <v>       0.00030115       0.33320097       0.33327574 </v>
    <v>       0.25006595       0.33336972       0.16670785 </v>
    <v>       0.00045932       0.55549436       0.55551175 </v>
    <v>       0.74995897       0.44461966       0.27791822 </v>
    <v>       0.00340421       0.77805406       0.44460201 </v>
    <v>       0.99920445       0.21998696       0.88904558 </v>
    <v>       0.49981687       0.44503749       0.11030938 </v>
    <v>       0.25293316       0.99832440       0.49862385 </v>
    <v>       0.49758329       0.22084767       0.55565206 </v>
    <v>       0.25146827       0.22226731       0.72288353 </v>
    <v>       0.74988949       0.99982728       0.50045873 </v>
    <v>       0.99998007       0.00010918       0.00008268 </v>
    <v>       0.75036008       0.66693378       0.83357887 </v>
    <v>       0.75136949       0.22074985       0.72236739 </v>
    <v>       0.25013305       0.66791043       0.50003901 </v>
    <v>       0.25045806       0.77713746       0.94463678 </v>
    <v>       0.24927900       0.33196863       0.49947645 </v>
    <v>       0.00092896       0.33329642       0.00034343 </v>
    <v>       0.99992977       0.77750540       0.11108484 </v>
    <v>       0.74872147       0.88993154       0.05567140 </v>
    <v>       0.50059382       0.99997644       0.33420430 </v>
    <v>       0.50088101       0.44620564       0.44431061 </v>
    <v>       0.74958925       0.33292517       0.83310680 </v>
    <v>       0.75005035       0.99724810       0.83355264 </v>
    <v>       0.00031881       0.55557723       0.22201012 </v>
    <v>       0.99868386       0.99904984       0.66654637 </v>
    <v>       0.74986852       0.55577792       0.05513012 </v>
    <v>       0.49967079       0.88857318       0.22231688 </v>
    <v>       0.74988295       0.33365027       0.16636039 </v>
    <v>       0.49572253       0.89001527       0.55533943 </v>
    <v>       0.25110623       0.88903065       0.05514552 </v>
    <v>       0.00126089       0.11082081       0.44462754 </v>
    <v>       0.25001601       0.99999079       0.16673625 </v>
    <v>       0.24836089       0.44751174       0.61071703 </v>
    <v>       0.25076309       0.11071119       0.61029434 </v>
    <v>       0.74754952       0.44482553       0.94522170 </v>
    <v>       0.25005873       0.55560233       0.05515173 </v>
    <v>       0.24941840       0.11098159       0.94520501 </v>
    <v>       0.25027455       0.66664661       0.16700363 </v>
    <v>       0.24944113       0.11201480       0.27803055 </v>
    <v>       0.99996294       0.77693734       0.77687648 </v>
    <v>       0.24935849       0.22138662       0.38996283 </v>
    <v>       0.99953975       0.11137892       0.77743097 </v>
    <v>       0.24980698       0.44471200       0.94527025 </v>
    <v>       0.74994366       0.66650248       0.16648828 </v>
    <v>       0.49965470       0.00101009       0.66609582 </v>
   </varray>
  </structure>
  <varray name="forces" >
   <v>      -0.02101265      -0.11227273       0.18322862 </v>
   <v>       0.08276900      -0.05826365       0.29904625 </v>
   <v>       0.26615770       0.31528193      -0.24000137 </v>
   <v>       0.16791637      -0.17636504       1.00732260 </v>
   <v>       0.22937252      -0.07622964       0.03142171 </v>
   <v>      -0.43074847      -0.04366071      -0.06256733 </v>
   <v>      -0.10031610      -0.29142156      -0.06981591 </v>
   <v>       0.25666523      -0.23999898      -0.03147477 </v>
   <v>      -0.40097992       0.02348269      -0.22570994 </v>
   <v>       0.15090960       0.00057137       0.16491694 </v>
   <v>       0.13106533      -0.07560786      -0.01060789 </v>
   <v>       0.23689683       0.03285796       0.24360960 </v>
   <v>       0.06110082       0.06293011      -0.19468396 </v>
   <v>      -0.12926901      -0.01429107       0.02434112 </v>
   <v>      -0.30850772      -0.01530474       0.13758070 </v>
   <v>      -0.27244921       0.22106993       0.08598881 </v>
   <v>      -0.03255835       0.29094546      -0.32551466 </v>
   <v>       0.34192951       0.23025235       0.53142742 </v>
   <v>      -0.10762201      -0.10720033       0.05271398 </v>
   <v>      -0.07089399       0.41598271      -0.15294095 </v>
   <v>      -0.06007278      -0.30975580      -0.47899395 </v>
   <v>      -0.04238004      -0.15470746       0.29870260 </v>
   <v>      -0.28061155       0.00399832       0.16741812 </v>
   <v>       0.13668419      -0.41233750      -0.28576093 </v>
   <v>      -0.26092796      -0.17168895      -0.20913610 </v>
   <v>       0.12589962       0.13228566      -0.04529974 </v>
   <v>      -0.08877798      -0.08929719      -0.02408920 </v>
   <v>       0.10645774       0.02502525       0.55455109 </v>
   <v>      -0.03385210       0.37193342       0.47222624 </v>
   <v>      -0.49712212      -0.28838594       0.01307994 </v>
   <v>       0.00042753      -0.12453935      -0.27190741 </v>
   <v>      -0.04495382      -0.38572162      -0.03701592 </v>
   <v>       0.01408685       0.06354495      -0.26309192 </v>
   <v>      -0.21456673      -0.18830943      -0.09658736 </v>
   <v>      -0.03418504      -0.24756382      -0.01630618 </v>
   <v>      -0.01071515       0.17959891       0.17468776 </v>
   <v>      -0.17340705       0.21910386      -0.20525131 </v>
   <v>      -0.07649873      -0.00470393      -0.51696962 </v>
   <v>       0.06154918       0.00228899       0.11347864 </v>
   <v>      -0.07734313      -0.28300482       0.17022356 </v>
   <v>       0.26618564      -0.19579990       0.30047252 </v>
   <v>       0.02578285      -0.12671186       0.08900221 </v>
   <v>      -0.10808870       0.02490219      -0.25011411 </v>
   <v>      -0.31737265      -0.00715812      -0.25753024 </v>
   <v>      -0.29410539      -0.02275703       0.18743907 </v>
   <v>       0.06963840      -0.00994156       0.08127687 </v>
   <v>       0.18078848       0.10147039      -0.01546823 </v>
   <v>       0.04876692      -0.27490288       0.00741120 </v>
   <v>      -0.08288215      -0.02326330      -0.29008447 </v>
   <v>      -0.06177005      -0.04582616      -0.08289362 </v>
   <v>       0.14877730      -0.05645631       0.03467124 </v>
   <v>       0.10833420       0.27877470      -0.09169461 </v>
   <v>       0.00741975       0.09516690       0.00584699 </v>
   <v>      -0.20623842       0.14290546       0.03101601 </v>
   <v>      -0.12739549      -0.03672139       0.07005869 </v>
   <v>      -0.01396405      -0.05324445      -0.10768513 </v>
   <v>       0.27924558       0.01331201      -0.23951224 </v>
   <v>      -0.10313449       0.19864192       0.40889447 </v>
   <v>       0.22265687       0.22510338      -0.12678535 </v>
   <v>      -0.07896361       0.39373464      -0.28790052 </v>
   <v>      -0.25079680       0.07484850      -0.13155616 </v>
   <v>       0.01974298       0.04800381       0.09911535 </v>
   <v>       0.17915979      -0.15596421       0.25652480 </v>
   <v>       0.17184633       0.22620330      -0.17254412 </v>
   <v>      -0.12507597       0.10877403       0.00084665 </v>
   <v>      -0.04329642      -0.04956561      -0.11886831 </v>
   <v>      -0.33453941      -0.11299077      -0.07473145 </v>
   <v>       0.33917117       0.24411736      -0.40077750 </v>
   <v>      -0.06244191      -0.13356638      -0.01863064 </v>
   <v>      -0.21224480       0.13077201       0.19794696 </v>
   <v>       0.09867471       0.15388522      -0.04573195 </v>
   <v>      -0.24224238       0.11734396       0.10837102 </v>
   <v>      -0.03040780      -0.02287255      -0.20399311 </v>
   <v>      -0.01250445       0.24129081      -0.13438202 </v>
   <v>       0.09086605       0.06889496      -0.38801045 </v>
   <v>       0.05931072       0.27431661       0.22595471 </v>
   <v>      -0.26002126       0.02387265      -0.17390168 </v>
   <v>      -0.12430231       0.05145482      -0.21843162 </v>
   <v>       0.38680471       0.26675408      -0.15399890 </v>
   <v>      -0.04908342      -0.04249525      -0.60647388 </v>
   <v>      -0.13156105      -0.03756449       0.38393224 </v>
   <v>       0.12485539       0.07499139      -0.01333572 </v>
   <v>      -0.05621672       0.00513000      -0.29764894 </v>
   <v>       0.33239796      -0.13271877      -0.05910707 </v>
   <v>       0.02522020      -0.06999536       0.32750768 </v>
   <v>       0.00129359       0.22158335       0.12207853 </v>
   <v>      -0.00607660       0.21645858       0.04913885 </v>
   <v>       0.18754335       0.22549450       0.00154548 </v>
   <v>      -0.37218335       0.25584227       0.20704047 </v>
   <v>       0.22356537       0.21990079       0.06685105 </v>
   <v>      -0.38223698       0.17863000       0.11165353 </v>
   <v>       0.70756261       0.08892456       0.06741366 </v>
   <v>      -0.17945162      -0.20569723       0.12356659 </v>
   <v>       0.07448298      -0.22293576      -0.36997821 </v>
   <v>       0.26416754      -0.15091423       0.27217018 </v>
   <v>       0.05584877      -0.39255776       0.01815924 </v>
   <v>       0.05449101       0.13498907       0.49675103 </v>
   <v>       0.20203477      -0.39907270       0.09757416 </v>
   <v>       0.26547646      -0.24391305       0.25571918 </v>
   <v>       0.33931293       0.47245535      -0.53915863 </v>
   <v>      -0.20550570      -0.21932985      -0.31381047 </v>
   <v>      -0.14179076       0.27495616       0.56298818 </v>
   <v>       0.23973714       0.20301457       0.41629967 </v>
   <v>      -0.25089320       0.03536490      -0.81027519 </v>
   <v>       0.12109593      -0.51669220       0.04058400 </v>
   <v>       0.13611264      -0.37470026       0.07967206 </v>
   <v>       0.19273731      -0.22404868       0.16251673 </v>
   <v>       0.01556309      -0.27242288       0.06476394 </v>
  </varray>
  <varray name="stress" >
   <v>      73.61395166      -0.13562721      -1.12235277 </v>
   <v>      -0.13562702      72.18446345      -0.83236204 </v>
   <v>      -1.12235337      -0.83237699      73.16167187 </v>
  </varray>
  <energy>
   <i name="e_fr_energy">  -1095.13114319 </i>
   <i name="e_wo_entrp">  -1095.02284285 </i>
   <i name="e_0_energy">     -0.21660068 </i>
  </energy>
  <time name="totalsc">  632.45  637.06</time>
 </calculation>
 <calculation>
  <scstep>
   <time name="dav">   54.03   54.42</time>
   <time name="total">   56.62   57.03</time>
   <energy>
    <i name="alphaZ">   4871.05958751 </i>
    <i name="ewald"> -46954.52461495 </i>
    <i name="hartreedc"> -16409.63732150 </i>
    <i name="XCdc">  -2018.60977569 </i>
    <i name="pawpsdc">  85458.64200872 </i>
    <i name="pawaedc"> -80446.96961300 </i>
    <i name="eentropy">     -0.21660068 </i>
    <i name="bandstr">  -4810.63125008 </i>
    <i name="atom">  59215.75643617 </i>
    <i name="e_fr_energy">  -1095.13114350 </i>
    <i name="e_wo_entrp">  -1094.91454281 </i>
    <i name="e_0_energy">  -1095.02284315 </i>
   </energy>
  </scstep>
  <scstep>
   <time name="dav">   54.08   54.47</time>
   <time name="total">   56.61   57.02</time>
   <energy>
    <i name="e_fr_energy">  -1095.13114350 </i>
    <i name="e_wo_entrp">  -1094.91454280 </i>
    <i name="e_0_energy">  -1095.02284315 </i>
   </energy>
  </scstep>
  <scstep>
   <time name="dav">   54.05   54.43</time>
   <time name="total">   56.65   57.06</time>
   <energy>
    <i name="e_fr_energy">  -1095.13114350 </i>
    <i name="e_wo_entrp">  -1094.91454283 </i>
    <i name="e_0_energy">  -1095.02284316 </i>
   </energy>
  </scstep>
  <scstep>
   <time name="dav">   54.04   54.45</time>
   <time name="total">   56.80   57.23</time>
   <energy>
    <i name="e_fr_energy">  -1095.13114350 </i>
    <i name="e_wo_entrp">  -1094.91454281 </i>
    <i name="e_0_energy">  -1095.02284315 </i>
   </energy>
  </scstep>
  <scstep>
   <time name="dav">   55.11   55.54</time>
   <time name="total">   58.06   58.51</time>
   <energy>
    <i name="e_fr_energy">  -1095.13114350 </i>
    <i name="e_wo_entrp">  -1094.91454282 </i>
    <i name="e_0_energy">  -1095.02284316 </i>
   </energy>
  </scstep>
  <scstep>
   <time name="dav">   53.86   54.28</time>
   <time name="total">   56.53   56.96</time>
   <energy>
    <i name="e_fr_energy">  -1095.13114350 </i>
    <i name="e_wo_entrp">  -1094.91454281 </i>
    <i name="e_0_energy">  -1095.02284315 </i>
   </energy>
  </scstep>
  <scstep>
   <time name="dav">   54.08   54.48</time>
   <time name="total">   56.64   57.06</time>
   <energy>
    <i name="e_fr_energy">  -1095.13114350 </i>
    <i name="e_wo_entrp">  -1094.91454281 </i>
    <i name="e_0_energy">  -1095.02284315 </i>
   </energy>
  </scstep>
  <scstep>
   <time name="dav">   53.48   53.86</time>
   <time name="total">   55.98   56.38</time>
   <energy>
    <i name="e_fr_energy">  -1095.13114350 </i>
    <i name="e_wo_entrp">  -1094.91454281 </i>
    <i name="e_0_energy">  -1095.02284315 </i>
   </energy>
  </scstep>
  <scstep>
   <time name="dav">   53.35   53.75</time>
   <time name="total">   55.85   56.27</time>
   <energy>
    <i name="e_fr_energy">  -1095.13114350 </i>
    <i name="e_wo_entrp">  -1094.91454281 </i>
    <i name="e_0_energy">  -1095.02284315 </i>
   </energy>
  </scstep>
  <scstep>
   <time name="dav">   53.31   53.72</time>
   <time name="total">   53.80   54.21</time>
   <energy>
    <i name="alphaZ">   4871.05958751 </i>
    <i name="ewald"> -46954.52461495 </i>
    <i name="hartreedc"> -16409.63732119 </i>
    <i name="XCdc">  -2018.60977566 </i>
    <i name="pawpsdc">  85458.64197993 </i>
    <i name="pawaedc"> -80446.96958416 </i>
    <i name="eentropy">     -0.21660068 </i>
    <i name="bandstr">  -4810.63125046 </i>
    <i name="atom">  59215.75643617 </i>
    <i name="e_fr_energy">  -1095.13114350 </i>
    <i name="e_wo_entrp">  -1094.91454281 </i>
    <i name="e_0_energy">  -1095.02284315 </i>
   </energy>
  </scstep>
  <structure>
   <crystal>
    <varray name="basis" >
     <v>       9.12169973       0.00000000       0.00000000 </v>
     <v>       0.00000000       8.37880972       0.00000000 </v>
     <v>       0.00000000       0.00000000      23.69886622 </v>
    </varray>
    <i name="volume">   1811.28032179 </i>
    <varray name="rec_basis" >
     <v>       0.10962869       0.00000000       0.00000000 </v>
     <v>       0.00000000       0.11934869       0.00000000 </v>
     <v>       0.00000000       0.00000000       0.04219611 </v>
    </varray>
   </crystal>
   <varray name="positions" >
    <v>       0.49945717       0.22227243       0.22241600 </v>
    <v>       0.00070118       0.22205451       0.22234076 </v>
    <v>       0.24956005       0.22198081       0.05491571 </v>
    <v>       0.49996588       0.77759055       0.10992832 </v>
    <v>       0.00004795       0.44468439       0.10987819 </v>
    <v>       0.00148144       0.44486166       0.44440011 </v>
    <v>       0.25047156       0.77742870       0.61117863 </v>
    <v>       0.00060889       0.66659512       0.00018971 </v>
    <v>       0.75069806       0.55537664       0.72238025 </v>
    <v>       0.49987171       0.66677549       0.33331035 </v>
    <v>       0.24977592       0.88860132       0.72214345 </v>
    <v>       0.99984612       0.44512892       0.77684544 </v>
    <v>       0.00057451       0.33375202       0.66680044 </v>
    <v>       0.24951062       0.66690778       0.83242879 </v>
    <v>       0.74976410       0.11102736       0.61096575 </v>
    <v>       0.00123244       0.66637673       0.66781672 </v>
    <v>       0.24981463       0.77788080       0.27822725 </v>
    <v>       0.49921610       0.66707320       0.66579170 </v>
    <v>       0.50039648       0.77801080       0.77814819 </v>
    <v>       0.49961187       0.99881015       0.00014513 </v>
    <v>       0.50018019       0.11107501       0.77807370 </v>
    <v>       0.49998553       0.33307265       0.33347798 </v>
    <v>       0.00032032       0.88895854       0.22244517 </v>
    <v>       0.24911680       0.55574890       0.38946179 </v>
    <v>       0.49958214       0.66698097       0.00023150 </v>
    <v>       0.75027631       0.44531190       0.61028089 </v>
    <v>       0.75044206       0.77753263       0.61051790 </v>
    <v>       0.00020895       0.11107666       0.10979977 </v>
    <v>       0.24978244       0.99970668       0.83277721 </v>
    <v>       0.50091830       0.55580766       0.89011218 </v>
    <v>       0.99977438       0.89001285       0.88927228 </v>
    <v>       0.24996115       0.44405207       0.27790353 </v>
    <v>       0.49932172       0.55579543       0.55665772 </v>
    <v>       0.00061817       0.88896585       0.55521105 </v>
    <v>       0.50002708       0.33285617       0.66576063 </v>
    <v>       0.75033506       0.22197818       0.05468350 </v>
    <v>       0.50010698       0.11132238       0.44410215 </v>
    <v>       0.75008532       0.77771801       0.27803589 </v>
    <v>       0.75012042       0.11104979       0.27798674 </v>
    <v>       0.74989649       0.99987078       0.16659852 </v>
    <v>       0.99994881       0.55582707       0.88813624 </v>
    <v>       0.74858472       0.88985542       0.38919278 </v>
    <v>       0.50007465       0.88819263       0.89146712 </v>
    <v>       0.49984622       0.33398801       0.99987426 </v>
    <v>       0.50027798       0.22232851       0.88896697 </v>
    <v>       0.00042892       0.66696825       0.33363088 </v>
    <v>       0.74923593       0.22194247       0.38931823 </v>
    <v>       0.49905075       0.77891992       0.44452165 </v>
    <v>       0.75047247       0.11115583       0.94550420 </v>
    <v>       0.75029444       0.88945360       0.72203401 </v>
    <v>       0.24955179       0.55547222       0.72183387 </v>
    <v>       0.24927061       0.88921082       0.38901134 </v>
    <v>       0.00048412       0.22221846       0.55458311 </v>
    <v>       0.49985817       0.11085338       0.11061151 </v>
    <v>       0.74950566       0.55541758       0.38905429 </v>
    <v>       0.74989740       0.77778519       0.94553105 </v>
    <v>       0.75022894       0.66691646       0.50126487 </v>
    <v>       0.24989517       0.33323698       0.83304593 </v>
    <v>       0.00073197       0.99975969       0.33341594 </v>
    <v>       0.50055529       0.55542708       0.22160039 </v>
    <v>       0.74981024       0.33309458       0.50047319 </v>
    <v>       0.50030633       0.44425820       0.77787956 </v>
    <v>       0.00030115       0.33320097       0.33327574 </v>
    <v>       0.25006595       0.33336972       0.16670785 </v>
    <v>       0.00045932       0.55549436       0.55551175 </v>
    <v>       0.74995897       0.44461966       0.27791822 </v>
    <v>       0.00340421       0.77805406       0.44460201 </v>
    <v>       0.99920445       0.21998696       0.88904558 </v>
    <v>       0.49981687       0.44503749       0.11030938 </v>
    <v>       0.25293316       0.99832440       0.49862385 </v>
    <v>       0.49758329       0.22084767       0.55565206 </v>
    <v>       0.25146827       0.22226731       0.72288353 </v>
    <v>       0.74988949       0.99982728       0.50045873 </v>
    <v>       0.99998007       0.00010918       0.00008268 </v>
    <v>       0.75036008       0.66693378       0.83357887 </v>
    <v>       0.75136949       0.22074985       0.72236739 </v>
    <v>       0.25013305       0.66791043       0.50003901 </v>
    <v>       0.25045806       0.77713746       0.94463678 </v>
    <v>       0.24927900       0.33196863       0.49947645 </v>
    <v>       0.00092896       0.33329642       0.00034343 </v>
    <v>       0.99992977       0.77750540       0.11108484 </v>
    <v>       0.74872147       0.88993154       0.05567140 </v>
    <v>       0.50059382       0.99997644       0.33420429 </v>
    <v>       0.50088101       0.44620564       0.44431061 </v>
    <v>       0.74958925       0.33292517       0.83310680 </v>
    <v>       0.75005035       0.99724810       0.83355264 </v>
    <v>       0.00031881       0.55557723       0.22201012 </v>
    <v>       0.99868386       0.99904984       0.66654637 </v>
    <v>       0.74986852       0.55577792       0.05513012 </v>
    <v>       0.49967079       0.88857318       0.22231688 </v>
    <v>       0.74988295       0.33365027       0.16636039 </v>
    <v>       0.49572253       0.89001527       0.55533943 </v>
    <v>       0.25110623       0.88903065       0.05514552 </v>
    <v>       0.00126089       0.11082081       0.44462753 </v>
    <v>       0.25001601       0.99999079       0.16673625 </v>
    <v>       0.24836089       0.44751174       0.61071703 </v>
    <v>       0.25076309       0.11071119       0.61029434 </v>
    <v>       0.74754952       0.44482553       0.94522170 </v>
    <v>       0.25005873       0.55560233       0.05515173 </v>
    <v>       0.24941840       0.11098159       0.94520500 </v>
    <v>       0.25027455       0.66664661       0.16700363 </v>
    <v>       0.24944113       0.11201480       0.27803055 </v>
    <v>       0.99996294       0.77693734       0.77687648 </v>
    <v>       0.24935849       0.22138662       0.38996283 </v>
    <v>       0.99953975       0.11137892       0.77743097 </v>
    <v>       0.24980698       0.44471200       0.94527025 </v>
    <v>       0.74994366       0.66650248       0.16648828 </v>
    <v>       0.49965470       0.00101009       0.66609582 </v>
   </varray>
  </structure>
  <varray name="forces" >
   <v>      -0.02101266      -0.11227271       0.18322865 </v>
   <v>       0.08276901      -0.05826362       0.29904636 </v>
   <v>       0.26615761       0.31528193      -0.24000145 </v>
   <v>       0.16791641      -0.17636500       1.00732236 </v>
   <v>       0.22937249      -0.07622968       0.03142147 </v>
   <v>      -0.43074842      -0.04366070      -0.06256723 </v>
   <v>      -0.10031613      -0.29142164      -0.06981587 </v>
   <v>       0.25666516      -0.23999903      -0.03147460 </v>
   <v>      -0.40097977       0.02348276      -0.22570989 </v>
   <v>       0.15090950       0.00057135       0.16491681 </v>
   <v>       0.13106527      -0.07560795      -0.01060774 </v>
   <v>       0.23689686       0.03285806       0.24360933 </v>
   <v>       0.06110080       0.06293020      -0.19468380 </v>
   <v>      -0.12926903      -0.01429104       0.02434084 </v>
   <v>      -0.30850769      -0.01530475       0.13758071 </v>
   <v>      -0.27244915       0.22106994       0.08598903 </v>
   <v>      -0.03255834       0.29094543      -0.32551461 </v>
   <v>       0.34192947       0.23025226       0.53142728 </v>
   <v>      -0.10762213      -0.10720032       0.05271380 </v>
   <v>      -0.07089401       0.41598263      -0.15294102 </v>
   <v>      -0.06007288      -0.30975581      -0.47899395 </v>
   <v>      -0.04238011      -0.15470747       0.29870246 </v>
   <v>      -0.28061156       0.00399836       0.16741815 </v>
   <v>       0.13668411      -0.41233756      -0.28576096 </v>
   <v>      -0.26092792      -0.17168893      -0.20913598 </v>
   <v>       0.12589960       0.13228557      -0.04529984 </v>
   <v>      -0.08877794      -0.08929721      -0.02408931 </v>
   <v>       0.10645772       0.02502527       0.55455085 </v>
   <v>      -0.03385213       0.37193344       0.47222601 </v>
   <v>      -0.49712214      -0.28838593       0.01308002 </v>
   <v>       0.00042756      -0.12453942      -0.27190737 </v>
   <v>      -0.04495383      -0.38572163      -0.03701593 </v>
   <v>       0.01408687       0.06354493      -0.26309189 </v>
   <v>      -0.21456679      -0.18830943      -0.09658724 </v>
   <v>      -0.03418506      -0.24756382      -0.01630610 </v>
   <v>      -0.01071509       0.17959883       0.17468788 </v>
   <v>      -0.17340712       0.21910393      -0.20525130 </v>
   <v>      -0.07649874      -0.00470394      -0.51696972 </v>
   <v>       0.06154919       0.00228905       0.11347854 </v>
   <v>      -0.07734316      -0.28300477       0.17022355 </v>
   <v>       0.26618565      -0.19579986       0.30047261 </v>
   <v>       0.02578294      -0.12671184       0.08900211 </v>
   <v>      -0.10808873       0.02490219      -0.25011417 </v>
   <v>      -0.31737265      -0.00715811      -0.25753012 </v>
   <v>      -0.29410544      -0.02275703       0.18743902 </v>
   <v>       0.06963849      -0.00994162       0.08127675 </v>
   <v>       0.18078855       0.10147037      -0.01546830 </v>
   <v>       0.04876685      -0.27490289       0.00741120 </v>
   <v>      -0.08288211      -0.02326326      -0.29008436 </v>
   <v>      -0.06177001      -0.04582616      -0.08289355 </v>
   <v>       0.14877721      -0.05645629       0.03467125 </v>
   <v>       0.10833411       0.27877476      -0.09169472 </v>
   <v>       0.00741974       0.09516690       0.00584702 </v>
   <v>      -0.20623840       0.14290547       0.03101600 </v>
   <v>      -0.12739539      -0.03672149       0.07005855 </v>
   <v>      -0.01396410      -0.05324451      -0.10768507 </v>
   <v>       0.27924573       0.01331206      -0.23951217 </v>
   <v>      -0.10313448       0.19864195       0.40889448 </v>
   <v>       0.22265694       0.22510339      -0.12678545 </v>
   <v>      -0.07896363       0.39373465      -0.28790050 </v>
   <v>      -0.25079670       0.07484847      -0.13155598 </v>
   <v>       0.01974291       0.04800382       0.09911518 </v>
   <v>       0.17915984      -0.15596421       0.25652471 </v>
   <v>       0.17184635       0.22620327      -0.17254406 </v>
   <v>      -0.12507601       0.10877398       0.00084661 </v>
   <v>      -0.04329641      -0.04956566      -0.11886832 </v>
   <v>      -0.33453933      -0.11299070      -0.07473140 </v>
   <v>       0.33917118       0.24411737      -0.40077750 </v>
   <v>      -0.06244189      -0.13356634      -0.01863070 </v>
   <v>      -0.21224487       0.13077211       0.19794706 </v>
   <v>       0.09867475       0.15388526      -0.04573182 </v>
   <v>      -0.24224245       0.11734397       0.10837107 </v>
   <v>      -0.03040774      -0.02287252      -0.20399294 </v>
   <v>      -0.01250444       0.24129086      -0.13438191 </v>
   <v>       0.09086608       0.06889492      -0.38801063 </v>
   <v>       0.05931076       0.27431668       0.22595472 </v>
   <v>      -0.26002136       0.02387260      -0.17390162 </v>
   <v>      -0.12430218       0.05145484      -0.21843137 </v>
   <v>       0.38680463       0.26675399      -0.15399882 </v>
   <v>      -0.04908343      -0.04249525      -0.60647360 </v>
   <v>      -0.13156108      -0.03756443       0.38393199 </v>
   <v>       0.12485534       0.07499134      -0.01333586 </v>
   <v>      -0.05621679       0.00513003      -0.29764893 </v>
   <v>       0.33239790      -0.13271885      -0.05910704 </v>
   <v>       0.02522017      -0.06999537       0.32750760 </v>
   <v>       0.00129362       0.22158334       0.12207836 </v>
   <v>      -0.00607661       0.21645862       0.04913899 </v>
   <v>       0.18754332       0.22549445       0.00154552 </v>
   <v>      -0.37218335       0.25584226       0.20704032 </v>
   <v>       0.22356538       0.21990077       0.06685108 </v>
   <v>      -0.38223699       0.17862995       0.11165363 </v>
   <v>       0.70756271       0.08892460       0.06741381 </v>
   <v>      -0.17945157      -0.20569724       0.12356639 </v>
   <v>       0.07448306      -0.22293572      -0.36997797 </v>
   <v>       0.26416756      -0.15091414       0.27217021 </v>
   <v>       0.05584883      -0.39255774       0.01815924 </v>
   <v>       0.05449100       0.13498909       0.49675107 </v>
   <v>       0.20203472      -0.39907270       0.09757426 </v>
   <v>       0.26547646      -0.24391304       0.25571918 </v>
   <v>       0.33931296       0.47245536      -0.53915854 </v>
   <v>      -0.20550569      -0.21932990      -0.31381052 </v>
   <v>      -0.14179077       0.27495614       0.56298813 </v>
   <v>       0.23973716       0.20301448       0.41629972 </v>
   <v>      -0.25089325       0.03536488      -0.81027529 </v>
   <v>       0.12109600      -0.51669218       0.04058412 </v>
   <v>       0.13611264      -0.37470029       0.07967213 </v>
   <v>       0.19273731      -0.22404865       0.16251679 </v>
   <v>       0.01556315      -0.27242285       0.06476403 </v>
  </varray>
  <varray name="stress" >
   <v>      73.61395061      -0.13562734      -1.12235215 </v>
   <v>      -0.13562701      72.18446093      -0.83236200 </v>
   <v>      -1.12235256      -0.83237681      73.16166996 </v>
  </varray>
  <energy>
   <i name="e_fr_energy">  -1095.13114350 </i>
   <i name="e_wo_entrp">  -1095.02284315 </i>
   <i name="e_0_energy">     -0.21660068 </i>
  </energy>
  <time name="totalsc">  628.63  633.28</time>
 </calculation>
 <calculation>
  <scstep>
   <time name="dav">   81.42   81.97</time>
   <time name="total">   84.04   84.61</time>
   <energy>
    <i name="alphaZ">   4871.05958751 </i>
    <i name="ewald"> -46979.47540318 </i>
    <i name="hartreedc"> -16384.96312959 </i>
    <i name="XCdc">  -2018.60760638 </i>
    <i name="pawpsdc">  85458.64196708 </i>
    <i name="pawaedc"> -80446.96957127 </i>
    <i name="eentropy">     -0.21705285 </i>
    <i name="bandstr">  -4810.40070921 </i>
    <i name="atom">  59215.75643617 </i>
    <i name="e_fr_energy">  -1095.17548173 </i>
    <i name="e_wo_entrp">  -1094.95842888 </i>
    <i name="e_0_energy">  -1095.06695530 </i>
   </energy>
  </scstep>
  <scstep>
   <time name="dav">  110.71  111.47</time>
   <time name="total">  113.23  114.01</time>
   <energy>
    <i name="e_fr_energy">  -1095.71084603 </i>
    <i name="e_wo_entrp">  -1095.49465074 </i>
    <i name="e_0_energy">  -1095.60274838 </i>
   </energy>
  </scstep>
  <scstep>
   <time name="dav">  106.74  107.48</time>
   <time name="total">  109.30  110.06</time>
   <energy>
    <i name="e_fr_energy">  -1095.68802234 </i>
    <i name="e_wo_entrp">  -1095.47155252 </i>
    <i name="e_0_energy">  -1095.57978743 </i>
   </energy>
  </scstep>
  <scstep>
   <time name="dav">  103.58  104.29</time>
   <time name="total">  106.16  106.89</time>
   <energy>
    <i name="e_fr_energy">  -1095.24005973 </i>
    <i name="e_wo_entrp">  -1095.02236757 </i>
    <i name="e_0_energy">  -1095.13121365 </i>
   </energy>
  </scstep>
  <scstep>
   <time name="dav">  104.99  105.70</time>
   <time name="total">  107.50  108.23</time>
   <energy>
    <i name="e_fr_energy">  -1095.27230859 </i>
    <i name="e_wo_entrp">  -1095.05748916 </i>
    <i name="e_0_energy">  -1095.16489887 </i>
   </energy>
  </scstep>
  <scstep>
   <time name="dav">  112.36  113.12</time>
   <time name="total">  114.95  115.73</time>
   <energy>
    <i name="e_fr_energy">  -1095.27323070 </i>
    <i name="e_wo_entrp">  -1095.05426332 </i>
    <i name="e_0_energy">  -1095.16374701 </i>
   </energy>
  </scstep>
  <scstep>
   <time name="dav">  101.19  101.94</time>
   <time name="total">  103.75  104.52</time>
   <energy>
    <i name="e_fr_energy">  -1095.22788612 </i>
    <i name="e_wo_entrp">  -1095.01031101 </i>
    <i name="e_0_energy">  -1095.11909857 </i>
   </energy>
  </scstep>
  <scstep>
   <time name="dav">  105.57  106.30</time>
   <time name="total">  108.14  108.89</time>
   <energy>
    <i name="e_fr_energy">  -1095.22964000 </i>
    <i name="e_wo_entrp">  -1095.01264042 </i>
    <i name="e_0_energy">  -1095.12114021 </i>
   </energy>
  </scstep>
  <scstep>
   <time name="dav">  108.27  109.03</time>
   <time name="total">  110.54  111.32</time>
   <energy>
    <i name="e_fr_energy">  -1095.22549599 </i>
    <i name="e_wo_entrp">  -1095.00769985 </i>
    <i name="e_0_energy">  -1095.11659792 </i>
   </energy>
  </scstep>
  <scstep>
   <time name="dav">  111.19  111.95</time>
   <time name="total">  113.67  114.45</time>
   <energy>
    <i name="e_fr_energy">  -1095.22411577 </i>
    <i name="e_wo_entrp">  -1095.00676564 </i>
    <i name="e_0_energy">  -1095.11544071 </i>
   </energy>
  </scstep>
  <scstep>
   <time name="dav">  102.12  102.80</time>
   <time name="total">  104.69  105.39</time>
   <energy>
    <i name="e_fr_energy">  -1095.22292798 </i>
    <i name="e_wo_entrp">  -1095.00547851 </i>
    <i name="e_0_energy">  -1095.11420325 </i>
   </energy>
  </scstep>
  <scstep>
   <time name="dav">  109.26  110.04</time>
   <time name="total">  111.90  112.70</time>
   <energy>
    <i name="e_fr_energy">  -1095.22280712 </i>
    <i name="e_wo_entrp">  -1095.00536546 </i>
    <i name="e_0_energy">  -1095.11408629 </i>
   </energy>
  </scstep>
  <scstep>
   <time name="dav">  102.40  103.10</time>
   <time name="total">  104.94  105.66</time>
   <energy>
    <i name="e_fr_energy">  -1095.22269087 </i>
    <i name="e_wo_entrp">  -1095.00519262 </i>
    <i name="e_0_energy">  -1095.11394175 </i>
   </energy>
  </scstep>
  <scstep>
   <time name="dav">  107.02  107.78</time>
   <time name="total">  109.61  110.39</time>
   <energy>
    <i name="e_fr_energy">  -1095.22266910 </i>
    <i name="e_wo_entrp">  -1095.00527940 </i>
    <i name="e_0_energy">  -1095.11397425 </i>
   </energy>
  </scstep>
  <scstep>
   <time name="dav">  100.90  101.61</time>
   <time name="total">  103.40  104.12</time>
   <energy>
    <i name="e_fr_energy">  -1095.22264126 </i>
    <i name="e_wo_entrp">  -1095.00520427 </i>
    <i name="e_0_energy">  -1095.11392276 </i>
   </energy>
  </scstep>
  <scstep>
   <time name="dav">  104.41  105.15</time>
   <time name="total">  106.92  107.67</time>
   <energy>
    <i name="e_fr_energy">  -1095.22263447 </i>
    <i name="e_wo_entrp">  -1095.00519018 </i>
    <i name="e_0_energy">  -1095.11391233 </i>
   </energy>
  </scstep>
  <scstep>
   <time name="dav">  100.11  100.80</time>
   <time name="total">  102.58  103.30</time>
   <energy>
    <i name="e_fr_energy">  -1095.22262205 </i>
    <i name="e_wo_entrp">  -1095.00518348 </i>
    <i name="e_0_energy">  -1095.11390277 </i>
   </energy>
  </scstep>
  <scstep>
   <time name="dav">   96.90   97.57</time>
   <time name="total">   99.44  100.14</time>
   <energy>
    <i name="e_fr_energy">  -1095.22262016 </i>
    <i name="e_wo_entrp">  -1095.00518792 </i>
    <i name="e_0_energy">  -1095.11390404 </i>
   </energy>
  </scstep>
  <scstep>
   <time name="dav">   89.76   90.38</time>
   <time name="total">   92.26   92.90</time>
   <energy>
    <i name="e_fr_energy">  -1095.22261975 </i>
    <i name="e_wo_entrp">  -1095.00518119 </i>
    <i name="e_0_energy">  -1095.11390047 </i>
   </energy>
  </scstep>
  <scstep>
   <time name="dav">   82.17   82.75</time>
   <time name="total">   82.66   83.25</time>
   <energy>
    <i name="alphaZ">   4871.05958751 </i>
    <i name="ewald"> -46979.47540318 </i>
    <i name="hartreedc"> -16385.05243783 </i>
    <i name="XCdc">  -2018.59908147 </i>
    <i name="pawpsdc">  85444.88460561 </i>
    <i name="pawaedc"> -80433.20628121 </i>
    <i name="eentropy">     -0.21743886 </i>
    <i name="bandstr">  -4810.37260609 </i>
    <i name="atom">  59215.75643617 </i>
    <i name="e_fr_energy">  -1095.22261935 </i>
    <i name="e_wo_entrp">  -1095.00518048 </i>
    <i name="e_0_energy">  -1095.11389992 </i>
   </energy>
  </scstep>
  <structure>
   <crystal>
    <varray name="basis" >
     <v>       9.12169973       0.00000000       0.00000000 </v>
     <v>       0.00000000       8.37880972       0.00000000 </v>
     <v>       0.00000000       0.00000000      23.69886622 </v>
    </varray>
    <i name="volume">   1811.28032179 </i>
    <varray name="rec_basis" >
     <v>       0.10962869       0.00000000       0.00000000 </v>
     <v>       0.00000000       0.11934869       0.00000000 </v>
     <v>       0.00000000       0.00000000       0.04219611 </v>
    </varray>
   </crystal>
   <varray name="positions" >
    <v>       0.49945717       0.22227243       0.22218441 </v>
    <v>       0.00070118       0.22205451       0.22229695 </v>
    <v>       0.24956005       0.22198081       0.05522187 </v>
    <v>       0.49996588       0.77759055       0.11062505 </v>
    <v>       0.00004795       0.44468439       0.11075956 </v>
    <v>       0.00148144       0.44486166       0.44418704 </v>
    <v>       0.25047156       0.77742870       0.61086857 </v>
    <v>       0.00060889       0.66659512       0.00005642 </v>
    <v>       0.75069806       0.55537664       0.72233708 </v>
    <v>       0.49987171       0.66677549       0.33324883 </v>
    <v>       0.24977592       0.88860132       0.72198204 </v>
    <v>       0.99984612       0.44512892       0.77767724 </v>
    <v>       0.00057451       0.33375202       0.66657068 </v>
    <v>       0.24951062       0.66690778       0.83335990 </v>
    <v>       0.74976410       0.11102736       0.61131276 </v>
    <v>       0.00123244       0.66637673       0.66675892 </v>
    <v>       0.24981463       0.77788080       0.27787219 </v>
    <v>       0.49921610       0.66707320       0.66632592 </v>
    <v>       0.50039648       0.77801080       0.77799603 </v>
    <v>       0.49961187       0.99881015       0.00020925 </v>
    <v>       0.50018019       0.11107501       0.77771020 </v>
    <v>       0.49998553       0.33307265       0.33350028 </v>
    <v>       0.00032032       0.88895854       0.22227583 </v>
    <v>       0.24911680       0.55574890       0.38924640 </v>
    <v>       0.49958214       0.66698097       0.00009621 </v>
    <v>       0.75027631       0.44531190       0.61084672 </v>
    <v>       0.75044206       0.77753263       0.61099059 </v>
    <v>       0.00020895       0.11107666       0.11064209 </v>
    <v>       0.24978244       0.99970668       0.83327210 </v>
    <v>       0.50091830       0.55580766       0.88965471 </v>
    <v>       0.99977438       0.89001285       0.88940521 </v>
    <v>       0.24996115       0.44405207       0.27777865 </v>
    <v>       0.49932172       0.55579543       0.55584123 </v>
    <v>       0.00061817       0.88896585       0.55566980 </v>
    <v>       0.50002708       0.33285617       0.66664702 </v>
    <v>       0.75033506       0.22197818       0.05540640 </v>
    <v>       0.50010698       0.11132238       0.44429934 </v>
    <v>       0.75008532       0.77771801       0.27785503 </v>
    <v>       0.75012042       0.11104979       0.27791346 </v>
    <v>       0.74989649       0.99987078       0.16652009 </v>
    <v>       0.99994881       0.55582707       0.88870233 </v>
    <v>       0.74858472       0.88985542       0.38904184 </v>
    <v>       0.50007465       0.88819263       0.88960418 </v>
    <v>       0.49984622       0.33398801       0.99998806 </v>
    <v>       0.50027798       0.22232851       0.88896662 </v>
    <v>       0.00042892       0.66696825       0.33348658 </v>
    <v>       0.74923593       0.22194247       0.38920399 </v>
    <v>       0.49905075       0.77891992       0.44450071 </v>
    <v>       0.75047247       0.11115583       0.94441807 </v>
    <v>       0.75029444       0.88945360       0.72222256 </v>
    <v>       0.24955179       0.55547222       0.72187034 </v>
    <v>       0.24927061       0.88921082       0.38946399 </v>
    <v>       0.00048412       0.22221846       0.55582723 </v>
    <v>       0.49985817       0.11085338       0.11073992 </v>
    <v>       0.74950566       0.55541758       0.38901338 </v>
    <v>       0.74989740       0.77778519       0.94423989 </v>
    <v>       0.75022894       0.66691646       0.49986806 </v>
    <v>       0.24989517       0.33323698       0.83335507 </v>
    <v>       0.00073197       0.99975969       0.33332414 </v>
    <v>       0.50055529       0.55542708       0.22192072 </v>
    <v>       0.74981024       0.33309458       0.49997382 </v>
    <v>       0.50030633       0.44425820       0.77789458 </v>
    <v>       0.00030115       0.33320097       0.33332978 </v>
    <v>       0.25006595       0.33336972       0.16666462 </v>
    <v>       0.00045932       0.55549436       0.55569946 </v>
    <v>       0.74995897       0.44461966       0.27782790 </v>
    <v>       0.00340421       0.77805406       0.44433795 </v>
    <v>       0.99920445       0.21998696       0.88890214 </v>
    <v>       0.49981687       0.44503749       0.11084458 </v>
    <v>       0.25293316       0.99832440       0.49917682 </v>
    <v>       0.49758329       0.22084767       0.55567656 </v>
    <v>       0.25146827       0.22226731       0.72285639 </v>
    <v>       0.74988949       0.99982728       0.49996503 </v>
    <v>       0.99998007       0.00010918      -0.00017468 </v>
    <v>       0.75036008       0.66693378       0.83372545 </v>
    <v>       0.75136949       0.22074985       0.72294655 </v>
    <v>       0.25013305       0.66791043       0.49987756 </v>
    <v>       0.25045806       0.77713746       0.94425391 </v>
    <v>       0.24927900       0.33196863       0.49945148 </v>
    <v>       0.00092896       0.33329642      -0.00002594 </v>
    <v>       0.99992977       0.77750540       0.11139155 </v>
    <v>       0.74872147       0.88993154       0.05574670 </v>
    <v>       0.50059382       0.99997644       0.33372472 </v>
    <v>       0.50088101       0.44620564       0.44396288 </v>
    <v>       0.74958925       0.33292517       0.83316606 </v>
    <v>       0.75005035       0.99724810       0.83346019 </v>
    <v>       0.00031881       0.55557723       0.22201885 </v>
    <v>       0.99868386       0.99904984       0.66706894 </v>
    <v>       0.74986852       0.55577792       0.05552698 </v>
    <v>       0.49967079       0.88857318       0.22224873 </v>
    <v>       0.74988295       0.33365027       0.16653114 </v>
    <v>       0.49572253       0.89001527       0.55527380 </v>
    <v>       0.25110623       0.88903065       0.05529159 </v>
    <v>       0.00126089       0.11082081       0.44427962 </v>
    <v>       0.25001601       0.99999079       0.16667484 </v>
    <v>       0.24836089       0.44751174       0.61063571 </v>
    <v>       0.25076309       0.11071119       0.61046120 </v>
    <v>       0.74754952       0.44482553       0.94452076 </v>
    <v>       0.25005873       0.55560233       0.05535490 </v>
    <v>       0.24941840       0.11098159       0.94481214 </v>
    <v>       0.25027455       0.66664661       0.16667689 </v>
    <v>       0.24944113       0.11201480       0.27779284 </v>
    <v>       0.99996294       0.77693734       0.77782331 </v>
    <v>       0.24935849       0.22138662       0.38956482 </v>
    <v>       0.99953975       0.11137892       0.77769073 </v>
    <v>       0.24980698       0.44471200       0.94484922 </v>
    <v>       0.74994366       0.66650248       0.16652675 </v>
    <v>       0.49965470       0.00101009       0.66653799 </v>
   </varray>
  </structure>
  <varray name="forces" >
   <v>      -0.02658565      -0.10097202       0.25067865 </v>
   <v>       0.08538074      -0.04651944       0.35732864 </v>
   <v>       0.23690158       0.31213600      -0.33844199 </v>
   <v>       0.18705017      -0.17940426       0.78892612 </v>
   <v>       0.22059107      -0.09065844      -0.20604770 </v>
   <v>      -0.42898952      -0.02816050      -0.03402670 </v>
   <v>      -0.07811417      -0.31972613      -0.01985658 </v>
   <v>       0.21772720      -0.24572365       0.05342980 </v>
   <v>      -0.32980235       0.03922245      -0.16378988 </v>
   <v>       0.13942347       0.01326387       0.14810949 </v>
   <v>       0.10845096      -0.10254130       0.10183610 </v>
   <v>       0.24159330       0.05594223       0.05838665 </v>
   <v>       0.05033211       0.10023852      -0.04487662 </v>
   <v>      -0.12426320      -0.00032169      -0.19213198 </v>
   <v>      -0.32116785      -0.03110725       0.13005159 </v>
   <v>      -0.25995222       0.23648227       0.35439884 </v>
   <v>      -0.01694068       0.28421370      -0.24694305 </v>
   <v>       0.33166548       0.20819099       0.39153821 </v>
   <v>      -0.17360368      -0.11135700       0.02387495 </v>
   <v>      -0.06227286       0.38792691      -0.25950404 </v>
   <v>      -0.10376130      -0.31501458      -0.38643995 </v>
   <v>      -0.05531939      -0.16198504       0.24056367 </v>
   <v>      -0.28943686       0.01599933       0.19411515 </v>
   <v>       0.11928478      -0.41987404      -0.26871835 </v>
   <v>      -0.22978326      -0.16112578      -0.14467100 </v>
   <v>       0.10251390       0.10849612      -0.15868399 </v>
   <v>      -0.10372725      -0.11290499      -0.15523099 </v>
   <v>       0.11751640       0.01835161       0.33486637 </v>
   <v>      -0.03788706       0.38766583       0.30696213 </v>
   <v>      -0.49205819      -0.26937654       0.10214495 </v>
   <v>      -0.00134207      -0.14318782      -0.26026590 </v>
   <v>      -0.03739135      -0.39240835      -0.02688491 </v>
   <v>       0.03312947       0.07485294      -0.18452620 </v>
   <v>      -0.23848061      -0.18156863      -0.11245509 </v>
   <v>      -0.03155798      -0.26961600      -0.09169107 </v>
   <v>       0.00912651       0.13828897       0.08401393 </v>
   <v>      -0.18197012       0.21633044      -0.24837782 </v>
   <v>      -0.09920124      -0.00302029      -0.49371751 </v>
   <v>       0.05054541       0.00872083       0.11713400 </v>
   <v>      -0.08401490      -0.27702486       0.19088353 </v>
   <v>       0.25517625      -0.17521005       0.26330833 </v>
   <v>       0.02430801      -0.14190979       0.08298170 </v>
   <v>      -0.10398691       0.03867132      -0.00833168 </v>
   <v>      -0.30745778       0.00105191      -0.23480615 </v>
   <v>      -0.30167893      -0.03517139       0.16428898 </v>
   <v>       0.07746434      -0.01793292       0.05415734 </v>
   <v>       0.18701413       0.07313370      -0.01310809 </v>
   <v>       0.04827717      -0.26614428       0.00763010 </v>
   <v>      -0.08412532      -0.00757324      -0.13667137 </v>
   <v>      -0.04470934      -0.04282526      -0.06116723 </v>
   <v>       0.10247240      -0.04023076       0.06126432 </v>
   <v>       0.10801520       0.30036321      -0.18348871 </v>
   <v>       0.00656757       0.10722402      -0.16514430 </v>
   <v>      -0.20088767       0.14188303      -0.01570737 </v>
   <v>      -0.10891739      -0.05652541       0.03013890 </v>
   <v>      -0.05789902      -0.06170905       0.07117338 </v>
   <v>       0.29182961       0.05994386      -0.09935621 </v>
   <v>      -0.09758661       0.19929536       0.39733346 </v>
   <v>       0.23734777       0.21169397      -0.13134504 </v>
   <v>      -0.08231259       0.41804828      -0.32335240 </v>
   <v>      -0.24944586       0.08420412      -0.04311101 </v>
   <v>       0.00686637       0.04026880       0.06175107 </v>
   <v>       0.18825885      -0.16373505       0.22417595 </v>
   <v>       0.17706193       0.21305012      -0.14310869 </v>
   <v>      -0.15542345       0.09306233      -0.06006287 </v>
   <v>      -0.04693890      -0.04644706      -0.08309674 </v>
   <v>      -0.32050640      -0.08560281      -0.05569617 </v>
   <v>       0.34814767       0.25627560      -0.37011108 </v>
   <v>      -0.05370431      -0.12446103      -0.11791970 </v>
   <v>      -0.21805044       0.16175419       0.11973684 </v>
   <v>       0.11709457       0.17001189      -0.02247469 </v>
   <v>      -0.26433851       0.11808360       0.13631979 </v>
   <v>      -0.03438352      -0.01495885      -0.12728134 </v>
   <v>      -0.02027948       0.26820166      -0.05564892 </v>
   <v>       0.11055671       0.04973418      -0.46320145 </v>
   <v>       0.08022163       0.30086352       0.13559749 </v>
   <v>      -0.26967070       0.01657510      -0.15394102 </v>
   <v>      -0.06266731       0.06229232      -0.04724927 </v>
   <v>       0.37080071       0.23731349      -0.13453936 </v>
   <v>      -0.05303791      -0.02864512      -0.45370075 </v>
   <v>      -0.14793028      -0.01997847       0.25624799 </v>
   <v>       0.09601356       0.04090899      -0.06858476 </v>
   <v>      -0.08180359       0.00568397      -0.22781021 </v>
   <v>       0.33278123      -0.13889147      -0.01114317 </v>
   <v>       0.01250783      -0.07317230       0.31809287 </v>
   <v>       0.00761535       0.21536446       0.08950432 </v>
   <v>       0.00565947       0.23941671       0.09421301 </v>
   <v>       0.16610266       0.20719559      -0.09335047 </v>
   <v>      -0.38058215       0.24849383       0.11040267 </v>
   <v>       0.22157535       0.21845392       0.08805467 </v>
   <v>      -0.39281430       0.16237614       0.13786794 </v>
   <v>       0.74471905       0.10057897       0.08987618 </v>
   <v>      -0.15349022      -0.21548592       0.04623635 </v>
   <v>       0.09210301      -0.20488093      -0.26490315 </v>
   <v>       0.27519048      -0.13350981       0.29978290 </v>
   <v>       0.08204509      -0.38628106       0.00062366 </v>
   <v>       0.05991591       0.13725666       0.49102393 </v>
   <v>       0.18043008      -0.39657664       0.22067254 </v>
   <v>       0.26134538      -0.24095466       0.18941256 </v>
   <v>       0.37500350       0.49673042      -0.37533286 </v>
   <v>      -0.21174450      -0.24095817      -0.19355022 </v>
   <v>      -0.12905699       0.27576316       0.55740910 </v>
   <v>       0.25961760       0.14579253       0.18350279 </v>
   <v>      -0.24750022      -0.02765155      -0.69506670 </v>
   <v>       0.15407299      -0.52348199       0.04949403 </v>
   <v>       0.15740810      -0.37754403       0.22013699 </v>
   <v>       0.19389760      -0.21766276       0.20598912 </v>
   <v>       0.02383668      -0.25362748      -0.01699961 </v>
  </varray>
  <varray name="stress" >
   <v>      73.61312876      -0.15622338      -1.02761061 </v>
   <v>      -0.15622316      71.87689238      -0.85308504 </v>
   <v>      -1.02761142      -0.85309984      72.98198117 </v>
  </varray>
  <energy>
   <i name="e_fr_energy">  -1095.22261935 </i>
   <i name="e_wo_entrp">  -1095.11389992 </i>
   <i name="e_0_energy">     -0.21743886 </i>
  </energy>
