unknown system                          
           1
     9.121700    0.000000    0.000000
     0.000000    8.378810    0.000000
     0.000000    0.000000   23.698866
   Ta   Ti   Nb   W 
  32  34  32  10
Direct configuration=     1
   0.49945717  0.22227243  0.22218441
   0.00070118  0.22205451  0.22229695
   0.24956005  0.22198081  0.05522187
   0.49996588  0.77759055  0.11062505
   0.00004795  0.44468439  0.11075956
   0.00148144  0.44486166  0.44418704
   0.25047156  0.77742870  0.61086857
   0.00060889  0.66659512  0.00005642
   0.75069806  0.55537664  0.72233708
   0.49987171  0.66677549  0.33324883
   0.24977592  0.88860132  0.72198204
   0.99984612  0.44512892  0.77767724
   0.00057451  0.33375202  0.66657068
   0.24951062  0.66690778  0.83335990
   0.74976410  0.11102736  0.61131276
   0.00123244  0.66637673  0.66675892
   0.24981463  0.77788080  0.27787219
   0.49921610  0.66707320  0.66632592
   0.50039648  0.77801080  0.77799603
   0.49961187  0.99881015  0.00020925
   0.50018019  0.11107501  0.77771020
   0.49998553  0.33307265  0.33350028
   0.00032032  0.88895854  0.22227583
   0.24911680  0.55574890  0.38924640
   0.49958214  0.66698097  0.00009621
   0.75027631  0.44531190  0.61084672
   0.75044206  0.77753263  0.61099059
   0.00020895  0.11107666  0.11064209
   0.24978244  0.99970668  0.83327210
   0.50091830  0.55580766  0.88965471
   0.99977438  0.89001285  0.88940521
   0.24996115  0.44405207  0.27777865
   0.49932172  0.55579543  0.55584123
   0.00061817  0.88896585  0.55566980
   0.50002708  0.33285617  0.66664702
   0.75033506  0.22197818  0.05540640
   0.50010698  0.11132238  0.44429934
   0.75008532  0.77771801  0.27785503
   0.75012042  0.11104979  0.27791346
   0.74989649  0.99987078  0.16652009
   0.99994881  0.55582707  0.88870233
   0.74858472  0.88985542  0.38904184
   0.50007465  0.88819263  0.88960418
   0.49984622  0.33398801  0.99998806
   0.50027798  0.22232851  0.88896662
   0.00042892  0.66696825  0.33348658
   0.74923593  0.22194247  0.38920399
   0.49905075  0.77891992  0.44450071
   0.75047247  0.11115583  0.94441807
   0.75029444  0.88945360  0.72222256
   0.24955179  0.55547222  0.72187034
   0.24927061  0.88921082  0.38946399
   0.00048412  0.22221846  0.55582723
   0.49985817  0.11085338  0.11073992
   0.74950566  0.55541758  0.38901338
   0.74989740  0.77778519  0.94423989
   0.75022894  0.66691646  0.49986806
   0.24989517  0.33323698  0.83335507
   0.00073197  0.99975969  0.33332414
   0.50055529  0.55542708  0.22192072
   0.74981024  0.33309458  0.49997382
   0.50030633  0.44425820  0.77789458
   0.00030115  0.33320097  0.33332978
   0.25006595  0.33336972  0.16666462
   0.00045932  0.55549436  0.55569946
   0.74995897  0.44461966  0.27782790
   0.00340421  0.77805406  0.44433795
   0.99920445  0.21998696  0.88890214
   0.49981687  0.44503749  0.11084458
   0.25293316  0.99832440  0.49917682
   0.49758329  0.22084767  0.55567656
   0.25146827  0.22226731  0.72285639
   0.74988949  0.99982728  0.49996503
   0.99998007  0.00010918  0.99982532
   0.75036008  0.66693378  0.83372545
   0.75136949  0.22074985  0.72294655
   0.25013305  0.66791043  0.49987756
   0.25045806  0.77713746  0.94425391
   0.24927900  0.33196863  0.49945148
   0.00092896  0.33329642  0.99997406
   0.99992977  0.77750540  0.11139155
   0.74872147  0.88993154  0.05574670
   0.50059382  0.99997644  0.33372472
   0.50088101  0.44620564  0.44396288
   0.74958925  0.33292517  0.83316606
   0.75005035  0.99724810  0.83346019
   0.00031881  0.55557723  0.22201885
   0.99868386  0.99904984  0.66706894
   0.74986852  0.55577792  0.05552698
   0.49967079  0.88857318  0.22224873
   0.74988295  0.33365027  0.16653114
   0.49572253  0.89001527  0.55527380
   0.25110623  0.88903065  0.05529159
   0.00126089  0.11082081  0.44427962
   0.25001601  0.99999079  0.16667484
   0.24836089  0.44751174  0.61063571
   0.25076309  0.11071119  0.61046120
   0.74754952  0.44482553  0.94452076
   0.25005873  0.55560233  0.05535490
   0.24941840  0.11098159  0.94481214
   0.25027455  0.66664661  0.16667689
   0.24944113  0.11201480  0.27779284
   0.99996294  0.77693734  0.77782331
   0.24935849  0.22138662  0.38956482
   0.99953975  0.11137892  0.77769073
   0.24980698  0.44471200  0.94484922
   0.74994366  0.66650248  0.16652675
   0.49965470  0.00101009  0.66653799
Direct configuration=     2
   0.49945717  0.22227243  0.22241600
   0.00070118  0.22205451  0.22234076
   0.24956005  0.22198081  0.05491571
   0.49996588  0.77759055  0.10992832
   0.00004795  0.44468439  0.10987819
   0.00148144  0.44486166  0.44440011
   0.25047156  0.77742870  0.61117863
   0.00060889  0.66659512  0.00018971
   0.75069806  0.55537664  0.72238025
   0.49987171  0.66677549  0.33331035
   0.24977592  0.88860132  0.72214345
   0.99984612  0.44512892  0.77684544
   0.00057451  0.33375202  0.66680044
   0.24951062  0.66690778  0.83242879
   0.74976410  0.11102736  0.61096575
   0.00123244  0.66637673  0.66781672
   0.24981463  0.77788080  0.27822725
   0.49921610  0.66707320  0.66579170
   0.50039648  0.77801080  0.77814819
   0.49961187  0.99881015  0.00014513
   0.50018019  0.11107501  0.77807370
   0.49998553  0.33307265  0.33347798
   0.00032032  0.88895854  0.22244517
   0.24911680  0.55574890  0.38946179
   0.49958214  0.66698097  0.00023150
   0.75027631  0.44531190  0.61028089
   0.75044206  0.77753263  0.61051790
   0.00020895  0.11107666  0.10979978
   0.24978244  0.99970668  0.83277721
   0.50091830  0.55580766  0.89011218
   0.99977438  0.89001285  0.88927228
   0.24996115  0.44405207  0.27790353
   0.49932172  0.55579543  0.55665772
   0.00061817  0.88896585  0.55521105
   0.50002708  0.33285617  0.66576063
   0.75033506  0.22197818  0.05468351
   0.50010698  0.11132238  0.44410215
   0.75008532  0.77771801  0.27803589
   0.75012042  0.11104979  0.27798674
   0.74989649  0.99987078  0.16659852
   0.99994881  0.55582707  0.88813624
   0.74858472  0.88985542  0.38919278
   0.50007465  0.88819263  0.89146711
   0.49984622  0.33398801  0.99987426
   0.50027798  0.22232851  0.88896697
   0.00042892  0.66696825  0.33363088
   0.74923593  0.22194247  0.38931823
   0.49905075  0.77891992  0.44452165
   0.75047247  0.11115583  0.94550420
   0.75029444  0.88945360  0.72203401
   0.24955179  0.55547222  0.72183387
   0.24927061  0.88921082  0.38901134
   0.00048412  0.22221846  0.55458311
   0.49985817  0.11085338  0.11061151
   0.74950566  0.55541758  0.38905429
   0.74989740  0.77778519  0.94553104
   0.75022894  0.66691646  0.50126487
   0.24989517  0.33323698  0.83304594
   0.00073197  0.99975969  0.33341594
   0.50055529  0.55542708  0.22160039
   0.74981024  0.33309458  0.50047319
   0.50030633  0.44425820  0.77787956
   0.00030115  0.33320097  0.33327574
   0.25006595  0.33336972  0.16670785
   0.00045932  0.55549436  0.55551175
   0.74995897  0.44461966  0.27791822
   0.00340421  0.77805406  0.44460201
   0.99920445  0.21998696  0.88904558
   0.49981687  0.44503749  0.11030938
   0.25293316  0.99832440  0.49862386
   0.49758329  0.22084767  0.55565206
   0.25146827  0.22226731  0.72288353
   0.74988949  0.99982728  0.50045873
   0.99998007  0.00010918  0.00008268
   0.75036008  0.66693378  0.83357887
   0.75136949  0.22074985  0.72236739
   0.25013305  0.66791043  0.50003901
   0.25045806  0.77713746  0.94463678
   0.24927900  0.33196863  0.49947645
   0.00092896  0.33329642  0.00034343
   0.99992977  0.77750540  0.11108484
   0.74872147  0.88993154  0.05567140
   0.50059382  0.99997644  0.33420429
   0.50088101  0.44620564  0.44431061
   0.74958925  0.33292517  0.83310680
   0.75005035  0.99724810  0.83355264
   0.00031881  0.55557723  0.22201012
   0.99868386  0.99904984  0.66654637
   0.74986852  0.55577792  0.05513012
   0.49967079  0.88857318  0.22231688
   0.74988295  0.33365027  0.16636039
   0.49572253  0.89001527  0.55533943
   0.25110623  0.88903065  0.05514552
   0.00126089  0.11082081  0.44462753
   0.25001601  0.99999079  0.16673625
   0.24836089  0.44751174  0.61071703
   0.25076309  0.11071119  0.61029434
   0.74754952  0.44482553  0.94522170
   0.25005873  0.55560233  0.05515173
   0.24941840  0.11098159  0.94520500
   0.25027455  0.66664661  0.16700363
   0.24944113  0.11201480  0.27803055
   0.99996294  0.77693734  0.77687648
   0.24935849  0.22138662  0.38996283
   0.99953975  0.11137892  0.77743097
   0.24980698  0.44471200  0.94527025
   0.74994366  0.66650248  0.16648828
   0.49965470  0.00101009  0.66609582
Direct configuration=     3
   0.49945717  0.22227243  0.22243332
   0.00070118  0.22205451  0.22234404
   0.24956005  0.22198081  0.05489281
   0.49996588  0.77759055  0.10987620
   0.00004795  0.44468439  0.10981227
   0.00148144  0.44486166  0.44441605
   0.25047156  0.77742870  0.61120182
   0.00060889  0.66659512  0.00019968
   0.75069806  0.55537664  0.72238348
   0.49987171  0.66677549  0.33331495
   0.24977592  0.88860132  0.72215552
   0.99984612  0.44512892  0.77678322
   0.00057451  0.33375202  0.66681763
   0.24951062  0.66690778  0.83235914
   0.74976410  0.11102736  0.61093979
   0.00123244  0.66637673  0.66789584
   0.24981463  0.77788080  0.27825381
   0.49921610  0.66707320  0.66575174
   0.50039648  0.77801080  0.77815957
   0.49961187  0.99881015  0.00014034
   0.50018019  0.11107501  0.77810089
   0.49998553  0.33307265  0.33347631
   0.00032032  0.88895854  0.22245784
   0.24911680  0.55574890  0.38947791
   0.49958214  0.66698097  0.00024162
   0.75027631  0.44531190  0.61023857
   0.75044206  0.77753263  0.61048255
   0.00020895  0.11107666  0.10973677
   0.24978244  0.99970668  0.83274019
   0.50091830  0.55580766  0.89014640
   0.99977438  0.89001285  0.88926234
   0.24996115  0.44405207  0.27791287
   0.49932172  0.55579543  0.55671879
   0.00061817  0.88896585  0.55517674
   0.50002708  0.33285617  0.66569433
   0.75033506  0.22197818  0.05462943
   0.50010698  0.11132238  0.44408740
   0.75008532  0.77771801  0.27804941
   0.75012042  0.11104979  0.27799222
   0.74989649  0.99987078  0.16660439
   0.99994881  0.55582707  0.88809390
   0.74858472  0.88985542  0.38920407
   0.50007465  0.88819263  0.89160646
   0.49984622  0.33398801  0.99986575
   0.50027798  0.22232851  0.88896699
   0.00042892  0.66696825  0.33364167
   0.74923593  0.22194247  0.38932678
   0.49905075  0.77891992  0.44452322
   0.75047247  0.11115583  0.94558544
   0.75029444  0.88945360  0.72201990
   0.24955179  0.55547222  0.72183114
   0.24927061  0.88921082  0.38897748
   0.00048412  0.22221846  0.55449005
   0.49985817  0.11085338  0.11060190
   0.74950566  0.55541758  0.38905735
   0.74989740  0.77778519  0.94562762
   0.75022894  0.66691646  0.50136935
   0.24989517  0.33323698  0.83302281
   0.00073197  0.99975969  0.33342281
   0.50055529  0.55542708  0.22157643
   0.74981024  0.33309458  0.50051054
   0.50030633  0.44425820  0.77787844
   0.00030115  0.33320097  0.33327170
   0.25006595  0.33336972  0.16671109
   0.00045932  0.55549436  0.55549771
   0.74995897  0.44461966  0.27792498
   0.00340421  0.77805406  0.44462176
   0.99920445  0.21998696  0.88905631
   0.49981687  0.44503749  0.11026935
   0.25293316  0.99832440  0.49858249
   0.49758329  0.22084767  0.55565023
   0.25146827  0.22226731  0.72288556
   0.74988949  0.99982728  0.50049566
   0.99998007  0.00010918  0.00010193
   0.75036008  0.66693378  0.83356791
   0.75136949  0.22074985  0.72232407
   0.25013305  0.66791043  0.50005109
   0.25045806  0.77713746  0.94466542
   0.24927900  0.33196863  0.49947832
   0.00092896  0.33329642  0.00037106
   0.99992977  0.77750540  0.11106190
   0.74872147  0.88993154  0.05566577
   0.50059382  0.99997644  0.33424017
   0.50088101  0.44620564  0.44433662
   0.74958925  0.33292517  0.83310237
   0.75005035  0.99724810  0.83355956
   0.00031881  0.55557723  0.22200947
   0.99868386  0.99904984  0.66650728
   0.74986852  0.55577792  0.05510044
   0.49967079  0.88857318  0.22232198
   0.74988295  0.33365027  0.16634762
   0.49572253  0.89001527  0.55534434
   0.25110623  0.88903065  0.05513460
   0.00126089  0.11082081  0.44465356
   0.25001601  0.99999079  0.16674084
   0.24836089  0.44751174  0.61072311
   0.25076309  0.11071119  0.61028186
   0.74754952  0.44482553  0.94527413
   0.25005873  0.55560233  0.05513654
   0.24941840  0.11098159  0.94523439
   0.25027455  0.66664661  0.16702807
   0.24944113  0.11201480  0.27804833
   0.99996294  0.77693734  0.77680566
   0.24935849  0.22138662  0.38999260
   0.99953975  0.11137892  0.77741154
   0.24980698  0.44471200  0.94530174
   0.74994366  0.66650248  0.16648540
   0.49965470  0.00101009  0.66606274
Direct configuration=     4
   0.49945717  0.22227243  0.22243213
   0.00070118  0.22205451  0.22234381
   0.24956005  0.22198081  0.05489438
   0.49996588  0.77759055  0.10987979
   0.00004795  0.44468439  0.10981681
   0.00148144  0.44486166  0.44441495
   0.25047156  0.77742870  0.61120023
   0.00060889  0.66659512  0.00019899
   0.75069806  0.55537664  0.72238326
   0.49987171  0.66677549  0.33331463
   0.24977592  0.88860132  0.72215469
   0.99984612  0.44512892  0.77678750
   0.00057451  0.33375202  0.66681644
   0.24951062  0.66690778  0.83236394
   0.74976410  0.11102736  0.61094158
   0.00123244  0.66637673  0.66789039
   0.24981463  0.77788080  0.27825198
   0.49921610  0.66707320  0.66575449
   0.50039648  0.77801080  0.77815879
   0.49961187  0.99881015  0.00014067
   0.50018019  0.11107501  0.77809901
   0.49998553  0.33307265  0.33347643
   0.00032032  0.88895854  0.22245697
   0.24911680  0.55574890  0.38947680
   0.49958214  0.66698097  0.00024092
   0.75027631  0.44531190  0.61024148
   0.75044206  0.77753263  0.61048498
   0.00020895  0.11107666  0.10974111
   0.24978244  0.99970668  0.83274274
   0.50091830  0.55580766  0.89014404
   0.99977438  0.89001285  0.88926302
   0.24996115  0.44405207  0.27791223
   0.49932172  0.55579543  0.55671459
   0.00061817  0.88896585  0.55517910
   0.50002708  0.33285617  0.66569890
   0.75033506  0.22197818  0.05463316
   0.50010698  0.11132238  0.44408841
   0.75008532  0.77771801  0.27804848
   0.75012042  0.11104979  0.27799185
   0.74989649  0.99987078  0.16660399
   0.99994881  0.55582707  0.88809681
   0.74858472  0.88985542  0.38920330
   0.50007465  0.88819263  0.89159687
   0.49984622  0.33398801  0.99986634
   0.50027798  0.22232851  0.88896699
   0.00042892  0.66696825  0.33364093
   0.74923593  0.22194247  0.38932619
   0.49905075  0.77891992  0.44452311
   0.75047247  0.11115583  0.94557985
   0.75029444  0.88945360  0.72202087
   0.24955179  0.55547222  0.72183133
   0.24927061  0.88921082  0.38897981
   0.00048412  0.22221846  0.55449646
   0.49985817  0.11085338  0.11060256
   0.74950566  0.55541758  0.38905714
   0.74989740  0.77778519  0.94562097
   0.75022894  0.66691646  0.50136216
   0.24989517  0.33323698  0.83302440
   0.00073197  0.99975969  0.33342234
   0.50055529  0.55542708  0.22157808
   0.74981024  0.33309458  0.50050797
   0.50030633  0.44425820  0.77787851
   0.00030115  0.33320097  0.33327198
   0.25006595  0.33336972  0.16671087
   0.00045932  0.55549436  0.55549868
   0.74995897  0.44461966  0.27792451
   0.00340421  0.77805406  0.44462040
   0.99920445  0.21998696  0.88905557
   0.49981687  0.44503749  0.11027211
   0.25293316  0.99832440  0.49858534
   0.49758329  0.22084767  0.55565035
   0.25146827  0.22226731  0.72288542
   0.74988949  0.99982728  0.50049312
   0.99998007  0.00010918  0.00010060
   0.75036008  0.66693378  0.83356866
   0.75136949  0.22074985  0.72232705
   0.25013305  0.66791043  0.50005026
   0.25045806  0.77713746  0.94466345
   0.24927900  0.33196863  0.49947819
   0.00092896  0.33329642  0.00036916
   0.99992977  0.77750540  0.11106347
   0.74872147  0.88993154  0.05566615
   0.50059382  0.99997644  0.33423770
   0.50088101  0.44620564  0.44433483
   0.74958925  0.33292517  0.83310267
   0.75005035  0.99724810  0.83355908
   0.00031881  0.55557723  0.22200951
   0.99868386  0.99904984  0.66650997
   0.74986852  0.55577792  0.05510248
   0.49967079  0.88857318  0.22232163
   0.74988295  0.33365027  0.16634850
   0.49572253  0.89001527  0.55534401
   0.25110623  0.88903065  0.05513535
   0.00126089  0.11082081  0.44465177
   0.25001601  0.99999079  0.16674053
   0.24836089  0.44751174  0.61072269
   0.25076309  0.11071119  0.61028272
   0.74754952  0.44482553  0.94527052
   0.25005873  0.55560233  0.05513758
   0.24941840  0.11098159  0.94523237
   0.25027455  0.66664661  0.16702639
   0.24944113  0.11201480  0.27804711
   0.99996294  0.77693734  0.77681054
   0.24935849  0.22138662  0.38999055
   0.99953975  0.11137892  0.77741288
   0.24980698  0.44471200  0.94529957
   0.74994366  0.66650248  0.16648560
   0.49965470  0.00101009  0.66606502
Direct configuration=     5
   0.49945717  0.22227243  0.22242406
   0.00070118  0.22205451  0.22234229
   0.24956005  0.22198081  0.05490505
   0.49996588  0.77759055  0.10990406
   0.00004795  0.44468439  0.10984750
   0.00148144  0.44486166  0.44440753
   0.25047156  0.77742870  0.61118943
   0.00060889  0.66659512  0.00019435
   0.75069806  0.55537664  0.72238176
   0.49987171  0.66677549  0.33331249
   0.24977592  0.88860132  0.72214907
   0.99984612  0.44512892  0.77681647
   0.00057451  0.33375202  0.66680844
   0.24951062  0.66690778  0.83239636
   0.74976410  0.11102736  0.61095367
   0.00123244  0.66637673  0.66785355
   0.24981463  0.77788080  0.27823962
   0.49921610  0.66707320  0.66577309
   0.50039648  0.77801080  0.77815349
   0.49961187  0.99881015  0.00014290
   0.50018019  0.11107501  0.77808636
   0.49998553  0.33307265  0.33347721
   0.00032032  0.88895854  0.22245107
   0.24911680  0.55574890  0.38946929
   0.49958214  0.66698097  0.00023621
   0.75027631  0.44531190  0.61026119
   0.75044206  0.77753263  0.61050144
   0.00020895  0.11107666  0.10977044
   0.24978244  0.99970668  0.83275998
   0.50091830  0.55580766  0.89012811
   0.99977438  0.89001285  0.88926765
   0.24996115  0.44405207  0.27790788
   0.49932172  0.55579543  0.55668615
   0.00061817  0.88896585  0.55519507
   0.50002708  0.33285617  0.66572977
   0.75033506  0.22197818  0.05465833
   0.50010698  0.11132238  0.44409528
   0.75008532  0.77771801  0.27804218
   0.75012042  0.11104979  0.27798929
   0.74989649  0.99987078  0.16660125
   0.99994881  0.55582707  0.88811653
   0.74858472  0.88985542  0.38919804
   0.50007465  0.88819263  0.89153199
   0.49984622  0.33398801  0.99987030
   0.50027798  0.22232851  0.88896698
   0.00042892  0.66696825  0.33363590
   0.74923593  0.22194247  0.38932221
   0.49905075  0.77891992  0.44452238
   0.75047247  0.11115583  0.94554203
   0.75029444  0.88945360  0.72202744
   0.24955179  0.55547222  0.72183260
   0.24927061  0.88921082  0.38899557
   0.00048412  0.22221846  0.55453979
   0.49985817  0.11085338  0.11060704
   0.74950566  0.55541758  0.38905571
   0.74989740  0.77778519  0.94557601
   0.75022894  0.66691646  0.50131351
   0.24989517  0.33323698  0.83303517
   0.00073197  0.99975969  0.33341914
   0.50055529  0.55542708  0.22158924
   0.74981024  0.33309458  0.50049058
   0.50030633  0.44425820  0.77787904
   0.00030115  0.33320097  0.33327386
   0.25006595  0.33336972  0.16670936
   0.00045932  0.55549436  0.55550522
   0.74995897  0.44461966  0.27792137
   0.00340421  0.77805406  0.44461121
   0.99920445  0.21998696  0.88905058
   0.49981687  0.44503749  0.11029074
   0.25293316  0.99832440  0.49860460
   0.49758329  0.22084767  0.55565121
   0.25146827  0.22226731  0.72288447
   0.74988949  0.99982728  0.50047593
   0.99998007  0.00010918  0.00009164
   0.75036008  0.66693378  0.83357377
   0.75136949  0.22074985  0.72234722
   0.25013305  0.66791043  0.50004463
   0.25045806  0.77713746  0.94465012
   0.24927900  0.33196863  0.49947732
   0.00092896  0.33329642  0.00035629
   0.99992977  0.77750540  0.11107416
   0.74872147  0.88993154  0.05566878
   0.50059382  0.99997644  0.33422099
   0.50088101  0.44620564  0.44432272
   0.74958925  0.33292517  0.83310474
   0.75005035  0.99724810  0.83355586
   0.00031881  0.55557723  0.22200981
   0.99868386  0.99904984  0.66652817
   0.74986852  0.55577792  0.05511630
   0.49967079  0.88857318  0.22231925
   0.74988295  0.33365027  0.16635444
   0.49572253  0.89001527  0.55534172
   0.25110623  0.88903065  0.05514044
   0.00126089  0.11082081  0.44463965
   0.25001601  0.99999079  0.16673839
   0.24836089  0.44751174  0.61071986
   0.25076309  0.11071119  0.61028853
   0.74754952  0.44482553  0.94524611
   0.25005873  0.55560233  0.05514466
   0.24941840  0.11098159  0.94521869
   0.25027455  0.66664661  0.16701501
   0.24944113  0.11201480  0.27803883
   0.99996294  0.77693734  0.77684351
   0.24935849  0.22138662  0.38997669
   0.99953975  0.11137892  0.77742193
   0.24980698  0.44471200  0.94528491
   0.74994366  0.66650248  0.16648694
   0.49965470  0.00101009  0.66608042
Direct configuration=     6
   0.49945717  0.22227243  0.22242003
   0.00070118  0.22205451  0.22234153
   0.24956005  0.22198081  0.05491038
   0.49996588  0.77759055  0.10991619
   0.00004795  0.44468439  0.10986285
   0.00148144  0.44486166  0.44440382
   0.25047156  0.77742870  0.61118403
   0.00060889  0.66659512  0.00019203
   0.75069806  0.55537664  0.72238100
   0.49987171  0.66677549  0.33331142
   0.24977592  0.88860132  0.72214626
   0.99984612  0.44512892  0.77683095
   0.00057451  0.33375202  0.66680444
   0.24951062  0.66690778  0.83241258
   0.74976410  0.11102736  0.61095971
   0.00123244  0.66637673  0.66783514
   0.24981463  0.77788080  0.27823344
   0.49921610  0.66707320  0.66578240
   0.50039648  0.77801080  0.77815084
   0.49961187  0.99881015  0.00014401
   0.50018019  0.11107501  0.77808003
   0.49998553  0.33307265  0.33347759
   0.00032032  0.88895854  0.22244812
   0.24911680  0.55574890  0.38946554
   0.49958214  0.66698097  0.00023386
   0.75027631  0.44531190  0.61027104
   0.75044206  0.77753263  0.61050967
   0.00020895  0.11107666  0.10978511
   0.24978244  0.99970668  0.83276859
   0.50091830  0.55580766  0.89012015
   0.99977438  0.89001285  0.88926997
   0.24996115  0.44405207  0.27790571
   0.49932172  0.55579543  0.55667193
   0.00061817  0.88896585  0.55520306
   0.50002708  0.33285617  0.66574520
   0.75033506  0.22197818  0.05467092
   0.50010698  0.11132238  0.44409871
   0.75008532  0.77771801  0.27803904
   0.75012042  0.11104979  0.27798802
   0.74989649  0.99987078  0.16659989
   0.99994881  0.55582707  0.88812638
   0.74858472  0.88985542  0.38919541
   0.50007465  0.88819263  0.89149955
   0.49984622  0.33398801  0.99987228
   0.50027798  0.22232851  0.88896697
   0.00042892  0.66696825  0.33363339
   0.74923593  0.22194247  0.38932022
   0.49905075  0.77891992  0.44452202
   0.75047247  0.11115583  0.94552311
   0.75029444  0.88945360  0.72203072
   0.24955179  0.55547222  0.72183323
   0.24927061  0.88921082  0.38900346
   0.00048412  0.22221846  0.55456145
   0.49985817  0.11085338  0.11060927
   0.74950566  0.55541758  0.38905500
   0.74989740  0.77778519  0.94555353
   0.75022894  0.66691646  0.50128919
   0.24989517  0.33323698  0.83304055
   0.00073197  0.99975969  0.33341754
   0.50055529  0.55542708  0.22159482
   0.74981024  0.33309458  0.50048188
   0.50030633  0.44425820  0.77787930
   0.00030115  0.33320097  0.33327480
   0.25006595  0.33336972  0.16670861
   0.00045932  0.55549436  0.55550848
   0.74995897  0.44461966  0.27791979
   0.00340421  0.77805406  0.44460661
   0.99920445  0.21998696  0.88904808
   0.49981687  0.44503749  0.11030006
   0.25293316  0.99832440  0.49861423
   0.49758329  0.22084767  0.55565163
   0.25146827  0.22226731  0.72288400
   0.74988949  0.99982728  0.50046733
   0.99998007  0.00010918  0.00008716
   0.75036008  0.66693378  0.83357632
   0.75136949  0.22074985  0.72235731
   0.25013305  0.66791043  0.50004182
   0.25045806  0.77713746  0.94464345
   0.24927900  0.33196863  0.49947688
   0.00092896  0.33329642  0.00034986
   0.99992977  0.77750540  0.11107950
   0.74872147  0.88993154  0.05567009
   0.50059382  0.99997644  0.33421264
   0.50088101  0.44620564  0.44431666
   0.74958925  0.33292517  0.83310577
   0.75005035  0.99724810  0.83355425
   0.00031881  0.55557723  0.22200997
   0.99868386  0.99904984  0.66653727
   0.74986852  0.55577792  0.05512321
   0.49967079  0.88857318  0.22231807
   0.74988295  0.33365027  0.16635742
   0.49572253  0.89001527  0.55534058
   0.25110623  0.88903065  0.05514298
   0.00126089  0.11082081  0.44463359
   0.25001601  0.99999079  0.16673732
   0.24836089  0.44751174  0.61071844
   0.25076309  0.11071119  0.61029143
   0.74754952  0.44482553  0.94523391
   0.25005873  0.55560233  0.05514820
   0.24941840  0.11098159  0.94521184
   0.25027455  0.66664661  0.16700932
   0.24944113  0.11201480  0.27803469
   0.99996294  0.77693734  0.77686000
   0.24935849  0.22138662  0.38996976
   0.99953975  0.11137892  0.77742645
   0.24980698  0.44471200  0.94527758
   0.74994366  0.66650248  0.16648761
   0.49965470  0.00101009  0.66608812
Direct configuration=     7
   0.49945717  0.22227243  0.22241801
   0.00070118  0.22205451  0.22234114
   0.24956005  0.22198081  0.05491304
   0.49996588  0.77759055  0.10992225
   0.00004795  0.44468439  0.10987052
   0.00148144  0.44486166  0.44440197
   0.25047156  0.77742870  0.61118133
   0.00060889  0.66659512  0.00019087
   0.75069806  0.55537664  0.72238063
   0.49987171  0.66677549  0.33331088
   0.24977592  0.88860132  0.72214485
   0.99984612  0.44512892  0.77683820
   0.00057451  0.33375202  0.66680244
   0.24951062  0.66690778  0.83242068
   0.74976410  0.11102736  0.61096273
   0.00123244  0.66637673  0.66782593
   0.24981463  0.77788080  0.27823035
   0.49921610  0.66707320  0.66578705
   0.50039648  0.77801080  0.77814952
   0.49961187  0.99881015  0.00014457
   0.50018019  0.11107501  0.77807686
   0.49998553  0.33307265  0.33347779
   0.00032032  0.88895854  0.22244665
   0.24911680  0.55574890  0.38946367
   0.49958214  0.66698097  0.00023268
   0.75027631  0.44531190  0.61027596
   0.75044206  0.77753263  0.61051379
   0.00020895  0.11107666  0.10979244
   0.24978244  0.99970668  0.83277290
   0.50091830  0.55580766  0.89011616
   0.99977438  0.89001285  0.88927112
   0.24996115  0.44405207  0.27790462
   0.49932172  0.55579543  0.55666483
   0.00061817  0.88896585  0.55520706
   0.50002708  0.33285617  0.66575292
   0.75033506  0.22197818  0.05467721
   0.50010698  0.11132238  0.44410043
   0.75008532  0.77771801  0.27803746
   0.75012042  0.11104979  0.27798738
   0.74989649  0.99987078  0.16659921
   0.99994881  0.55582707  0.88813131
   0.74858472  0.88985542  0.38919410
   0.50007465  0.88819263  0.89148333
   0.49984622  0.33398801  0.99987327
   0.50027798  0.22232851  0.88896697
   0.00042892  0.66696825  0.33363213
   0.74923593  0.22194247  0.38931923
   0.49905075  0.77891992  0.44452184
   0.75047247  0.11115583  0.94551366
   0.75029444  0.88945360  0.72203236
   0.24955179  0.55547222  0.72183355
   0.24927061  0.88921082  0.38900740
   0.00048412  0.22221846  0.55457228
   0.49985817  0.11085338  0.11061039
   0.74950566  0.55541758  0.38905465
   0.74989740  0.77778519  0.94554228
   0.75022894  0.66691646  0.50127703
   0.24989517  0.33323698  0.83304324
   0.00073197  0.99975969  0.33341674
   0.50055529  0.55542708  0.22159761
   0.74981024  0.33309458  0.50047753
   0.50030633  0.44425820  0.77787943
   0.00030115  0.33320097  0.33327527
   0.25006595  0.33336972  0.16670823
   0.00045932  0.55549436  0.55551012
   0.74995897  0.44461966  0.27791901
   0.00340421  0.77805406  0.44460431
   0.99920445  0.21998696  0.88904683
   0.49981687  0.44503749  0.11030472
   0.25293316  0.99832440  0.49861904
   0.49758329  0.22084767  0.55565185
   0.25146827  0.22226731  0.72288377
   0.74988949  0.99982728  0.50046303
   0.99998007  0.00010918  0.00008492
   0.75036008  0.66693378  0.83357760
   0.75136949  0.22074985  0.72236235
   0.25013305  0.66791043  0.50004042
   0.25045806  0.77713746  0.94464011
   0.24927900  0.33196863  0.49947667
   0.00092896  0.33329642  0.00034665
   0.99992977  0.77750540  0.11108217
   0.74872147  0.88993154  0.05567074
   0.50059382  0.99997644  0.33420847
   0.50088101  0.44620564  0.44431364
   0.74958925  0.33292517  0.83310629
   0.75005035  0.99724810  0.83355345
   0.00031881  0.55557723  0.22201004
   0.99868386  0.99904984  0.66654182
   0.74986852  0.55577792  0.05512667
   0.49967079  0.88857318  0.22231747
   0.74988295  0.33365027  0.16635890
   0.49572253  0.89001527  0.55534001
   0.25110623  0.88903065  0.05514425
   0.00126089  0.11082081  0.44463056
   0.25001601  0.99999079  0.16673678
   0.24836089  0.44751174  0.61071774
   0.25076309  0.11071119  0.61029288
   0.74754952  0.44482553  0.94522780
   0.25005873  0.55560233  0.05514997
   0.24941840  0.11098159  0.94520842
   0.25027455  0.66664661  0.16700648
   0.24944113  0.11201480  0.27803262
   0.99996294  0.77693734  0.77686824
   0.24935849  0.22138662  0.38996630
   0.99953975  0.11137892  0.77742871
   0.24980698  0.44471200  0.94527391
   0.74994366  0.66650248  0.16648794
   0.49965470  0.00101009  0.66609197
Direct configuration=     8
   0.49945717  0.22227243  0.22241701
   0.00070118  0.22205451  0.22234095
   0.24956005  0.22198081  0.05491438
   0.49996588  0.77759055  0.10992529
   0.00004795  0.44468439  0.10987436
   0.00148144  0.44486166  0.44440104
   0.25047156  0.77742870  0.61117998
   0.00060889  0.66659512  0.00019029
   0.75069806  0.55537664  0.72238044
   0.49987171  0.66677549  0.33331061
   0.24977592  0.88860132  0.72214415
   0.99984612  0.44512892  0.77684182
   0.00057451  0.33375202  0.66680144
   0.24951062  0.66690778  0.83242474
   0.74976410  0.11102736  0.61096424
   0.00123244  0.66637673  0.66782132
   0.24981463  0.77788080  0.27822880
   0.49921610  0.66707320  0.66578937
   0.50039648  0.77801080  0.77814885
   0.49961187  0.99881015  0.00014485
   0.50018019  0.11107501  0.77807528
   0.49998553  0.33307265  0.33347788
   0.00032032  0.88895854  0.22244591
   0.24911680  0.55574890  0.38946273
   0.49958214  0.66698097  0.00023209
   0.75027631  0.44531190  0.61027843
   0.75044206  0.77753263  0.61051585
   0.00020895  0.11107666  0.10979611
   0.24978244  0.99970668  0.83277506
   0.50091830  0.55580766  0.89011417
   0.99977438  0.89001285  0.88927170
   0.24996115  0.44405207  0.27790408
   0.49932172  0.55579543  0.55666127
   0.00061817  0.88896585  0.55520905
   0.50002708  0.33285617  0.66575678
   0.75033506  0.22197818  0.05468036
   0.50010698  0.11132238  0.44410129
   0.75008532  0.77771801  0.27803667
   0.75012042  0.11104979  0.27798706
   0.74989649  0.99987078  0.16659886
   0.99994881  0.55582707  0.88813378
   0.74858472  0.88985542  0.38919344
   0.50007465  0.88819263  0.89147522
   0.49984622  0.33398801  0.99987377
   0.50027798  0.22232851  0.88896697
   0.00042892  0.66696825  0.33363150
   0.74923593  0.22194247  0.38931873
   0.49905075  0.77891992  0.44452174
   0.75047247  0.11115583  0.94550893
   0.75029444  0.88945360  0.72203319
   0.24955179  0.55547222  0.72183371
   0.24927061  0.88921082  0.38900937
   0.00048412  0.22221846  0.55457770
   0.49985817  0.11085338  0.11061095
   0.74950566  0.55541758  0.38905447
   0.74989740  0.77778519  0.94553666
   0.75022894  0.66691646  0.50127095
   0.24989517  0.33323698  0.83304459
   0.00073197  0.99975969  0.33341634
   0.50055529  0.55542708  0.22159900
   0.74981024  0.33309458  0.50047536
   0.50030633  0.44425820  0.77787950
   0.00030115  0.33320097  0.33327551
   0.25006595  0.33336972  0.16670804
   0.00045932  0.55549436  0.55551094
   0.74995897  0.44461966  0.27791861
   0.00340421  0.77805406  0.44460316
   0.99920445  0.21998696  0.88904621
   0.49981687  0.44503749  0.11030705
   0.25293316  0.99832440  0.49862145
   0.49758329  0.22084767  0.55565195
   0.25146827  0.22226731  0.72288365
   0.74988949  0.99982728  0.50046088
   0.99998007  0.00010918  0.00008380
   0.75036008  0.66693378  0.83357823
   0.75136949  0.22074985  0.72236487
   0.25013305  0.66791043  0.50003971
   0.25045806  0.77713746  0.94463845
   0.24927900  0.33196863  0.49947656
   0.00092896  0.33329642  0.00034504
   0.99992977  0.77750540  0.11108350
   0.74872147  0.88993154  0.05567107
   0.50059382  0.99997644  0.33420638
   0.50088101  0.44620564  0.44431212
   0.74958925  0.33292517  0.83310654
   0.75005035  0.99724810  0.83355304
   0.00031881  0.55557723  0.22201008
   0.99868386  0.99904984  0.66654409
   0.74986852  0.55577792  0.05512839
   0.49967079  0.88857318  0.22231718
   0.74988295  0.33365027  0.16635965
   0.49572253  0.89001527  0.55533972
   0.25110623  0.88903065  0.05514489
   0.00126089  0.11082081  0.44462905
   0.25001601  0.99999079  0.16673652
   0.24836089  0.44751174  0.61071738
   0.25076309  0.11071119  0.61029361
   0.74754952  0.44482553  0.94522475
   0.25005873  0.55560233  0.05515085
   0.24941840  0.11098159  0.94520671
   0.25027455  0.66664661  0.16700505
   0.24944113  0.11201480  0.27803159
   0.99996294  0.77693734  0.77687236
   0.24935849  0.22138662  0.38996456
   0.99953975  0.11137892  0.77742984
   0.24980698  0.44471200  0.94527208
   0.74994366  0.66650248  0.16648811
   0.49965470  0.00101009  0.66609389
Direct configuration=     9
   0.49945717  0.22227243  0.22241650
   0.00070118  0.22205451  0.22234086
   0.24956005  0.22198081  0.05491504
   0.49996588  0.77759055  0.10992680
   0.00004795  0.44468439  0.10987628
   0.00148144  0.44486166  0.44440058
   0.25047156  0.77742870  0.61117931
   0.00060889  0.66659512  0.00019000
   0.75069806  0.55537664  0.72238035
   0.49987171  0.66677549  0.33331048
   0.24977592  0.88860132  0.72214380
   0.99984612  0.44512892  0.77684363
   0.00057451  0.33375202  0.66680094
   0.24951062  0.66690778  0.83242676
   0.74976410  0.11102736  0.61096499
   0.00123244  0.66637673  0.66781902
   0.24981463  0.77788080  0.27822803
   0.49921610  0.66707320  0.66579053
   0.50039648  0.77801080  0.77814852
   0.49961187  0.99881015  0.00014499
   0.50018019  0.11107501  0.77807449
   0.49998553  0.33307265  0.33347793
   0.00032032  0.88895854  0.22244554
   0.24911680  0.55574890  0.38946226
   0.49958214  0.66698097  0.00023180
   0.75027631  0.44531190  0.61027966
   0.75044206  0.77753263  0.61051687
   0.00020895  0.11107666  0.10979794
   0.24978244  0.99970668  0.83277613
   0.50091830  0.55580766  0.89011318
   0.99977438  0.89001285  0.88927199
   0.24996115  0.44405207  0.27790380
   0.49932172  0.55579543  0.55665949
   0.00061817  0.88896585  0.55521005
   0.50002708  0.33285617  0.66575871
   0.75033506  0.22197818  0.05468193
   0.50010698  0.11132238  0.44410172
   0.75008532  0.77771801  0.27803628
   0.75012042  0.11104979  0.27798690
   0.74989649  0.99987078  0.16659869
   0.99994881  0.55582707  0.88813501
   0.74858472  0.88985542  0.38919311
   0.50007465  0.88819263  0.89147117
   0.49984622  0.33398801  0.99987402
   0.50027798  0.22232851  0.88896697
   0.00042892  0.66696825  0.33363119
   0.74923593  0.22194247  0.38931848
   0.49905075  0.77891992  0.44452170
   0.75047247  0.11115583  0.94550656
   0.75029444  0.88945360  0.72203360
   0.24955179  0.55547222  0.72183379
   0.24927061  0.88921082  0.38901035
   0.00048412  0.22221846  0.55458041
   0.49985817  0.11085338  0.11061123
   0.74950566  0.55541758  0.38905438
   0.74989740  0.77778519  0.94553385
   0.75022894  0.66691646  0.50126791
   0.24989517  0.33323698  0.83304526
   0.00073197  0.99975969  0.33341614
   0.50055529  0.55542708  0.22159970
   0.74981024  0.33309458  0.50047427
   0.50030633  0.44425820  0.77787953
   0.00030115  0.33320097  0.33327562
   0.25006595  0.33336972  0.16670795
   0.00045932  0.55549436  0.55551134
   0.74995897  0.44461966  0.27791842
   0.00340421  0.77805406  0.44460258
   0.99920445  0.21998696  0.88904589
   0.49981687  0.44503749  0.11030822
   0.25293316  0.99832440  0.49862265
   0.49758329  0.22084767  0.55565201
   0.25146827  0.22226731  0.72288359
   0.74988949  0.99982728  0.50045981
   0.99998007  0.00010918  0.00008324
   0.75036008  0.66693378  0.83357855
   0.75136949  0.22074985  0.72236613
   0.25013305  0.66791043  0.50003936
   0.25045806  0.77713746  0.94463761
   0.24927900  0.33196863  0.49947650
   0.00092896  0.33329642  0.00034423
   0.99992977  0.77750540  0.11108417
   0.74872147  0.88993154  0.05567123
   0.50059382  0.99997644  0.33420534
   0.50088101  0.44620564  0.44431137
   0.74958925  0.33292517  0.83310667
   0.75005035  0.99724810  0.83355284
   0.00031881  0.55557723  0.22201010
   0.99868386  0.99904984  0.66654523
   0.74986852  0.55577792  0.05512926
   0.49967079  0.88857318  0.22231703
   0.74988295  0.33365027  0.16636002
   0.49572253  0.89001527  0.55533958
   0.25110623  0.88903065  0.05514521
   0.00126089  0.11082081  0.44462829
   0.25001601  0.99999079  0.16673638
   0.24836089  0.44751174  0.61071720
   0.25076309  0.11071119  0.61029397
   0.74754952  0.44482553  0.94522323
   0.25005873  0.55560233  0.05515129
   0.24941840  0.11098159  0.94520586
   0.25027455  0.66664661  0.16700434
   0.24944113  0.11201480  0.27803107
   0.99996294  0.77693734  0.77687442
   0.24935849  0.22138662  0.38996370
   0.99953975  0.11137892  0.77743041
   0.24980698  0.44471200  0.94527117
   0.74994366  0.66650248  0.16648819
   0.49965470  0.00101009  0.66609485
Direct configuration=    10
   0.49945717  0.22227243  0.22241625
   0.00070118  0.22205451  0.22234081
   0.24956005  0.22198081  0.05491538
   0.49996588  0.77759055  0.10992756
   0.00004795  0.44468439  0.10987724
   0.00148144  0.44486166  0.44440035
   0.25047156  0.77742870  0.61117897
   0.00060889  0.66659512  0.00018985
   0.75069806  0.55537664  0.72238030
   0.49987171  0.66677549  0.33331041
   0.24977592  0.88860132  0.72214362
   0.99984612  0.44512892  0.77684453
   0.00057451  0.33375202  0.66680069
   0.24951062  0.66690778  0.83242778
   0.74976410  0.11102736  0.61096537
   0.00123244  0.66637673  0.66781787
   0.24981463  0.77788080  0.27822764
   0.49921610  0.66707320  0.66579112
   0.50039648  0.77801080  0.77814836
   0.49961187  0.99881015  0.00014506
   0.50018019  0.11107501  0.77807409
   0.49998553  0.33307265  0.33347796
   0.00032032  0.88895854  0.22244536
   0.24911680  0.55574890  0.38946203
   0.49958214  0.66698097  0.00023165
   0.75027631  0.44531190  0.61028028
   0.75044206  0.77753263  0.61051739
   0.00020895  0.11107666  0.10979886
   0.24978244  0.99970668  0.83277667
   0.50091830  0.55580766  0.89011268
   0.99977438  0.89001285  0.88927214
   0.24996115  0.44405207  0.27790367
   0.49932172  0.55579543  0.55665861
   0.00061817  0.88896585  0.55521055
   0.50002708  0.33285617  0.66575967
   0.75033506  0.22197818  0.05468272
   0.50010698  0.11132238  0.44410193
   0.75008532  0.77771801  0.27803608
   0.75012042  0.11104979  0.27798682
   0.74989649  0.99987078  0.16659861
   0.99994881  0.55582707  0.88813562
   0.74858472  0.88985542  0.38919295
   0.50007465  0.88819263  0.89146914
   0.49984622  0.33398801  0.99987414
   0.50027798  0.22232851  0.88896697
   0.00042892  0.66696825  0.33363103
   0.74923593  0.22194247  0.38931836
   0.49905075  0.77891992  0.44452168
   0.75047247  0.11115583  0.94550538
   0.75029444  0.88945360  0.72203380
   0.24955179  0.55547222  0.72183383
   0.24927061  0.88921082  0.38901085
   0.00048412  0.22221846  0.55458176
   0.49985817  0.11085338  0.11061137
   0.74950566  0.55541758  0.38905433
   0.74989740  0.77778519  0.94553245
   0.75022894  0.66691646  0.50126639
   0.24989517  0.33323698  0.83304560
   0.00073197  0.99975969  0.33341604
   0.50055529  0.55542708  0.22160005
   0.74981024  0.33309458  0.50047373
   0.50030633  0.44425820  0.77787954
   0.00030115  0.33320097  0.33327568
   0.25006595  0.33336972  0.16670790
   0.00045932  0.55549436  0.55551155
   0.74995897  0.44461966  0.27791832
   0.00340421  0.77805406  0.44460230
   0.99920445  0.21998696  0.88904574
   0.49981687  0.44503749  0.11030880
   0.25293316  0.99832440  0.49862325
   0.49758329  0.22084767  0.55565203
   0.25146827  0.22226731  0.72288356
   0.74988949  0.99982728  0.50045927
   0.99998007  0.00010918  0.00008296
   0.75036008  0.66693378  0.83357871
   0.75136949  0.22074985  0.72236676
   0.25013305  0.66791043  0.50003919
   0.25045806  0.77713746  0.94463720
   0.24927900  0.33196863  0.49947648
   0.00092896  0.33329642  0.00034383
   0.99992977  0.77750540  0.11108450
   0.74872147  0.88993154  0.05567132
   0.50059382  0.99997644  0.33420482
   0.50088101  0.44620564  0.44431099
   0.74958925  0.33292517  0.83310674
   0.75005035  0.99724810  0.83355274
   0.00031881  0.55557723  0.22201011
   0.99868386  0.99904984  0.66654580
   0.74986852  0.55577792  0.05512969
   0.49967079  0.88857318  0.22231695
   0.74988295  0.33365027  0.16636020
   0.49572253  0.89001527  0.55533951
   0.25110623  0.88903065  0.05514536
   0.00126089  0.11082081  0.44462791
   0.25001601  0.99999079  0.16673632
   0.24836089  0.44751174  0.61071712
   0.25076309  0.11071119  0.61029416
   0.74754952  0.44482553  0.94522246
   0.25005873  0.55560233  0.05515151
   0.24941840  0.11098159  0.94520543
   0.25027455  0.66664661  0.16700399
   0.24944113  0.11201480  0.27803081
   0.99996294  0.77693734  0.77687545
   0.24935849  0.22138662  0.38996326
   0.99953975  0.11137892  0.77743069
   0.24980698  0.44471200  0.94527071
   0.74994366  0.66650248  0.16648824
   0.49965470  0.00101009  0.66609534
Direct configuration=    11
   0.49945717  0.22227243  0.22241612
   0.00070118  0.22205451  0.22234079
   0.24956005  0.22198081  0.05491554
   0.49996588  0.77759055  0.10992794
   0.00004795  0.44468439  0.10987771
   0.00148144  0.44486166  0.44440023
   0.25047156  0.77742870  0.61117880
   0.00060889  0.66659512  0.00018978
   0.75069806  0.55537664  0.72238028
   0.49987171  0.66677549  0.33331038
   0.24977592  0.88860132  0.72214353
   0.99984612  0.44512892  0.77684499
   0.00057451  0.33375202  0.66680057
   0.24951062  0.66690778  0.83242828
   0.74976410  0.11102736  0.61096556
   0.00123244  0.66637673  0.66781729
   0.24981463  0.77788080  0.27822745
   0.49921610  0.66707320  0.66579141
   0.50039648  0.77801080  0.77814827
   0.49961187  0.99881015  0.00014510
   0.50018019  0.11107501  0.77807389
   0.49998553  0.33307265  0.33347797
   0.00032032  0.88895854  0.22244526
   0.24911680  0.55574890  0.38946191
   0.49958214  0.66698097  0.00023158
   0.75027631  0.44531190  0.61028058
   0.75044206  0.77753263  0.61051765
   0.00020895  0.11107666  0.10979932
   0.24978244  0.99970668  0.83277694
   0.50091830  0.55580766  0.89011243
   0.99977438  0.89001285  0.88927221
   0.24996115  0.44405207  0.27790360
   0.49932172  0.55579543  0.55665816
   0.00061817  0.88896585  0.55521080
   0.50002708  0.33285617  0.66576015
   0.75033506  0.22197818  0.05468311
   0.50010698  0.11132238  0.44410204
   0.75008532  0.77771801  0.27803598
   0.75012042  0.11104979  0.27798678
   0.74989649  0.99987078  0.16659857
   0.99994881  0.55582707  0.88813593
   0.74858472  0.88985542  0.38919287
   0.50007465  0.88819263  0.89146812
   0.49984622  0.33398801  0.99987420
   0.50027798  0.22232851  0.88896697
   0.00042892  0.66696825  0.33363095
   0.74923593  0.22194247  0.38931829
   0.49905075  0.77891992  0.44452166
   0.75047247  0.11115583  0.94550479
   0.75029444  0.88945360  0.72203390
   0.24955179  0.55547222  0.72183385
   0.24927061  0.88921082  0.38901109
   0.00048412  0.22221846  0.55458244
   0.49985817  0.11085338  0.11061144
   0.74950566  0.55541758  0.38905431
   0.74989740  0.77778519  0.94553175
   0.75022894  0.66691646  0.50126563
   0.24989517  0.33323698  0.83304577
   0.00073197  0.99975969  0.33341599
   0.50055529  0.55542708  0.22160022
   0.74981024  0.33309458  0.50047346
   0.50030633  0.44425820  0.77787955
   0.00030115  0.33320097  0.33327571
   0.25006595  0.33336972  0.16670788
   0.00045932  0.55549436  0.55551165
   0.74995897  0.44461966  0.27791827
   0.00340421  0.77805406  0.44460215
   0.99920445  0.21998696  0.88904566
   0.49981687  0.44503749  0.11030909
   0.25293316  0.99832440  0.49862355
   0.49758329  0.22084767  0.55565205
   0.25146827  0.22226731  0.72288354
   0.74988949  0.99982728  0.50045900
   0.99998007  0.00010918  0.00008282
   0.75036008  0.66693378  0.83357879
   0.75136949  0.22074985  0.72236708
   0.25013305  0.66791043  0.50003910
   0.25045806  0.77713746  0.94463699
   0.24927900  0.33196863  0.49947646
   0.00092896  0.33329642  0.00034363
   0.99992977  0.77750540  0.11108467
   0.74872147  0.88993154  0.05567136
   0.50059382  0.99997644  0.33420455
   0.50088101  0.44620564  0.44431080
   0.74958925  0.33292517  0.83310677
   0.75005035  0.99724810  0.83355269
   0.00031881  0.55557723  0.22201011
   0.99868386  0.99904984  0.66654608
   0.74986852  0.55577792  0.05512990
   0.49967079  0.88857318  0.22231692
   0.74988295  0.33365027  0.16636030
   0.49572253  0.89001527  0.55533947
   0.25110623  0.88903065  0.05514544
   0.00126089  0.11082081  0.44462772
   0.25001601  0.99999079  0.16673628
   0.24836089  0.44751174  0.61071707
   0.25076309  0.11071119  0.61029425
   0.74754952  0.44482553  0.94522208
   0.25005873  0.55560233  0.05515162
   0.24941840  0.11098159  0.94520522
   0.25027455  0.66664661  0.16700381
   0.24944113  0.11201480  0.27803068
   0.99996294  0.77693734  0.77687597
   0.24935849  0.22138662  0.38996305
   0.99953975  0.11137892  0.77743083
   0.24980698  0.44471200  0.94527048
   0.74994366  0.66650248  0.16648826
   0.49965470  0.00101009  0.66609558
Direct configuration=    12
   0.49945717  0.22227243  0.22241606
   0.00070118  0.22205451  0.22234077
   0.24956005  0.22198081  0.05491563
   0.49996588  0.77759055  0.10992813
   0.00004795  0.44468439  0.10987795
   0.00148144  0.44486166  0.44440017
   0.25047156  0.77742870  0.61117872
   0.00060889  0.66659512  0.00018974
   0.75069806  0.55537664  0.72238026
   0.49987171  0.66677549  0.33331036
   0.24977592  0.88860132  0.72214349
   0.99984612  0.44512892  0.77684521
   0.00057451  0.33375202  0.66680050
   0.24951062  0.66690778  0.83242854
   0.74976410  0.11102736  0.61096566
   0.00123244  0.66637673  0.66781700
   0.24981463  0.77788080  0.27822735
   0.49921610  0.66707320  0.66579155
   0.50039648  0.77801080  0.77814823
   0.49961187  0.99881015  0.00014511
   0.50018019  0.11107501  0.77807380
   0.49998553  0.33307265  0.33347798
   0.00032032  0.88895854  0.22244522
   0.24911680  0.55574890  0.38946185
   0.49958214  0.66698097  0.00023154
   0.75027631  0.44531190  0.61028074
   0.75044206  0.77753263  0.61051777
   0.00020895  0.11107666  0.10979955
   0.24978244  0.99970668  0.83277708
   0.50091830  0.55580766  0.89011230
   0.99977438  0.89001285  0.88927225
   0.24996115  0.44405207  0.27790357
   0.49932172  0.55579543  0.55665794
   0.00061817  0.88896585  0.55521093
   0.50002708  0.33285617  0.66576039
   0.75033506  0.22197818  0.05468331
   0.50010698  0.11132238  0.44410209
   0.75008532  0.77771801  0.27803594
   0.75012042  0.11104979  0.27798676
   0.74989649  0.99987078  0.16659854
   0.99994881  0.55582707  0.88813609
   0.74858472  0.88985542  0.38919282
   0.50007465  0.88819263  0.89146762
   0.49984622  0.33398801  0.99987423
   0.50027798  0.22232851  0.88896697
   0.00042892  0.66696825  0.33363091
   0.74923593  0.22194247  0.38931826
   0.49905075  0.77891992  0.44452166
   0.75047247  0.11115583  0.94550450
   0.75029444  0.88945360  0.72203395
   0.24955179  0.55547222  0.72183386
   0.24927061  0.88921082  0.38901121
   0.00048412  0.22221846  0.55458278
   0.49985817  0.11085338  0.11061147
   0.74950566  0.55541758  0.38905430
   0.74989740  0.77778519  0.94553139
   0.75022894  0.66691646  0.50126525
   0.24989517  0.33323698  0.83304585
   0.00073197  0.99975969  0.33341597
   0.50055529  0.55542708  0.22160031
   0.74981024  0.33309458  0.50047332
   0.50030633  0.44425820  0.77787956
   0.00030115  0.33320097  0.33327573
   0.25006595  0.33336972  0.16670787
   0.00045932  0.55549436  0.55551170
   0.74995897  0.44461966  0.27791825
   0.00340421  0.77805406  0.44460208
   0.99920445  0.21998696  0.88904562
   0.49981687  0.44503749  0.11030924
   0.25293316  0.99832440  0.49862370
   0.49758329  0.22084767  0.55565205
   0.25146827  0.22226731  0.72288354
   0.74988949  0.99982728  0.50045887
   0.99998007  0.00010918  0.00008275
   0.75036008  0.66693378  0.83357883
   0.75136949  0.22074985  0.72236723
   0.25013305  0.66791043  0.50003905
   0.25045806  0.77713746  0.94463689
   0.24927900  0.33196863  0.49947646
   0.00092896  0.33329642  0.00034353
   0.99992977  0.77750540  0.11108475
   0.74872147  0.88993154  0.05567138
   0.50059382  0.99997644  0.33420442
   0.50088101  0.44620564  0.44431070
   0.74958925  0.33292517  0.83310678
   0.75005035  0.99724810  0.83355267
   0.00031881  0.55557723  0.22201012
   0.99868386  0.99904984  0.66654623
   0.74986852  0.55577792  0.05513001
   0.49967079  0.88857318  0.22231690
   0.74988295  0.33365027  0.16636034
   0.49572253  0.89001527  0.55533945
   0.25110623  0.88903065  0.05514548
   0.00126089  0.11082081  0.44462763
   0.25001601  0.99999079  0.16673627
   0.24836089  0.44751174  0.61071705
   0.25076309  0.11071119  0.61029429
   0.74754952  0.44482553  0.94522189
   0.25005873  0.55560233  0.05515168
   0.24941840  0.11098159  0.94520511
   0.25027455  0.66664661  0.16700372
   0.24944113  0.11201480  0.27803062
   0.99996294  0.77693734  0.77687622
   0.24935849  0.22138662  0.38996294
   0.99953975  0.11137892  0.77743090
   0.24980698  0.44471200  0.94527036
   0.74994366  0.66650248  0.16648827
   0.49965470  0.00101009  0.66609570
Direct configuration=    13
   0.49945717  0.22227243  0.22241603
   0.00070118  0.22205451  0.22234077
   0.24956005  0.22198081  0.05491567
   0.49996588  0.77759055  0.10992822
   0.00004795  0.44468439  0.10987807
   0.00148144  0.44486166  0.44440014
   0.25047156  0.77742870  0.61117867
   0.00060889  0.66659512  0.00018972
   0.75069806  0.55537664  0.72238026
   0.49987171  0.66677549  0.33331035
   0.24977592  0.88860132  0.72214347
   0.99984612  0.44512892  0.77684532
   0.00057451  0.33375202  0.66680047
   0.24951062  0.66690778  0.83242866
   0.74976410  0.11102736  0.61096570
   0.00123244  0.66637673  0.66781686
   0.24981463  0.77788080  0.27822730
   0.49921610  0.66707320  0.66579162
   0.50039648  0.77801080  0.77814821
   0.49961187  0.99881015  0.00014512
   0.50018019  0.11107501  0.77807375
   0.49998553  0.33307265  0.33347798
   0.00032032  0.88895854  0.22244519
   0.24911680  0.55574890  0.38946182
   0.49958214  0.66698097  0.00023152
   0.75027631  0.44531190  0.61028081
   0.75044206  0.77753263  0.61051784
   0.00020895  0.11107666  0.10979966
   0.24978244  0.99970668  0.83277714
   0.50091830  0.55580766  0.89011224
   0.99977438  0.89001285  0.88927226
   0.24996115  0.44405207  0.27790355
   0.49932172  0.55579543  0.55665783
   0.00061817  0.88896585  0.55521099
   0.50002708  0.33285617  0.66576051
   0.75033506  0.22197818  0.05468341
   0.50010698  0.11132238  0.44410212
   0.75008532  0.77771801  0.27803591
   0.75012042  0.11104979  0.27798675
   0.74989649  0.99987078  0.16659853
   0.99994881  0.55582707  0.88813616
   0.74858472  0.88985542  0.38919280
   0.50007465  0.88819263  0.89146736
   0.49984622  0.33398801  0.99987425
   0.50027798  0.22232851  0.88896697
   0.00042892  0.66696825  0.33363090
   0.74923593  0.22194247  0.38931825
   0.49905075  0.77891992  0.44452166
   0.75047247  0.11115583  0.94550435
   0.75029444  0.88945360  0.72203398
   0.24955179  0.55547222  0.72183386
   0.24927061  0.88921082  0.38901128
   0.00048412  0.22221846  0.55458295
   0.49985817  0.11085338  0.11061149
   0.74950566  0.55541758  0.38905430
   0.74989740  0.77778519  0.94553122
   0.75022894  0.66691646  0.50126506
   0.24989517  0.33323698  0.83304589
   0.00073197  0.99975969  0.33341596
   0.50055529  0.55542708  0.22160035
   0.74981024  0.33309458  0.50047325
   0.50030633  0.44425820  0.77787956
   0.00030115  0.33320097  0.33327573
   0.25006595  0.33336972  0.16670786
   0.00045932  0.55549436  0.55551173
   0.74995897  0.44461966  0.27791823
   0.00340421  0.77805406  0.44460205
   0.99920445  0.21998696  0.88904560
   0.49981687  0.44503749  0.11030931
   0.25293316  0.99832440  0.49862378
   0.49758329  0.22084767  0.55565206
   0.25146827  0.22226731  0.72288353
   0.74988949  0.99982728  0.50045880
   0.99998007  0.00010918  0.00008271
   0.75036008  0.66693378  0.83357885
   0.75136949  0.22074985  0.72236731
   0.25013305  0.66791043  0.50003903
   0.25045806  0.77713746  0.94463683
   0.24927900  0.33196863  0.49947645
   0.00092896  0.33329642  0.00034348
   0.99992977  0.77750540  0.11108480
   0.74872147  0.88993154  0.05567139
   0.50059382  0.99997644  0.33420436
   0.50088101  0.44620564  0.44431066
   0.74958925  0.33292517  0.83310679
   0.75005035  0.99724810  0.83355265
   0.00031881  0.55557723  0.22201012
   0.99868386  0.99904984  0.66654630
   0.74986852  0.55577792  0.05513007
   0.49967079  0.88857318  0.22231689
   0.74988295  0.33365027  0.16636037
   0.49572253  0.89001527  0.55533944
   0.25110623  0.88903065  0.05514550
   0.00126089  0.11082081  0.44462758
   0.25001601  0.99999079  0.16673626
   0.24836089  0.44751174  0.61071704
   0.25076309  0.11071119  0.61029431
   0.74754952  0.44482553  0.94522180
   0.25005873  0.55560233  0.05515171
   0.24941840  0.11098159  0.94520506
   0.25027455  0.66664661  0.16700368
   0.24944113  0.11201480  0.27803059
   0.99996294  0.77693734  0.77687635
   0.24935849  0.22138662  0.38996288
   0.99953975  0.11137892  0.77743094
   0.24980698  0.44471200  0.94527031
   0.74994366  0.66650248  0.16648827
   0.49965470  0.00101009  0.66609576
Direct configuration=    14
   0.49945717  0.22227243  0.22241601
   0.00070118  0.22205451  0.22234077
   0.24956005  0.22198081  0.05491569
   0.49996588  0.77759055  0.10992827
   0.00004795  0.44468439  0.10987813
   0.00148144  0.44486166  0.44440013
   0.25047156  0.77742870  0.61117865
   0.00060889  0.66659512  0.00018971
   0.75069806  0.55537664  0.72238026
   0.49987171  0.66677549  0.33331035
   0.24977592  0.88860132  0.72214346
   0.99984612  0.44512892  0.77684538
   0.00057451  0.33375202  0.66680046
   0.24951062  0.66690778  0.83242873
   0.74976410  0.11102736  0.61096573
   0.00123244  0.66637673  0.66781679
   0.24981463  0.77788080  0.27822728
   0.49921610  0.66707320  0.66579166
   0.50039648  0.77801080  0.77814820
   0.49961187  0.99881015  0.00014513
   0.50018019  0.11107501  0.77807372
   0.49998553  0.33307265  0.33347798
   0.00032032  0.88895854  0.22244518
   0.24911680  0.55574890  0.38946181
   0.49958214  0.66698097  0.00023151
   0.75027631  0.44531190  0.61028085
   0.75044206  0.77753263  0.61051787
   0.00020895  0.11107666  0.10979972
   0.24978244  0.99970668  0.83277718
   0.50091830  0.55580766  0.89011221
   0.99977438  0.89001285  0.88927227
   0.24996115  0.44405207  0.27790354
   0.49932172  0.55579543  0.55665777
   0.00061817  0.88896585  0.55521102
   0.50002708  0.33285617  0.66576057
   0.75033506  0.22197818  0.05468346
   0.50010698  0.11132238  0.44410213
   0.75008532  0.77771801  0.27803590
   0.75012042  0.11104979  0.27798675
   0.74989649  0.99987078  0.16659853
   0.99994881  0.55582707  0.88813620
   0.74858472  0.88985542  0.38919279
   0.50007465  0.88819263  0.89146724
   0.49984622  0.33398801  0.99987426
   0.50027798  0.22232851  0.88896697
   0.00042892  0.66696825  0.33363089
   0.74923593  0.22194247  0.38931824
   0.49905075  0.77891992  0.44452165
   0.75047247  0.11115583  0.94550427
   0.75029444  0.88945360  0.72203399
   0.24955179  0.55547222  0.72183387
   0.24927061  0.88921082  0.38901131
   0.00048412  0.22221846  0.55458303
   0.49985817  0.11085338  0.11061150
   0.74950566  0.55541758  0.38905429
   0.74989740  0.77778519  0.94553113
   0.75022894  0.66691646  0.50126496
   0.24989517  0.33323698  0.83304591
   0.00073197  0.99975969  0.33341595
   0.50055529  0.55542708  0.22160037
   0.74981024  0.33309458  0.50047322
   0.50030633  0.44425820  0.77787956
   0.00030115  0.33320097  0.33327574
   0.25006595  0.33336972  0.16670786
   0.00045932  0.55549436  0.55551174
   0.74995897  0.44461966  0.27791823
   0.00340421  0.77805406  0.44460203
   0.99920445  0.21998696  0.88904559
   0.49981687  0.44503749  0.11030935
   0.25293316  0.99832440  0.49862382
   0.49758329  0.22084767  0.55565206
   0.25146827  0.22226731  0.72288353
   0.74988949  0.99982728  0.50045877
   0.99998007  0.00010918  0.00008270
   0.75036008  0.66693378  0.83357886
   0.75136949  0.22074985  0.72236735
   0.25013305  0.66791043  0.50003902
   0.25045806  0.77713746  0.94463681
   0.24927900  0.33196863  0.49947645
   0.00092896  0.33329642  0.00034346
   0.99992977  0.77750540  0.11108482
   0.74872147  0.88993154  0.05567139
   0.50059382  0.99997644  0.33420433
   0.50088101  0.44620564  0.44431063
   0.74958925  0.33292517  0.83310680
   0.75005035  0.99724810  0.83355265
   0.00031881  0.55557723  0.22201012
   0.99868386  0.99904984  0.66654633
   0.74986852  0.55577792  0.05513009
   0.49967079  0.88857318  0.22231688
   0.74988295  0.33365027  0.16636038
   0.49572253  0.89001527  0.55533944
   0.25110623  0.88903065  0.05514551
   0.00126089  0.11082081  0.44462756
   0.25001601  0.99999079  0.16673625
   0.24836089  0.44751174  0.61071703
   0.25076309  0.11071119  0.61029433
   0.74754952  0.44482553  0.94522175
   0.25005873  0.55560233  0.05515172
   0.24941840  0.11098159  0.94520503
   0.25027455  0.66664661  0.16700365
   0.24944113  0.11201480  0.27803057
   0.99996294  0.77693734  0.77687642
   0.24935849  0.22138662  0.38996286
   0.99953975  0.11137892  0.77743095
   0.24980698  0.44471200  0.94527028
   0.74994366  0.66650248  0.16648827
   0.49965470  0.00101009  0.66609579
Direct configuration=    15
   0.49945717  0.22227243  0.22241601
   0.00070118  0.22205451  0.22234076
   0.24956005  0.22198081  0.05491570
   0.49996588  0.77759055  0.10992830
   0.00004795  0.44468439  0.10987816
   0.00148144  0.44486166  0.44440012
   0.25047156  0.77742870  0.61117864
   0.00060889  0.66659512  0.00018971
   0.75069806  0.55537664  0.72238025
   0.49987171  0.66677549  0.33331035
   0.24977592  0.88860132  0.72214345
   0.99984612  0.44512892  0.77684541
   0.00057451  0.33375202  0.66680045
   0.24951062  0.66690778  0.83242876
   0.74976410  0.11102736  0.61096574
   0.00123244  0.66637673  0.66781675
   0.24981463  0.77788080  0.27822727
   0.49921610  0.66707320  0.66579168
   0.50039648  0.77801080  0.77814820
   0.49961187  0.99881015  0.00014513
   0.50018019  0.11107501  0.77807371
   0.49998553  0.33307265  0.33347798
   0.00032032  0.88895854  0.22244518
   0.24911680  0.55574890  0.38946180
   0.49958214  0.66698097  0.00023151
   0.75027631  0.44531190  0.61028087
   0.75044206  0.77753263  0.61051789
   0.00020895  0.11107666  0.10979975
   0.24978244  0.99970668  0.83277719
   0.50091830  0.55580766  0.89011220
   0.99977438  0.89001285  0.88927228
   0.24996115  0.44405207  0.27790354
   0.49932172  0.55579543  0.55665774
   0.00061817  0.88896585  0.55521104
   0.50002708  0.33285617  0.66576060
   0.75033506  0.22197818  0.05468348
   0.50010698  0.11132238  0.44410214
   0.75008532  0.77771801  0.27803589
   0.75012042  0.11104979  0.27798674
   0.74989649  0.99987078  0.16659853
   0.99994881  0.55582707  0.88813622
   0.74858472  0.88985542  0.38919279
   0.50007465  0.88819263  0.89146717
   0.49984622  0.33398801  0.99987426
   0.50027798  0.22232851  0.88896697
   0.00042892  0.66696825  0.33363088
   0.74923593  0.22194247  0.38931823
   0.49905075  0.77891992  0.44452165
   0.75047247  0.11115583  0.94550424
   0.75029444  0.88945360  0.72203400
   0.24955179  0.55547222  0.72183387
   0.24927061  0.88921082  0.38901132
   0.00048412  0.22221846  0.55458307
   0.49985817  0.11085338  0.11061150
   0.74950566  0.55541758  0.38905429
   0.74989740  0.77778519  0.94553109
   0.75022894  0.66691646  0.50126492
   0.24989517  0.33323698  0.83304593
   0.00073197  0.99975969  0.33341595
   0.50055529  0.55542708  0.22160038
   0.74981024  0.33309458  0.50047320
   0.50030633  0.44425820  0.77787956
   0.00030115  0.33320097  0.33327574
   0.25006595  0.33336972  0.16670786
   0.00045932  0.55549436  0.55551175
   0.74995897  0.44461966  0.27791822
   0.00340421  0.77805406  0.44460202
   0.99920445  0.21998696  0.88904559
   0.49981687  0.44503749  0.11030936
   0.25293316  0.99832440  0.49862384
   0.49758329  0.22084767  0.55565206
   0.25146827  0.22226731  0.72288353
   0.74988949  0.99982728  0.50045875
   0.99998007  0.00010918  0.00008269
   0.75036008  0.66693378  0.83357887
   0.75136949  0.22074985  0.72236737
   0.25013305  0.66791043  0.50003902
   0.25045806  0.77713746  0.94463679
   0.24927900  0.33196863  0.49947645
   0.00092896  0.33329642  0.00034344
   0.99992977  0.77750540  0.11108483
   0.74872147  0.88993154  0.05567140
   0.50059382  0.99997644  0.33420431
   0.50088101  0.44620564  0.44431062
   0.74958925  0.33292517  0.83310680
   0.75005035  0.99724810  0.83355264
   0.00031881  0.55557723  0.22201012
   0.99868386  0.99904984  0.66654635
   0.74986852  0.55577792  0.05513011
   0.49967079  0.88857318  0.22231688
   0.74988295  0.33365027  0.16636038
   0.49572253  0.89001527  0.55533944
   0.25110623  0.88903065  0.05514552
   0.00126089  0.11082081  0.44462755
   0.25001601  0.99999079  0.16673625
   0.24836089  0.44751174  0.61071703
   0.25076309  0.11071119  0.61029433
   0.74754952  0.44482553  0.94522172
   0.25005873  0.55560233  0.05515173
   0.24941840  0.11098159  0.94520502
   0.25027455  0.66664661  0.16700364
   0.24944113  0.11201480  0.27803056
   0.99996294  0.77693734  0.77687645
   0.24935849  0.22138662  0.38996284
   0.99953975  0.11137892  0.77743096
   0.24980698  0.44471200  0.94527026
   0.74994366  0.66650248  0.16648828
   0.49965470  0.00101009  0.66609580
Direct configuration=    16
   0.49945717  0.22227243  0.22241600
   0.00070118  0.22205451  0.22234076
   0.24956005  0.22198081  0.05491570
   0.49996588  0.77759055  0.10992831
   0.00004795  0.44468439  0.10987818
   0.00148144  0.44486166  0.44440012
   0.25047156  0.77742870  0.61117864
   0.00060889  0.66659512  0.00018971
   0.75069806  0.55537664  0.72238025
   0.49987171  0.66677549  0.33331035
   0.24977592  0.88860132  0.72214345
   0.99984612  0.44512892  0.77684542
   0.00057451  0.33375202  0.66680045
   0.24951062  0.66690778  0.83242878
   0.74976410  0.11102736  0.61096574
   0.00123244  0.66637673  0.66781673
   0.24981463  0.77788080  0.27822726
   0.49921610  0.66707320  0.66579169
   0.50039648  0.77801080  0.77814819
   0.49961187  0.99881015  0.00014513
   0.50018019  0.11107501  0.77807370
   0.49998553  0.33307265  0.33347798
   0.00032032  0.88895854  0.22244517
   0.24911680  0.55574890  0.38946180
   0.49958214  0.66698097  0.00023150
   0.75027631  0.44531190  0.61028088
   0.75044206  0.77753263  0.61051789
   0.00020895  0.11107666  0.10979976
   0.24978244  0.99970668  0.83277720
   0.50091830  0.55580766  0.89011219
   0.99977438  0.89001285  0.88927228
   0.24996115  0.44405207  0.27790354
   0.49932172  0.55579543  0.55665773
   0.00061817  0.88896585  0.55521104
   0.50002708  0.33285617  0.66576062
   0.75033506  0.22197818  0.05468349
   0.50010698  0.11132238  0.44410214
   0.75008532  0.77771801  0.27803589
   0.75012042  0.11104979  0.27798674
   0.74989649  0.99987078  0.16659852
   0.99994881  0.55582707  0.88813623
   0.74858472  0.88985542  0.38919279
   0.50007465  0.88819263  0.89146714
   0.49984622  0.33398801  0.99987426
   0.50027798  0.22232851  0.88896697
   0.00042892  0.66696825  0.33363088
   0.74923593  0.22194247  0.38931823
   0.49905075  0.77891992  0.44452165
   0.75047247  0.11115583  0.94550422
   0.75029444  0.88945360  0.72203400
   0.24955179  0.55547222  0.72183387
   0.24927061  0.88921082  0.38901133
   0.00048412  0.22221846  0.55458309
   0.49985817  0.11085338  0.11061151
   0.74950566  0.55541758  0.38905429
   0.74989740  0.77778519  0.94553107
   0.75022894  0.66691646  0.50126489
   0.24989517  0.33323698  0.83304593
   0.00073197  0.99975969  0.33341595
   0.50055529  0.55542708  0.22160039
   0.74981024  0.33309458  0.50047319
   0.50030633  0.44425820  0.77787956
   0.00030115  0.33320097  0.33327574
   0.25006595  0.33336972  0.16670785
   0.00045932  0.55549436  0.55551175
   0.74995897  0.44461966  0.27791822
   0.00340421  0.77805406  0.44460201
   0.99920445  0.21998696  0.88904558
   0.49981687  0.44503749  0.11030937
   0.25293316  0.99832440  0.49862385
   0.49758329  0.22084767  0.55565206
   0.25146827  0.22226731  0.72288353
   0.74988949  0.99982728  0.50045874
   0.99998007  0.00010918  0.00008268
   0.75036008  0.66693378  0.83357887
   0.75136949  0.22074985  0.72236738
   0.25013305  0.66791043  0.50003901
   0.25045806  0.77713746  0.94463679
   0.24927900  0.33196863  0.49947645
   0.00092896  0.33329642  0.00034344
   0.99992977  0.77750540  0.11108483
   0.74872147  0.88993154  0.05567140
   0.50059382  0.99997644  0.33420430
   0.50088101  0.44620564  0.44431062
   0.74958925  0.33292517  0.83310680
   0.75005035  0.99724810  0.83355264
   0.00031881  0.55557723  0.22201012
   0.99868386  0.99904984  0.66654636
   0.74986852  0.55577792  0.05513011
   0.49967079  0.88857318  0.22231688
   0.74988295  0.33365027  0.16636039
   0.49572253  0.89001527  0.55533944
   0.25110623  0.88903065  0.05514552
   0.00126089  0.11082081  0.44462754
   0.25001601  0.99999079  0.16673625
   0.24836089  0.44751174  0.61071703
   0.25076309  0.11071119  0.61029433
   0.74754952  0.44482553  0.94522171
   0.25005873  0.55560233  0.05515173
   0.24941840  0.11098159  0.94520501
   0.25027455  0.66664661  0.16700364
   0.24944113  0.11201480  0.27803056
   0.99996294  0.77693734  0.77687647
   0.24935849  0.22138662  0.38996284
   0.99953975  0.11137892  0.77743097
   0.24980698  0.44471200  0.94527026
   0.74994366  0.66650248  0.16648828
   0.49965470  0.00101009  0.66609581
Direct configuration=    17
   0.49945717  0.22227243  0.22241600
   0.00070118  0.22205451  0.22234076
   0.24956005  0.22198081  0.05491571
   0.49996588  0.77759055  0.10992831
   0.00004795  0.44468439  0.10987819
   0.00148144  0.44486166  0.44440012
   0.25047156  0.77742870  0.61117863
   0.00060889  0.66659512  0.00018971
   0.75069806  0.55537664  0.72238025
   0.49987171  0.66677549  0.33331035
   0.24977592  0.88860132  0.72214345
   0.99984612  0.44512892  0.77684543
   0.00057451  0.33375202  0.66680044
   0.24951062  0.66690778  0.83242878
   0.74976410  0.11102736  0.61096575
   0.00123244  0.66637673  0.66781673
   0.24981463  0.77788080  0.27822726
   0.49921610  0.66707320  0.66579169
   0.50039648  0.77801080  0.77814819
   0.49961187  0.99881015  0.00014513
   0.50018019  0.11107501  0.77807370
   0.49998553  0.33307265  0.33347798
   0.00032032  0.88895854  0.22244517
   0.24911680  0.55574890  0.38946180
   0.49958214  0.66698097  0.00023150
   0.75027631  0.44531190  0.61028089
   0.75044206  0.77753263  0.61051790
   0.00020895  0.11107666  0.10979977
   0.24978244  0.99970668  0.83277721
   0.50091830  0.55580766  0.89011218
   0.99977438  0.89001285  0.88927228
   0.24996115  0.44405207  0.27790353
   0.49932172  0.55579543  0.55665772
   0.00061817  0.88896585  0.55521105
   0.50002708  0.33285617  0.66576063
   0.75033506  0.22197818  0.05468350
   0.50010698  0.11132238  0.44410215
   0.75008532  0.77771801  0.27803589
   0.75012042  0.11104979  0.27798674
   0.74989649  0.99987078  0.16659852
   0.99994881  0.55582707  0.88813624
   0.74858472  0.88985542  0.38919278
   0.50007465  0.88819263  0.89146713
   0.49984622  0.33398801  0.99987426
   0.50027798  0.22232851  0.88896697
   0.00042892  0.66696825  0.33363088
   0.74923593  0.22194247  0.38931823
   0.49905075  0.77891992  0.44452165
   0.75047247  0.11115583  0.94550421
   0.75029444  0.88945360  0.72203400
   0.24955179  0.55547222  0.72183387
   0.24927061  0.88921082  0.38901133
   0.00048412  0.22221846  0.55458310
   0.49985817  0.11085338  0.11061151
   0.74950566  0.55541758  0.38905429
   0.74989740  0.77778519  0.94553105
   0.75022894  0.66691646  0.50126488
   0.24989517  0.33323698  0.83304593
   0.00073197  0.99975969  0.33341594
   0.50055529  0.55542708  0.22160039
   0.74981024  0.33309458  0.50047319
   0.50030633  0.44425820  0.77787956
   0.00030115  0.33320097  0.33327574
   0.25006595  0.33336972  0.16670785
   0.00045932  0.55549436  0.55551175
   0.74995897  0.44461966  0.27791822
   0.00340421  0.77805406  0.44460201
   0.99920445  0.21998696  0.88904558
   0.49981687  0.44503749  0.11030938
   0.25293316  0.99832440  0.49862385
   0.49758329  0.22084767  0.55565206
   0.25146827  0.22226731  0.72288353
   0.74988949  0.99982728  0.50045874
   0.99998007  0.00010918  0.00008268
   0.75036008  0.66693378  0.83357887
   0.75136949  0.22074985  0.72236739
   0.25013305  0.66791043  0.50003901
   0.25045806  0.77713746  0.94463678
   0.24927900  0.33196863  0.49947645
   0.00092896  0.33329642  0.00034343
   0.99992977  0.77750540  0.11108484
   0.74872147  0.88993154  0.05567140
   0.50059382  0.99997644  0.33420430
   0.50088101  0.44620564  0.44431061
   0.74958925  0.33292517  0.83310680
   0.75005035  0.99724810  0.83355264
   0.00031881  0.55557723  0.22201012
   0.99868386  0.99904984  0.66654636
   0.74986852  0.55577792  0.05513012
   0.49967079  0.88857318  0.22231688
   0.74988295  0.33365027  0.16636039
   0.49572253  0.89001527  0.55533944
   0.25110623  0.88903065  0.05514552
   0.00126089  0.11082081  0.44462754
   0.25001601  0.99999079  0.16673625
   0.24836089  0.44751174  0.61071703
   0.25076309  0.11071119  0.61029434
   0.74754952  0.44482553  0.94522171
   0.25005873  0.55560233  0.05515173
   0.24941840  0.11098159  0.94520501
   0.25027455  0.66664661  0.16700363
   0.24944113  0.11201480  0.27803056
   0.99996294  0.77693734  0.77687647
   0.24935849  0.22138662  0.38996283
   0.99953975  0.11137892  0.77743097
   0.24980698  0.44471200  0.94527025
   0.74994366  0.66650248  0.16648828
   0.49965470  0.00101009  0.66609581
Direct configuration=    18
   0.49945717  0.22227243  0.22241600
   0.00070118  0.22205451  0.22234076
   0.24956005  0.22198081  0.05491571
   0.49996588  0.77759055  0.10992832
   0.00004795  0.44468439  0.10987819
   0.00148144  0.44486166  0.44440011
   0.25047156  0.77742870  0.61117863
   0.00060889  0.66659512  0.00018971
   0.75069806  0.55537664  0.72238025
   0.49987171  0.66677549  0.33331035
   0.24977592  0.88860132  0.72214345
   0.99984612  0.44512892  0.77684543
   0.00057451  0.33375202  0.66680044
   0.24951062  0.66690778  0.83242879
   0.74976410  0.11102736  0.61096575
   0.00123244  0.66637673  0.66781672
   0.24981463  0.77788080  0.27822726
   0.49921610  0.66707320  0.66579170
   0.50039648  0.77801080  0.77814819
   0.49961187  0.99881015  0.00014513
   0.50018019  0.11107501  0.77807370
   0.49998553  0.33307265  0.33347798
   0.00032032  0.88895854  0.22244517
   0.24911680  0.55574890  0.38946179
   0.49958214  0.66698097  0.00023150
   0.75027631  0.44531190  0.61028089
   0.75044206  0.77753263  0.61051790
   0.00020895  0.11107666  0.10979977
   0.24978244  0.99970668  0.83277721
   0.50091830  0.55580766  0.89011218
   0.99977438  0.89001285  0.88927228
   0.24996115  0.44405207  0.27790353
   0.49932172  0.55579543  0.55665772
   0.00061817  0.88896585  0.55521105
   0.50002708  0.33285617  0.66576063
   0.75033506  0.22197818  0.05468350
   0.50010698  0.11132238  0.44410215
   0.75008532  0.77771801  0.27803589
   0.75012042  0.11104979  0.27798674
   0.74989649  0.99987078  0.16659852
   0.99994881  0.55582707  0.88813624
   0.74858472  0.88985542  0.38919278
   0.50007465  0.88819263  0.89146712
   0.49984622  0.33398801  0.99987426
   0.50027798  0.22232851  0.88896697
   0.00042892  0.66696825  0.33363088
   0.74923593  0.22194247  0.38931823
   0.49905075  0.77891992  0.44452165
   0.75047247  0.11115583  0.94550420
   0.75029444  0.88945360  0.72203401
   0.24955179  0.55547222  0.72183387
   0.24927061  0.88921082  0.38901134
   0.00048412  0.22221846  0.55458311
   0.49985817  0.11085338  0.11061151
   0.74950566  0.55541758  0.38905429
   0.74989740  0.77778519  0.94553105
   0.75022894  0.66691646  0.50126487
   0.24989517  0.33323698  0.83304593
   0.00073197  0.99975969  0.33341594
   0.50055529  0.55542708  0.22160039
   0.74981024  0.33309458  0.50047319
   0.50030633  0.44425820  0.77787956
   0.00030115  0.33320097  0.33327574
   0.25006595  0.33336972  0.16670785
   0.00045932  0.55549436  0.55551175
   0.74995897  0.44461966  0.27791822
   0.00340421  0.77805406  0.44460201
   0.99920445  0.21998696  0.88904558
   0.49981687  0.44503749  0.11030938
   0.25293316  0.99832440  0.49862385
   0.49758329  0.22084767  0.55565206
   0.25146827  0.22226731  0.72288353
   0.74988949  0.99982728  0.50045873
   0.99998007  0.00010918  0.00008268
   0.75036008  0.66693378  0.83357887
   0.75136949  0.22074985  0.72236739
   0.25013305  0.66791043  0.50003901
   0.25045806  0.77713746  0.94463678
   0.24927900  0.33196863  0.49947645
   0.00092896  0.33329642  0.00034343
   0.99992977  0.77750540  0.11108484
   0.74872147  0.88993154  0.05567140
   0.50059382  0.99997644  0.33420430
   0.50088101  0.44620564  0.44431061
   0.74958925  0.33292517  0.83310680
   0.75005035  0.99724810  0.83355264
   0.00031881  0.55557723  0.22201012
   0.99868386  0.99904984  0.66654637
   0.74986852  0.55577792  0.05513012
   0.49967079  0.88857318  0.22231688
   0.74988295  0.33365027  0.16636039
   0.49572253  0.89001527  0.55533943
   0.25110623  0.88903065  0.05514552
   0.00126089  0.11082081  0.44462754
   0.25001601  0.99999079  0.16673625
   0.24836089  0.44751174  0.61071703
   0.25076309  0.11071119  0.61029434
   0.74754952  0.44482553  0.94522170
   0.25005873  0.55560233  0.05515173
   0.24941840  0.11098159  0.94520501
   0.25027455  0.66664661  0.16700363
   0.24944113  0.11201480  0.27803055
   0.99996294  0.77693734  0.77687648
   0.24935849  0.22138662  0.38996283
   0.99953975  0.11137892  0.77743097
   0.24980698  0.44471200  0.94527025
   0.74994366  0.66650248  0.16648828
   0.49965470  0.00101009  0.66609582
Direct configuration=    19
   0.49945717  0.22227243  0.22241600
   0.00070118  0.22205451  0.22234076
   0.24956005  0.22198081  0.05491571
   0.49996588  0.77759055  0.10992832
   0.00004795  0.44468439  0.10987819
   0.00148144  0.44486166  0.44440011
   0.25047156  0.77742870  0.61117863
   0.00060889  0.66659512  0.00018971
   0.75069806  0.55537664  0.72238025
   0.49987171  0.66677549  0.33331035
   0.24977592  0.88860132  0.72214345
   0.99984612  0.44512892  0.77684544
   0.00057451  0.33375202  0.66680044
   0.24951062  0.66690778  0.83242879
   0.74976410  0.11102736  0.61096575
   0.00123244  0.66637673  0.66781672
   0.24981463  0.77788080  0.27822725
   0.49921610  0.66707320  0.66579170
   0.50039648  0.77801080  0.77814819
   0.49961187  0.99881015  0.00014513
   0.50018019  0.11107501  0.77807370
   0.49998553  0.33307265  0.33347798
   0.00032032  0.88895854  0.22244517
   0.24911680  0.55574890  0.38946179
   0.49958214  0.66698097  0.00023150
   0.75027631  0.44531190  0.61028089
   0.75044206  0.77753263  0.61051790
   0.00020895  0.11107666  0.10979977
   0.24978244  0.99970668  0.83277721
   0.50091830  0.55580766  0.89011218
   0.99977438  0.89001285  0.88927228
   0.24996115  0.44405207  0.27790353
   0.49932172  0.55579543  0.55665772
   0.00061817  0.88896585  0.55521105
   0.50002708  0.33285617  0.66576063
   0.75033506  0.22197818  0.05468350
   0.50010698  0.11132238  0.44410215
   0.75008532  0.77771801  0.27803589
   0.75012042  0.11104979  0.27798674
   0.74989649  0.99987078  0.16659852
   0.99994881  0.55582707  0.88813624
   0.74858472  0.88985542  0.38919278
   0.50007465  0.88819263  0.89146712
   0.49984622  0.33398801  0.99987426
   0.50027798  0.22232851  0.88896697
   0.00042892  0.66696825  0.33363088
   0.74923593  0.22194247  0.38931823
   0.49905075  0.77891992  0.44452165
   0.75047247  0.11115583  0.94550420
   0.75029444  0.88945360  0.72203401
   0.24955179  0.55547222  0.72183387
   0.24927061  0.88921082  0.38901134
   0.00048412  0.22221846  0.55458311
   0.49985817  0.11085338  0.11061151
   0.74950566  0.55541758  0.38905429
   0.74989740  0.77778519  0.94553105
   0.75022894  0.66691646  0.50126487
   0.24989517  0.33323698  0.83304593
   0.00073197  0.99975969  0.33341594
   0.50055529  0.55542708  0.22160039
   0.74981024  0.33309458  0.50047319
   0.50030633  0.44425820  0.77787956
   0.00030115  0.33320097  0.33327574
   0.25006595  0.33336972  0.16670785
   0.00045932  0.55549436  0.55551175
   0.74995897  0.44461966  0.27791822
   0.00340421  0.77805406  0.44460201
   0.99920445  0.21998696  0.88904558
   0.49981687  0.44503749  0.11030938
   0.25293316  0.99832440  0.49862385
   0.49758329  0.22084767  0.55565206
   0.25146827  0.22226731  0.72288353
   0.74988949  0.99982728  0.50045873
   0.99998007  0.00010918  0.00008268
   0.75036008  0.66693378  0.83357887
   0.75136949  0.22074985  0.72236739
   0.25013305  0.66791043  0.50003901
   0.25045806  0.77713746  0.94463678
   0.24927900  0.33196863  0.49947645
   0.00092896  0.33329642  0.00034343
   0.99992977  0.77750540  0.11108484
   0.74872147  0.88993154  0.05567140
   0.50059382  0.99997644  0.33420429
   0.50088101  0.44620564  0.44431061
   0.74958925  0.33292517  0.83310680
   0.75005035  0.99724810  0.83355264
   0.00031881  0.55557723  0.22201012
   0.99868386  0.99904984  0.66654637
   0.74986852  0.55577792  0.05513012
   0.49967079  0.88857318  0.22231688
   0.74988295  0.33365027  0.16636039
   0.49572253  0.89001527  0.55533943
   0.25110623  0.88903065  0.05514552
   0.00126089  0.11082081  0.44462753
   0.25001601  0.99999079  0.16673625
   0.24836089  0.44751174  0.61071703
   0.25076309  0.11071119  0.61029434
   0.74754952  0.44482553  0.94522170
   0.25005873  0.55560233  0.05515173
   0.24941840  0.11098159  0.94520500
   0.25027455  0.66664661  0.16700363
   0.24944113  0.11201480  0.27803055
   0.99996294  0.77693734  0.77687648
   0.24935849  0.22138662  0.38996283
   0.99953975  0.11137892  0.77743097
   0.24980698  0.44471200  0.94527025
   0.74994366  0.66650248  0.16648828
   0.49965470  0.00101009  0.66609582
