Ta32 Ti34 Nb32 W10                      
   1.00000000000000     
     9.1216997255111210    0.0000000000000000    0.0000000000000000
     0.0000000000000000    8.3788097184575001    0.0000000000000000
     0.0000000000000000   -3.7239183190646030   23.6988662189480195
   Ta   Ti   Nb   W 
    32    34    32    10
Selective dynamics
Direct
  0.4994571676000206  0.3210211315205882  0.2237839905896797   F   F   T
  0.0007011838891344  0.3208532330602409  0.2253852918779809   F   F   T
  0.2495600548973158  0.2465238784995094  0.0550833472443577   F   F   T
  0.4999658814041439  0.8267572717812186  0.1140776554673962   F   F   T
  0.0000479543384628  0.4939109052234656  0.1103025005682408   F   F   T
  0.0014814358292270  0.6422782788792176  0.4435724450775760   F   F   T
  0.2504715557544870  0.0489260560697957  0.6080416275710502   F   F   T
  0.0006088878015333  0.6666201956738220  0.0008728340157198   F   F   T
  0.7506980600066626  0.7653043972291727  0.7243292517165992   F   F   T
  0.4998717066019083  0.8148861973609343  0.3328804633376046   F   F   T
  0.2497759176542687  0.0983712803209400  0.7255733089360390   F   F   T
  0.9998461222754713  0.5685411200219619  0.7785284132223269   F   F   T
  0.0005745086022202  0.6300058888126259  0.6653694775239715   F   F   T
  0.2495106240223279  0.7039566572577272  0.8313307667077076   F   F   T
  0.7497640967820587  0.3827221322659540  0.6059500156139870   F   F   T
  0.0012324422402941  0.9627142616414091  0.6679895985617268   F   F   T
  0.2498146343417176  0.9013796508020917  0.2771710082176802   F   F   T
  0.4992161048643524  0.9632182866815597  0.6673573020116086   F   F   T
  0.5003964755988406  0.9015646813072209  0.7791021803621142   F   F   T
  0.4996118710759134  0.9989031460632987  0.0001187390715295   F   F   T
  0.5001801896752340  0.2345018636634322  0.7777952561965018   F   F   T
  0.4999855333282923  0.4812951098780047  0.3337985253924370   F   F   T
  0.0003203214657930  0.9877478710799750  0.2245108083351086   F   F   T
  0.2491167970940609  0.7287474327611747  0.3869261821975783   F   F   T
  0.4995821383535883  0.6670237282911700  0.0005415312247130   F   F   T
  0.7502763096117064  0.7167995413608921  0.6078759103149911   F   F   T
  0.7504420632422253  0.0490842093627322  0.6084718309730988   F   F   T
  0.0002089534286114  0.1602509661085705  0.1135789447543432   F   F   T
  0.2497824446881296  0.0367165322452578  0.8327138724359401   F   F   T
  0.5009183035403240  0.5067652703221484  0.8896557080919874   F   F   T
  0.9997743751242751  0.8408595666921954  0.8886474445347783   F   F   T
  0.2499611531302293  0.5675093418794361  0.2766298763402477   F   F   T
  0.4993217237138055  0.8028361728720341  0.5549001788500207   F   F   T
  0.0006181661184712  0.1359303993213175  0.5535050886097928   F   F   T
  0.5000270802090654  0.6291439661650529  0.6650265428891995   F   F   T
  0.7503350559090833  0.2466032683336792  0.0573722747988791   F   F   T
  0.5001069796275743  0.3087889084614517  0.4421612494126635   F   F   T
  0.7500853215986609  0.9012092305849109  0.2735084454807813   F   F   T
  0.7501204241673207  0.2345669781055335  0.2807435392699736   F   F   T
  0.7498964864102220  0.0738797716670945  0.1701513490298424   F   F   T
  0.9999488100767664  0.5063614011699329  0.8899298810848597   F   F   T
  0.7485847158406287  0.0627630350276149  0.3875139910609098   F   F   T
  0.5000746504558933  0.8391277793556284  0.8905695412004614   F   F   T
  0.4998462243517281  0.3339826967688708  0.9983384100341226   F   F   T
  0.5002779828903812  0.1729802978217663  0.8905595806269906   F   F   T
  0.0004289236194879  0.8151846260425799  0.3324204019570478   F   F   T
  0.7492359320902082  0.3949221588991918  0.3901738496596120   F   F   T
  0.4990507496593892  0.9764759414595829  0.4437184882145978   F   F   T
  0.7504724678271089  0.0864527286469254  0.9482430890223456   F   F   T
  0.7502944376332223  0.0993304580289447  0.7255392543724448   F   F   T
  0.2495517935165452  0.7651925366826120  0.7257372141828968   F   F   T
  0.2492706110137775  0.0623060634472594  0.3876902999731275   F   F   T
  0.0004841176504584  0.4692529827695253  0.5527133984166928   F   F   T
  0.4998581739266967  0.1600711625861209  0.1124581577184945   F   F   T
  0.7495056616346218  0.7283125537270436  0.3893239640478662   F   F   T
  0.7498974037428923  0.7530028961264108  0.9475875503223707   F   F   T
  0.7502289433568023  0.8890802158762128  0.4983258948372687   F   F   T
  0.2498951653222576  0.3702837014731557  0.8310987160777775   F   F   T
  0.0007319690377372  0.1479038632490273  0.3329817013592378   F   F   T
  0.5005552856449071  0.6540585873498301  0.2199031790706111   F   F   T
  0.7498102399859761  0.5553053394647378  0.4989554100991276   F   F   T
  0.5003063270432619  0.5677670004876134  0.7767939662647436   F   F   T
  0.0003011545578602  0.4813476484262651  0.3341854117581859   F   F   T
  0.2500659537346763  0.4074429354046245  0.1658949416604336   F   F   T
  0.0004593157160002  0.8024720852995273  0.5552285001538451   F   F   T
  0.7499589664007402  0.5680988239734930  0.2769891371681527   F   F   T
  0.0034042081272148  0.9755377493193080  0.4426604125049851   F   F   T
  0.9992044502014608  0.1706100949646014  0.8883549561517233   F   F   T
  0.4998168687279900  0.4943017899898408  0.1098384502675650   F   F   T
  0.2529331584649555  0.2201809372492534  0.4980385730850087   F   F   T
  0.4975832870308210  0.4678152167759961  0.5544613592019514   F   F   T
  0.2514682671844923  0.4324258734539157  0.7232976952309987   F   F   T
  0.7498894854668166  0.2220341299509343  0.4966156844876866   F   F   T
  0.9999800691477887  0.0000315447456884  0.0015541023828508   F   F   T
  0.7503600807643522  0.7041451204121714  0.8339039094583038   F   F   T
  0.7513694862986284  0.4309484795461529  0.7219367870848089   F   F   T
  0.2501330520519929  0.8900784083471152  0.4976411813242787   F   F   T
  0.2504580636488072  0.7523614028240928  0.9458988580132380   F   F   T
  0.2492790023416731  0.5539472400355478  0.4977781036480306   F   F   T
  0.0009289644364827  0.3332848897038332 -0.0005271722518756   F   F   T
  0.9999297653457830  0.8270127943698000  0.1132175481001931   F   F   T
  0.7487214725870288  0.9147078722853053  0.0570698222882716   F   F   T
  0.5005938200933713  0.1482986533737218  0.3329733221693826   F   F   T
  0.5008810097877685  0.6435226325109511  0.4428437039574812   F   F   T
  0.7495892499497998  0.3698878929498903  0.8301697304931039   F   F   T
  0.7500503501359645  0.0343415428667058  0.8337133159748913   F   F   T
  0.0003188102599410  0.6542523546702412  0.2225403812994543   F   F   T
  0.9986838604704076  0.2955251497694817  0.6671865748466744   F   F   T
  0.7498685242076348  0.5804565968633639  0.0565683613923467   F   F   T
  0.4996707942471517  0.9873504731652716  0.2237150618713020   F   F   T
  0.7498829497651229  0.4076641669680541  0.1678650382953095   F   F   T
  0.4957225303476420  0.1368038158108220  0.5538016170519912   F   F   T
  0.2511062279074494  0.9136047099207687  0.0566524643590643   F   F   T
  0.0012608868751300  0.3082785723131991  0.4416713503108243   F   F   T
  0.2500160050277884  0.0740685568468891  0.1691567501339179   F   F   T
  0.2483608885329858  0.7189056025871210  0.6109851624974704   F   F   T
  0.2507630857270939  0.3820274878102197  0.6083816142935159   F   F   T
  0.7475495221513739  0.4201680702320587  0.9469913599477490   F   F   T
  0.2500587314067104  0.5802045260979583  0.0560997874939072   F   F   T
  0.2494184020951380  0.0864536390809008  0.9474729487261121   F   F   T
  0.2502745500970818  0.7407252863319442  0.1664692761432742   F   F   T
  0.2494411266852055  0.2354783829718343  0.2806390478644974   F   F   T
  0.9999629411264692  0.9004144607927884  0.7779811192511624   F   F   T
  0.2493584891262870  0.3945266795052973  0.3861191146828937   F   F   T
  0.9995397471666081  0.2347971188650604  0.7785807782537519   F   F   T
  0.2498069767961155  0.4202005238654110  0.9469043807467259   F   F   T
  0.7499436562060993  0.7405144248783486  0.1676802414349012   F   F   T
  0.4996546992342843  0.2972494231142946  0.6668860688687641   F   F   T
 
  0.00000000E+00  0.00000000E+00  0.00000000E+00
  0.00000000E+00  0.00000000E+00  0.00000000E+00
  0.00000000E+00  0.00000000E+00  0.00000000E+00
  0.00000000E+00  0.00000000E+00  0.00000000E+00
  0.00000000E+00  0.00000000E+00  0.00000000E+00
  0.00000000E+00  0.00000000E+00  0.00000000E+00
  0.00000000E+00  0.00000000E+00  0.00000000E+00
  0.00000000E+00  0.00000000E+00  0.00000000E+00
  0.00000000E+00  0.00000000E+00  0.00000000E+00
  0.00000000E+00  0.00000000E+00  0.00000000E+00
  0.00000000E+00  0.00000000E+00  0.00000000E+00
  0.00000000E+00  0.00000000E+00  0.00000000E+00
  0.00000000E+00  0.00000000E+00  0.00000000E+00
  0.00000000E+00  0.00000000E+00  0.00000000E+00
  0.00000000E+00  0.00000000E+00  0.00000000E+00
  0.00000000E+00  0.00000000E+00  0.00000000E+00
  0.00000000E+00  0.00000000E+00  0.00000000E+00
  0.00000000E+00  0.00000000E+00  0.00000000E+00
  0.00000000E+00  0.00000000E+00  0.00000000E+00
  0.00000000E+00  0.00000000E+00  0.00000000E+00
  0.00000000E+00  0.00000000E+00  0.00000000E+00
  0.00000000E+00  0.00000000E+00  0.00000000E+00
  0.00000000E+00  0.00000000E+00  0.00000000E+00
  0.00000000E+00  0.00000000E+00  0.00000000E+00
  0.00000000E+00  0.00000000E+00  0.00000000E+00
  0.00000000E+00  0.00000000E+00  0.00000000E+00
  0.00000000E+00  0.00000000E+00  0.00000000E+00
  0.00000000E+00  0.00000000E+00  0.00000000E+00
  0.00000000E+00  0.00000000E+00  0.00000000E+00
  0.00000000E+00  0.00000000E+00  0.00000000E+00
  0.00000000E+00  0.00000000E+00  0.00000000E+00
  0.00000000E+00  0.00000000E+00  0.00000000E+00
  0.00000000E+00  0.00000000E+00  0.00000000E+00
  0.00000000E+00  0.00000000E+00  0.00000000E+00
  0.00000000E+00  0.00000000E+00  0.00000000E+00
  0.00000000E+00  0.00000000E+00  0.00000000E+00
  0.00000000E+00  0.00000000E+00  0.00000000E+00
  0.00000000E+00  0.00000000E+00  0.00000000E+00
  0.00000000E+00  0.00000000E+00  0.00000000E+00
  0.00000000E+00  0.00000000E+00  0.00000000E+00
  0.00000000E+00  0.00000000E+00  0.00000000E+00
  0.00000000E+00  0.00000000E+00  0.00000000E+00
  0.00000000E+00  0.00000000E+00  0.00000000E+00
  0.00000000E+00  0.00000000E+00  0.00000000E+00
  0.00000000E+00  0.00000000E+00  0.00000000E+00
  0.00000000E+00  0.00000000E+00  0.00000000E+00
  0.00000000E+00  0.00000000E+00  0.00000000E+00
  0.00000000E+00  0.00000000E+00  0.00000000E+00
  0.00000000E+00  0.00000000E+00  0.00000000E+00
  0.00000000E+00  0.00000000E+00  0.00000000E+00
  0.00000000E+00  0.00000000E+00  0.00000000E+00
  0.00000000E+00  0.00000000E+00  0.00000000E+00
  0.00000000E+00  0.00000000E+00  0.00000000E+00
  0.00000000E+00  0.00000000E+00  0.00000000E+00
  0.00000000E+00  0.00000000E+00  0.00000000E+00
  0.00000000E+00  0.00000000E+00  0.00000000E+00
  0.00000000E+00  0.00000000E+00  0.00000000E+00
  0.00000000E+00  0.00000000E+00  0.00000000E+00
  0.00000000E+00  0.00000000E+00  0.00000000E+00
  0.00000000E+00  0.00000000E+00  0.00000000E+00
  0.00000000E+00  0.00000000E+00  0.00000000E+00
  0.00000000E+00  0.00000000E+00  0.00000000E+00
  0.00000000E+00  0.00000000E+00  0.00000000E+00
  0.00000000E+00  0.00000000E+00  0.00000000E+00
  0.00000000E+00  0.00000000E+00  0.00000000E+00
  0.00000000E+00  0.00000000E+00  0.00000000E+00
  0.00000000E+00  0.00000000E+00  0.00000000E+00
  0.00000000E+00  0.00000000E+00  0.00000000E+00
  0.00000000E+00  0.00000000E+00  0.00000000E+00
  0.00000000E+00  0.00000000E+00  0.00000000E+00
  0.00000000E+00  0.00000000E+00  0.00000000E+00
  0.00000000E+00  0.00000000E+00  0.00000000E+00
  0.00000000E+00  0.00000000E+00  0.00000000E+00
  0.00000000E+00  0.00000000E+00  0.00000000E+00
  0.00000000E+00  0.00000000E+00  0.00000000E+00
  0.00000000E+00  0.00000000E+00  0.00000000E+00
  0.00000000E+00  0.00000000E+00  0.00000000E+00
  0.00000000E+00  0.00000000E+00  0.00000000E+00
  0.00000000E+00  0.00000000E+00  0.00000000E+00
  0.00000000E+00  0.00000000E+00  0.00000000E+00
  0.00000000E+00  0.00000000E+00  0.00000000E+00
  0.00000000E+00  0.00000000E+00  0.00000000E+00
  0.00000000E+00  0.00000000E+00  0.00000000E+00
  0.00000000E+00  0.00000000E+00  0.00000000E+00
  0.00000000E+00  0.00000000E+00  0.00000000E+00
  0.00000000E+00  0.00000000E+00  0.00000000E+00
  0.00000000E+00  0.00000000E+00  0.00000000E+00
  0.00000000E+00  0.00000000E+00  0.00000000E+00
  0.00000000E+00  0.00000000E+00  0.00000000E+00
  0.00000000E+00  0.00000000E+00  0.00000000E+00
  0.00000000E+00  0.00000000E+00  0.00000000E+00
  0.00000000E+00  0.00000000E+00  0.00000000E+00
  0.00000000E+00  0.00000000E+00  0.00000000E+00
  0.00000000E+00  0.00000000E+00  0.00000000E+00
  0.00000000E+00  0.00000000E+00  0.00000000E+00
  0.00000000E+00  0.00000000E+00  0.00000000E+00
  0.00000000E+00  0.00000000E+00  0.00000000E+00
  0.00000000E+00  0.00000000E+00  0.00000000E+00
  0.00000000E+00  0.00000000E+00  0.00000000E+00
  0.00000000E+00  0.00000000E+00  0.00000000E+00
  0.00000000E+00  0.00000000E+00  0.00000000E+00
  0.00000000E+00  0.00000000E+00  0.00000000E+00
  0.00000000E+00  0.00000000E+00  0.00000000E+00
  0.00000000E+00  0.00000000E+00  0.00000000E+00
  0.00000000E+00  0.00000000E+00  0.00000000E+00
  0.00000000E+00  0.00000000E+00  0.00000000E+00
  0.00000000E+00  0.00000000E+00  0.00000000E+00
  0.00000000E+00  0.00000000E+00  0.00000000E+00
