Ta32 Ti34 Nb32 W10
1.0
   9.1216997255111210    0.0000000000000000    0.0000000000000000
   0.0000000000000000    8.3788097184575001    0.0000000000000000
   0.0000000000000000   -3.7239183190646030   23.6988662189480195
Ta Ti Nb W
32 34 32 10
Selective dynamics
direct
   0.4994571676000188    0.3210211315205847    0.2221844125832531 F F T Ta
   0.0007011838891362    0.3208532330602379    0.2222969547399315 F F T Ta
   0.2495600548973154    0.2465238784995125    0.0552218671863136 F F T Ta
   0.4999658814041453    0.8267572717812219    0.1106250486140423 F F T Ta
   0.0000479543384657    0.4939109052234669    0.1107595639448087 F F T Ta
   0.0014814358292294    0.6422782788792176    0.4441870424789326 F F T Ta
   0.2504715557544857    1.0489260560697939    0.6108685672411065 F F T Ta
   0.0006088878015314    0.6666201956738231    0.0000564157924039 F F T Ta
   0.7506980600066611    0.7653043972291738    0.7223370811846667 F F T Ta
   0.4998717066019089    0.8148861973609363    0.3332488289665618 F F T Ta
   0.2497759176542704    1.0983712803209429    0.7219820401393814 F F T Ta
  -0.0001538777245262    0.5685411200219613    0.7776772436159906 F F T Ta
   0.0005745086022187    0.6300058888126276    0.6665706801487550 F F T Ta
   0.2495106240223294    0.7039566572577242    0.8333599043358833 F F T Ta
   0.7497640967820619    0.3827221322659549    0.6113127594073537 F F T Ta
   0.0012324422402965    0.9627142616414091    0.6667589202653421 F F T Ta
   0.2498146343417189    0.9013796508020936    0.2778721876399691 F F T Ta
   0.4992161048643542    0.9632182866815581    0.6663259174694899 F F T Ta
   0.5003964755988403    0.9015646813072218    0.7779960255058993 F F T Ta
   0.4996118710759145   -0.0010968539367013    0.0002092495871261 F F T Ta
   0.5001801896752340    0.2345018636634304    0.7777102048961968 F F T Ta
   0.4999855333282915    0.4812951098780019    0.3335002845253261 F F T Ta
   0.0003203214657926    0.9877478710799719    0.2222758329792449 F F T Ta
   0.2491167970940612    0.7287474327611759    0.3892463970274340 F F T Ta
   0.4995821383535909    0.6670237282911733    0.0000962085192487 F F T Ta
   0.7502763096117065    0.7167995413608923    0.6108467221356220 F F T Ta
   0.7504420632422223    1.0490842093627297    0.6109905865278420 F F T Ta
   0.0002089534286128    0.1602509661085679    0.1106420942708451 F F T Ta
   0.2497824446881278    0.0367165322452567    0.8332720978506815 F F T Ta
   0.5009183035403245    0.5067652703221457    0.8896547066660992 F F T Ta
  -0.0002256248757224    0.8408595666921943    0.8894052059858858 F F T Ta
   0.2499611531302305    0.5675093418794370    0.2777786518139822 F F T Ta
   0.4993217237138038    0.8028361728720352    0.5558412334762918 F F T Ti
   0.0006181661184688    1.1359303993213206    0.5556698044370203 F F T Ti
   0.5000270802090673    0.6291439661650503    0.6666470210034284 F F T Ti
   0.7503350559090847    0.2466032683336824    0.0554064020510288 F F T Ti
   0.5001069796275747    0.3087889084614492    0.4442993439930025 F F T Ti
   0.7500853215986627    0.9012092305849125    0.2778550345578690 F F T Ti
   0.7501204241673179    0.2345669781055328    0.2779134634888824 F F T Ti
   0.7498964864102219    0.0738797716670942    0.1665200910555622 F F T Ti
  -0.0000511899232333    0.5063614011699336    0.8887023250580404 F F T Ti
   0.7485847158406278    1.0627630350276149    0.3890418402806057 F F T Ti
   0.5000746504558943    0.8391277793556260    0.8896041809652653 F F T Ti
   0.4998462243517314    0.3339826967688716   -0.0000119449792834 F F T Ti
   0.5002779828903824    0.1729802978217631    0.8889666155683655 F F T Ti
   0.0004289236194867    0.8151846260425804    0.3334865845305007 F F T Ti
   0.7492359320902069    0.3949221588991902    0.3892039890393464 F F T Ti
   0.4990507496593882    0.9764759414595857    0.4445007074576243 F F T Ti
   0.7504724678271103    0.0864527286469253    0.9444180717995363 F F T Ti
   0.7502944376332240    1.0993304580289476    0.7222225599458375 F F T Ti
   0.2495517935165419    0.7651925366826100    0.7218703431924005 F F T Ti
   0.2492706110137771    1.0623060634472588    0.3894639861429106 F F T Ti
   0.0004841176504550    0.4692529827695237    0.5558272347654557 F F T Ti
   0.4998581739266997    0.1600711625861228    0.1107399222769636 F F T Ti
   0.7495056616346191    0.7283125537270461    0.3890133779922089 F F T Ti
   0.7498974037428945    0.7530028961264135    0.9442398911268398 F F T Ti
   0.7502289433568059    0.8890802158762129    0.4998680576375514 F F T Ti
   0.2498951653222598    0.3702837014731583    0.8333550674743501 F F T Ti
   0.0007319690377400    0.1479038632490290    0.3333241389969969 F F T Ti
   0.5005552856449084    0.6540585873498275    0.2219207200823024 F F T Ti
   0.7498102399859732    0.5553053394647394    0.4999738191343905 F F T Ti
   0.5003063270432624    0.5677670004876134    0.7778945817211680 F F T Ti
   0.0003011545578601    0.4813476484262648    0.3333297782578192 F F T Ti
   0.2500659537346776    0.4074429354046215    0.1666646156521340 F F T Ti
   0.0004593157159999    0.8024720852995291    0.5556994616071530 F F T Ti
   0.7499589664007379    0.5680988239734909    0.2778279007604584 F F T Ti
   0.0034042081272116    0.9755377493193099    0.4443379516513961 F F T Nb
  -0.0007955497985423    0.1706100949646018    0.8889021362158046 F F T Nb
   0.4998168687279926    0.4943017899898425    0.1108445805938887 F F T Nb
   0.2529331584649590    0.2201809372492509    0.4991768249129459 F F T Nb
   0.4975832870308235    0.4678152167759990    0.5556765570889036 F F T Nb
   0.2514682671844912    0.4324258734539143    0.7228563909179352 F F T Nb
   0.7498894854668198    0.2220341299509356    0.4999650255851756 F F T Nb
  -0.0000199308522110    0.0000315447456901   -0.0001746784517552 F F T Nb
   0.7503600807643558    0.7041451204121743    0.8337254542792184 F F T Nb
   0.7513694862986319    0.4309484795461546    0.7229465459648501 F F T Nb
   0.2501330520519929    0.8900784083471150    0.4998775633385416 F F T Nb
   0.2504580636488039    0.7523614028240946    0.9442539053911181 F F T Nb
   0.2492790023416740    0.5539472400355484    0.4994514799096101 F F T Nb
   0.0009289644364851    0.3332848897038339   -0.0000259359246489 F F T Nb
  -0.0000702346542182    0.8270127943697985    0.1113915522971861 F F T Nb
   0.7487214725870281    0.9147078722853039    0.0557467007561002 F F T Nb
   0.5005938200933709    0.1482986533737252    0.3337247156851078 F F T Nb
   0.5008810097877678    0.6435226325109490    0.4439628845172769 F F T Nb
   0.7495892499498003    0.3698878929498883    0.8331660554124600 F F T Nb
   0.7500503501359642    0.0343415428667093    0.8334601901535476 F F T Nb
   0.0003188102599387    0.6542523546702436    0.2220188481800910 F F T Nb
  -0.0013161395295951    0.2955251497694797    0.6670689401932420 F F T Nb
   0.7498685242076365    0.5804565968633637    0.0555269802144306 F F T Nb
   0.4996707942471540    0.9873504731652728    0.2222487277888263 F F T Nb
   0.7498829497651244    0.4076641669680514    0.1665311362689704 F F T Nb
   0.4957225303476437    1.1368038158108209    0.5552737998694196 F F T Nb
   0.2511062279074470    0.9136047099207668    0.0552915934497340 F F T Nb
   0.0012608868751333    0.3082785723131963    0.4442796182522069 F F T Nb
   0.2500160050277864    0.0740685568468910    0.1666748385297163 F F T Nb
   0.2483608885329880    0.7189056025871204    0.6106357076716401 F F T Nb
   0.2507630857270932    0.3820274878102188    0.6104611992979506 F F T Nb
   0.7475495221513716    0.4201680702320597    0.9445207599043237 F F T Nb
   0.2500587314067091    0.5802045260979566    0.0553548956246068 F F T W
   0.2494184020951366    0.0864536390808994    0.9448121444358643 F F T W
   0.2502745500970799    0.7407252863319447    0.1666768861842307 F F T W
   0.2494411266852071    0.2354783829718354    0.2777928376900672 F F T W
  -0.0000370588735282    0.9004144607927871    0.7778233066028649 F F T W
   0.2493584891262904    0.3945266795052966    0.3895648227731496 F F T W
  -0.0004602528333926    0.2347971188650569    0.7776907264989419 F F T W
   0.2498069767961148    0.4202005238654115    0.9448492218075097 F F T W
   0.7499436562060972    0.7405144248783454    0.1665267452015047 F F T W
   0.4996546992342818    0.2972494231142915    0.6665379891809190 F F T W
