ber1436
48
Loading vasp/5.4.4
  Loading requirement: intel-compilers/2020.4.304 intel-mpi/2020.4.304
[0] MPI startup(): I_MPI_ARCH environment variable is not supported.
[0] MPI startup(): To check the list of supported variables, use the impi_info utility or refer to https://software.intel.com/en-us/mpi-library/documentation/get-started.
 running on   48 total cores
 distrk:  each k-point on   48 cores,    1 groups
 distr:  one band on    1 cores,   48 groups
 using from now: INCAR     
 vasp.5.4.4.18Apr17-6-g9f103f2a35 (build Mar 01 2022 13:04:02) complex          
  
 POSCAR found type information on POSCAR  Ta Ti Nb W 
 POSCAR found :  4 types and     108 ions
 scaLAPACK will be used

 ----------------------------------------------------------------------------- 
|                                                                             |
|           W    W    AA    RRRRR   N    N  II  N    N   GGGG   !!!           |
|           W    W   A  A   R    R  NN   N  II  NN   N  G    G  !!!           |
|           W    W  A    A  R    R  N N  N  II  N N  N  G       !!!           |
|           W WW W  AAAAAA  RRRRR   N  N N  II  N  N N  G  GGG   !            |
|           WW  WW  A    A  R   R   N   NN  II  N   NN  G    G                |
|           W    W  A    A  R    R  N    N  II  N    N   GGGG   !!!           |
|                                                                             |
|      For optimal performance we recommend to set                            |
|        NCORE= 4 - approx SQRT( number of cores)                             |
|      NCORE specifies how many cores store one orbital (NPAR=cpu/NCORE).     |
|      This setting can  greatly improve the performance of VASP for DFT.     |
|      The default,   NCORE=1            might be grossly inefficient         |
|      on modern multi-core architectures or massively parallel machines.     |
|      Do your own testing !!!!                                               |
|      Unfortunately you need to use the default for GW and RPA calculations. |
|      (for HF NCORE is supported but not extensively tested yet)             |
|                                                                             |
 ----------------------------------------------------------------------------- 

 LDA part: xc-table for Pade appr. of Perdew
 POSCAR, INCAR and KPOINTS ok, starting setup
 FFT: planning ...
 WAVECAR not read
 initial charge from wavefunction
 entering main loop
       N       E                     dE             d eps       ncg     rms          rms(c)
DAV:   1    -0.396973533778E+05   -0.39697E+05   -0.91921E+05 33936   0.209E+03
DAV:   2    -0.586058130692E+05   -0.18908E+05   -0.17997E+05 36912   0.111E+03
DAV:   3    -0.614516547589E+05   -0.28458E+04   -0.26909E+04 38400   0.453E+02
DAV:   4    -0.623916771056E+05   -0.94002E+03   -0.87202E+03 38400   0.235E+02
DAV:   5    -0.629105492596E+05   -0.51887E+03   -0.49305E+03 38400   0.162E+02    0.131E+04
DAV:   6    -0.226400299199E+05    0.40271E+05   -0.23035E+05 34416   0.806E+02    0.127E+04
DAV:   7    -0.134724164609E+05    0.91676E+04   -0.23242E+05 38160   0.964E+02    0.563E+03
DAV:   8    -0.177807847393E+05   -0.43084E+04   -0.32671E+05 38400   0.107E+03    0.486E+03
DAV:   9    -0.459920470763E+04    0.13182E+05   -0.17942E+05 36720   0.718E+02    0.422E+03
DAV:  10    -0.499122293088E+04   -0.39202E+03   -0.67475E+04 34560   0.415E+02    0.402E+03
DAV:  11    -0.334153201873E+04    0.16497E+04   -0.16058E+04 34272   0.234E+02    0.420E+03
DAV:  12    -0.501393998329E+04   -0.16724E+04   -0.70131E+03 32448   0.125E+02    0.429E+03
DAV:  13    -0.557826035080E+04   -0.56432E+03   -0.23382E+03 33888   0.673E+01    0.429E+03
DAV:  14    -0.482481981427E+04    0.75344E+03   -0.77078E+02 34560   0.529E+01    0.426E+03
DAV:  15    -0.611330277230E+04   -0.12885E+04   -0.18134E+03 36480   0.912E+01    0.431E+03
DAV:  16    -0.684793305913E+04   -0.73463E+03   -0.11778E+03 34224   0.748E+01    0.434E+03
DAV:  17    -0.559292224604E+04    0.12550E+04   -0.38701E+02 32208   0.433E+01    0.420E+03
DAV:  18    -0.478000726066E+04    0.81291E+03   -0.27240E+04 36480   0.141E+02    0.338E+03
DAV:  19    -0.580649725679E+04   -0.10265E+04   -0.81991E+03 30528   0.141E+02    0.309E+03
DAV:  20    -0.657946564233E+04   -0.77297E+03   -0.18082E+03 33696   0.736E+01    0.328E+03
DAV:  21    -0.681243129964E+04   -0.23297E+03   -0.40450E+02 32976   0.272E+01    0.356E+03
DAV:  22    -0.673855265726E+04    0.73879E+02   -0.55214E+01 31536   0.105E+01    0.363E+03
DAV:  23    -0.670637609319E+04    0.32177E+02   -0.90248E+00 34368   0.371E+00    0.364E+03
DAV:  24    -0.679427174010E+04   -0.87896E+02   -0.41310E+02 24912   0.320E+01    0.364E+03
DAV:  25    -0.684433910473E+04   -0.50067E+02   -0.47506E+01 25536   0.837E+00    0.363E+03
DAV:  26    -0.760981408371E+04   -0.76547E+03   -0.83196E+02 28032   0.648E+01    0.356E+03
DAV:  27    -0.852957033059E+04   -0.91976E+03   -0.82782E+02 29520   0.897E+01    0.362E+03
DAV:  28    -0.987750455178E+04   -0.13479E+04   -0.15851E+03 25056   0.847E+01    0.353E+03
DAV:  29    -0.104917291447E+05   -0.61422E+03   -0.10433E+03 30240   0.490E+01    0.323E+03
DAV:  30    -0.135902413791E+05   -0.30985E+04   -0.51259E+03 30864   0.134E+02
   1 F= -.13590241E+05 E0= -.13590216E+05  d E =-.135902E+05
 curvature:   0.00 expect dE= 0.000E+00 dE for cont linesearch  0.000E+00
 trial: gam= 0.00000 g(F)=  0.291E+02 g(S)=  0.000E+00 ort = 0.000E+00 (trialstep = 0.100E+01)
 search vector abs. value=  0.291E+02
 bond charge predicted
       N       E                     dE             d eps       ncg     rms          rms(c)
DAV:   1    -0.132212953212E+05   -0.27296E+04   -0.38061E+03 31488   0.126E+02    0.311E+03
DAV:   2    -0.678955780297E+04    0.64317E+04   -0.14752E+05 36096   0.501E+02    0.148E+03
DAV:   3    -0.198416425412E+05   -0.13052E+05   -0.36410E+05 35328   0.104E+03    0.159E+03
DAV:   4    -0.247082826404E+04    0.17371E+05   -0.54060E+04 33216   0.529E+02    0.898E+02
DAV:   5    -0.160102517558E+05   -0.13539E+05   -0.24132E+05 38400   0.463E+02    0.272E+03
DAV:   6    -0.199232947886E+05   -0.39130E+04   -0.35429E+04 31296   0.397E+02    0.131E+03
DAV:   7    -0.655853869329E+04    0.13365E+05   -0.18781E+04 37536   0.273E+02    0.643E+02
DAV:   8    -0.563984808986E+04    0.91869E+03   -0.18084E+05 36336   0.542E+02    0.837E+02
DAV:   9    -0.609231353994E+04   -0.45247E+03   -0.45414E+04 33264   0.424E+02    0.381E+02
DAV:  10    -0.558958484673E+04    0.50273E+03   -0.38742E+04 36720   0.266E+02    0.700E+02
DAV:  11    -0.246171223335E+04    0.31279E+04   -0.16616E+04 29520   0.166E+02    0.374E+02
DAV:  12    -0.235999474581E+04    0.10172E+03   -0.97056E+03 31584   0.156E+02    0.357E+02
DAV:  13    -0.172553003283E+04    0.63446E+03   -0.28607E+03 33792   0.922E+01    0.348E+02
DAV:  14    -0.159388063813E+04    0.13165E+03   -0.79710E+02 31728   0.488E+01    0.339E+02
DAV:  15    -0.156597148629E+04    0.27909E+02   -0.84115E+02 30480   0.487E+01    0.322E+02
DAV:  16    -0.142800059582E+04    0.13797E+03   -0.71660E+02 30960   0.374E+01    0.277E+02
DAV:  17    -0.136302784511E+04    0.64973E+02   -0.11067E+03 28848   0.516E+01    0.236E+02
DAV:  18    -0.131102995683E+04    0.51998E+02   -0.71786E+02 29520   0.507E+01    0.207E+02
DAV:  19    -0.126380410211E+04    0.47226E+02   -0.23789E+02 32592   0.230E+01    0.199E+02
DAV:  20    -0.122042680690E+04    0.43377E+02   -0.43723E+02 26976   0.389E+01    0.178E+02
DAV:  21    -0.120326698858E+04    0.17160E+02   -0.10431E+02 27936   0.164E+01    0.169E+02
DAV:  22    -0.113701091042E+04    0.66256E+02   -0.14826E+02 29088   0.179E+01    0.151E+02
DAV:  23    -0.113189820229E+04    0.51127E+01   -0.58096E+01 29520   0.113E+01    0.146E+02
DAV:  24    -0.112010165715E+04    0.11797E+02   -0.33121E+01 28272   0.800E+00    0.135E+02
DAV:  25    -0.111194141709E+04    0.81602E+01   -0.28361E+01 27312   0.773E+00    0.124E+02
DAV:  26    -0.111102915921E+04    0.91226E+00   -0.25812E+01 28800   0.649E+00    0.116E+02
DAV:  27    -0.110430041887E+04    0.67287E+01   -0.37809E+01 28704   0.955E+00    0.103E+02
DAV:  28    -0.110212229644E+04    0.21781E+01   -0.10943E+01 27744   0.510E+00    0.980E+01
DAV:  29    -0.110018536835E+04    0.19369E+01   -0.98717E+00 26928   0.503E+00    0.905E+01
DAV:  30    -0.109880383841E+04    0.13815E+01   -0.58139E+00 28656   0.367E+00
   2 F= -.10988038E+04 E0= -.10987075E+04  d E =0.124914E+05
 trial-energy change:12491.437541  1 .order  -14.423334  -29.087311    0.240643
 step:   0.9918(harm=  0.9918)  dis= 0.03483  next Energy=-13604.665700 (dE=-0.144E+02)
 bond charge predicted
       N       E                     dE             d eps       ncg     rms          rms(c)
DAV:   1    -0.109678599141E+04    0.33994E+01   -0.72436E+00 27504   0.397E+00    0.790E+01
DAV:   2    -0.131692214617E+04   -0.22014E+03   -0.57946E+02 30240   0.512E+01    0.927E+01
DAV:   3    -0.116478682921E+04    0.15214E+03   -0.85400E+02 33648   0.558E+01    0.638E+01
DAV:   4    -0.122584571082E+04   -0.61059E+02   -0.12152E+03 31920   0.580E+01    0.627E+01
DAV:   5    -0.145566477905E+04   -0.22982E+03   -0.83397E+02 30048   0.589E+01    0.766E+01
DAV:   6    -0.113191316605E+04    0.32375E+03   -0.54173E+02 31584   0.353E+01    0.416E+01
DAV:   7    -0.111087057145E+04    0.21043E+02   -0.35314E+02 28464   0.251E+01    0.308E+01
DAV:   8    -0.110283882274E+04    0.80317E+01   -0.91186E+01 28800   0.125E+01    0.225E+01
DAV:   9    -0.109896623240E+04    0.38726E+01   -0.14658E+01 29568   0.540E+00    0.187E+01
DAV:  10    -0.109761914755E+04    0.13471E+01   -0.11345E+01 26880   0.526E+00    0.169E+01
DAV:  11    -0.109484828360E+04    0.27709E+01   -0.80557E+00 27984   0.495E+00    0.123E+01
DAV:  12    -0.109286311737E+04    0.19852E+01   -0.63960E+00 26832   0.388E+00    0.778E+00
DAV:  13    -0.109199988692E+04    0.86323E+00   -0.47513E+00 27648   0.336E+00    0.433E+00
DAV:  14    -0.109190074771E+04    0.99139E-01   -0.20718E+00 27840   0.216E+00    0.342E+00
DAV:  15    -0.109178413440E+04    0.11661E+00   -0.72352E-01 27936   0.127E+00    0.225E+00
DAV:  16    -0.109175459935E+04    0.29535E-01   -0.31623E-01 27840   0.904E-01    0.175E+00
DAV:  17    -0.109174110316E+04    0.13496E-01   -0.28847E-01 29088   0.824E-01    0.150E+00
DAV:  18    -0.109172992154E+04    0.11182E-01   -0.21226E-01 28560   0.745E-01    0.130E+00
DAV:  19    -0.109170431318E+04    0.25608E-01   -0.13535E-01 28464   0.539E-01    0.584E-01
DAV:  20    -0.109170263153E+04    0.16816E-02   -0.73876E-02 28704   0.401E-01    0.488E-01
DAV:  21    -0.109170072813E+04    0.19034E-02   -0.30088E-02 27696   0.274E-01    0.293E-01
DAV:  22    -0.109170055460E+04    0.17353E-03   -0.14463E-02 27216   0.183E-01    0.244E-01
DAV:  23    -0.109169953853E+04    0.10161E-02   -0.64034E-03 27888   0.127E-01    0.912E-02
DAV:  24    -0.109169952748E+04    0.11054E-04   -0.15996E-03 26976   0.647E-02    0.835E-02
DAV:  25    -0.109169945459E+04    0.72888E-04   -0.78390E-04 27216   0.437E-02    0.533E-02
DAV:  26    -0.109169942489E+04    0.29699E-04   -0.30052E-04 27408   0.286E-02    0.337E-02
DAV:  27    -0.109169941375E+04    0.11145E-04   -0.17588E-04 27120   0.203E-02    0.203E-02
DAV:  28    -0.109169941099E+04    0.27624E-05   -0.59747E-05 25296   0.126E-02    0.140E-02
DAV:  29    -0.109169940843E+04    0.25572E-05   -0.27636E-05 25152   0.873E-03    0.963E-03
DAV:  30    -0.109169940715E+04    0.12831E-05   -0.10312E-05 23280   0.545E-03
   3 F= -.10916994E+04 E0= -.10915987E+04  d E =0.124985E+05
 curvature:  -0.50 expect dE=-0.487E-02 dE for cont linesearch -0.133E-03
 ZBRENT: interpolating
 opt :   0.9888  next Energy= -1091.699539 (dE= 0.125E+05)
 bond charge predicted
       N       E                     dE             d eps       ncg     rms          rms(c)
DAV:   1    -0.109169965195E+04   -0.24352E-03   -0.30302E-04 23712   0.304E-02    0.575E-03
DAV:   2    -0.109169967612E+04   -0.24173E-04   -0.70141E-05 30144   0.167E-02    0.297E-02
DAV:   3    -0.109169965599E+04    0.20125E-04   -0.66447E-05 24096   0.156E-02    0.127E-02
DAV:   4    -0.109169965327E+04    0.27240E-05   -0.13337E-05 21552   0.657E-03    0.549E-03
DAV:   5    -0.109169965371E+04   -0.43767E-06   -0.54837E-06 15600   0.456E-03    0.658E-03
DAV:   6    -0.109169965286E+04    0.84602E-06   -0.30602E-06 14208   0.385E-03    0.323E-03
DAV:   7    -0.109169965279E+04    0.74164E-07   -0.86227E-07 12528   0.200E-03    0.218E-03
DAV:   8    -0.109169965277E+04    0.21108E-07   -0.44785E-07 12480   0.161E-03    0.166E-03
DAV:   9    -0.109169965277E+04   -0.32669E-08   -0.29307E-07 12480   0.133E-03    0.133E-03
DAV:  10    -0.109169965277E+04   -0.28231E-08   -0.19299E-07 12480   0.110E-03
   4 F= -.10916997E+04 E0= -.10915990E+04  d E =0.124985E+05
 curvature:  -0.49 expect dE=-0.485E-02 dE for cont linesearch -0.131E-03
 ZBRENT: bisectioning
 opt :   0.4944  next Energy= -1091.729863 (dE= 0.125E+05)
 bond charge predicted
       N       E                     dE             d eps       ncg     rms          rms(c)
DAV:   1    -0.109169608485E+04    0.35679E-02   -0.81106E+00 22032   0.497E+00    0.664E-01
DAV:   2    -0.109180466332E+04   -0.10858E+00   -0.63042E-01 30624   0.163E+00    0.202E+00
DAV:   3    -0.109177524103E+04    0.29422E-01   -0.40184E-01 31440   0.113E+00    0.138E+00
DAV:   4    -0.109173117687E+04    0.44064E-01   -0.15971E-01 26592   0.755E-01    0.586E-01
DAV:   5    -0.109174551121E+04   -0.14334E-01   -0.75115E-02 27504   0.472E-01    0.858E-01
DAV:   6    -0.109173058769E+04    0.14924E-01   -0.60738E-02 28368   0.459E-01    0.452E-01
DAV:   7    -0.109172761136E+04    0.29763E-02   -0.17419E-02 27792   0.234E-01    0.280E-01
DAV:   8    -0.109172779447E+04   -0.18312E-03   -0.11410E-02 27840   0.187E-01    0.265E-01
DAV:   9    -0.109172704492E+04    0.74956E-03   -0.95613E-03 29808   0.158E-01    0.182E-01
DAV:  10    -0.109172663748E+04    0.40744E-03   -0.43008E-03 30624   0.119E-01    0.124E-01
DAV:  11    -0.109172647816E+04    0.15932E-03   -0.19885E-03 28848   0.730E-02    0.790E-02
DAV:  12    -0.109172640296E+04    0.75199E-04   -0.74119E-04 29328   0.438E-02    0.473E-02
DAV:  13    -0.109172637174E+04    0.31216E-04   -0.23834E-04 27984   0.270E-02    0.269E-02
DAV:  14    -0.109172637106E+04    0.68750E-06   -0.13199E-04 27552   0.181E-02    0.237E-02
DAV:  15    -0.109172636621E+04    0.48420E-05   -0.73553E-05 26736   0.142E-02    0.153E-02
DAV:  16    -0.109172636357E+04    0.26481E-05   -0.34739E-05 26352   0.970E-03    0.102E-02
DAV:  17    -0.109172636192E+04    0.16457E-05   -0.13047E-05 23328   0.629E-03    0.536E-03
DAV:  18    -0.109172636183E+04    0.92965E-07   -0.57828E-06 20832   0.380E-03
   5 F= -.10917264E+04 E0= -.10916255E+04  d E =0.124985E+05
 curvature: ****** expect dE=-0.112E+01 dE for cont linesearch -0.396E-02
 ZBRENT: bisectioning
 opt :   0.2472  next Energy= -1091.730760 (dE= 0.125E+05)
 bond charge predicted
       N       E                     dE             d eps       ncg     rms          rms(c)
DAV:   1    -0.109172178229E+04    0.45796E-02   -0.20272E+00 21888   0.248E+00    0.326E-01
DAV:   2    -0.109174910030E+04   -0.27318E-01   -0.15879E-01 30624   0.819E-01    0.101E+00
DAV:   3    -0.109174127501E+04    0.78253E-02   -0.98981E-02 31536   0.569E-01    0.678E-01
DAV:   4    -0.109173053554E+04    0.10739E-01   -0.38258E-02 26544   0.371E-01    0.288E-01
DAV:   5    -0.109173404789E+04   -0.35124E-02   -0.18213E-02 27552   0.233E-01    0.423E-01
DAV:   6    -0.109173041682E+04    0.36311E-02   -0.14800E-02 27936   0.227E-01    0.223E-01
DAV:   7    -0.109172970124E+04    0.71558E-03   -0.42774E-03 28032   0.116E-01    0.139E-01
DAV:   8    -0.109172973464E+04   -0.33401E-04   -0.28443E-03 29232   0.936E-02    0.131E-01
DAV:   9    -0.109172955459E+04    0.18004E-03   -0.23656E-03 29136   0.783E-02    0.897E-02
DAV:  10    -0.109172945228E+04    0.10231E-03   -0.10458E-03 31488   0.584E-02    0.596E-02
DAV:  11    -0.109172941514E+04    0.37139E-04   -0.47132E-04 28416   0.355E-02    0.381E-02
DAV:  12    -0.109172939833E+04    0.16818E-04   -0.17721E-04 28224   0.214E-02    0.235E-02
DAV:  13    -0.109172939079E+04    0.75409E-05   -0.59268E-05 25152   0.136E-02    0.135E-02
DAV:  14    -0.109172939052E+04    0.26017E-06   -0.33237E-05 25584   0.913E-03    0.118E-02
DAV:  15    -0.109172938930E+04    0.12217E-05   -0.17974E-05 24480   0.705E-03    0.744E-03
DAV:  16    -0.109172938864E+04    0.66297E-06   -0.81482E-06 22416   0.481E-03
   6 F= -.10917294E+04 E0= -.10916285E+04  d E =0.124985E+05
 curvature: ****** expect dE=-0.126E+01 dE for cont linesearch -0.179E-04
 ZBRENT: interpolating
 opt :   0.2304  next Energy= -1091.729406 (dE= 0.125E+05)
 bond charge predicted
       N       E                     dE             d eps       ncg     rms          rms(c)
DAV:   1    -0.109172929291E+04    0.96390E-04   -0.93973E-03 22992   0.169E-01    0.225E-02
DAV:   2    -0.109172943123E+04   -0.13832E-03   -0.78150E-04 30528   0.586E-02    0.716E-02
DAV:   3    -0.109172938391E+04    0.47322E-04   -0.47282E-04 29904   0.400E-02    0.459E-02
DAV:   4    -0.109172933618E+04    0.47725E-04   -0.17679E-04 25824   0.249E-02    0.194E-02
DAV:   5    -0.109172935422E+04   -0.18038E-04   -0.86467E-05 25632   0.162E-02    0.297E-02
DAV:   6    -0.109172933569E+04    0.18532E-04   -0.72124E-05 25248   0.160E-02    0.154E-02
DAV:   7    -0.109172933228E+04    0.34066E-05   -0.19923E-05 23376   0.800E-03    0.940E-03
DAV:   8    -0.109172933270E+04   -0.41530E-06   -0.13782E-05 24000   0.647E-03    0.943E-03
DAV:   9    -0.109172933169E+04    0.10113E-05   -0.11167E-05 23040   0.551E-03    0.608E-03
DAV:  10    -0.109172933119E+04    0.49483E-06   -0.46771E-06 19536   0.417E-03
   7 F= -.10917293E+04 E0= -.10916284E+04  d E =0.124985E+05
 curvature: ****** expect dE=-0.121E+01 dE for cont linesearch -0.368E-06
 trial: gam= 0.00035 g(F)=  0.999E-02 g(S)=  0.000E+00 ort =-0.298E-03 (trialstep = 0.846E+00)
 search vector abs. value=  0.999E-02
 bond charge predicted
       N       E                     dE             d eps       ncg     rms          rms(c)
DAV:   1    -0.109173765047E+04   -0.83188E-02   -0.90628E-03 22752   0.151E-01    0.240E-02
DAV:   2    -0.109173773480E+04   -0.84332E-04   -0.59489E-04 29232   0.496E-02    0.556E-02
DAV:   3    -0.109173774708E+04   -0.12280E-04   -0.41640E-04 30192   0.374E-02    0.531E-02
DAV:   4    -0.109173767899E+04    0.68096E-04   -0.21650E-04 25200   0.266E-02    0.179E-02
DAV:   5    -0.109173769826E+04   -0.19271E-04   -0.81140E-05 25872   0.156E-02    0.298E-02
DAV:   6    -0.109173767952E+04    0.18737E-04   -0.74840E-05 25344   0.161E-02    0.143E-02
DAV:   7    -0.109173767825E+04    0.12716E-05   -0.25943E-05 24816   0.903E-03    0.122E-02
DAV:   8    -0.109173767703E+04    0.12207E-05   -0.16148E-05 24000   0.728E-03    0.820E-03
DAV:   9    -0.109173767644E+04    0.58640E-06   -0.10901E-05 22944   0.575E-03    0.693E-03
DAV:  10    -0.109173767592E+04    0.52761E-06   -0.57457E-06 20880   0.402E-03
   8 F= -.10917377E+04 E0= -.10916368E+04  d E =-.834472E-02
 ZBRENT: can't locate minimum, use default step
 trial-energy change:   -0.008345  1 .order   -0.008417   -0.008449   -0.008385
 step:   3.3843(harm=111.6388)  dis= 0.00248  next Energy= -1092.286731 (dE=-0.557E+00)
 bond charge predicted
       N       E                     dE             d eps       ncg     rms          rms(c)
DAV:   1    -0.109176210796E+04   -0.24432E-01   -0.81559E-02 21792   0.453E-01    0.712E-02
DAV:   2    -0.109176290940E+04   -0.80144E-03   -0.52870E-03 29184   0.149E-01    0.171E-01
DAV:   3    -0.109176285985E+04    0.49553E-04   -0.35790E-03 30192   0.110E-01    0.145E-01
DAV:   4    -0.109176236921E+04    0.49064E-03   -0.17188E-03 26496   0.739E-02    0.529E-02
DAV:   5    -0.109176252225E+04   -0.15303E-03   -0.65242E-04 28176   0.453E-02    0.830E-02
DAV:   6    -0.109176237175E+04    0.15049E-03   -0.61895E-04 27696   0.462E-02    0.427E-02
DAV:   7    -0.109176236750E+04    0.42569E-05   -0.25441E-04 28176   0.256E-02    0.404E-02
DAV:   8    -0.109176235348E+04    0.14016E-04   -0.14982E-04 28560   0.219E-02    0.253E-02
DAV:   9    -0.109176234667E+04    0.68143E-05   -0.99260E-05 27120   0.173E-02    0.202E-02
DAV:  10    -0.109176234154E+04    0.51305E-05   -0.49889E-05 26400   0.112E-02    0.114E-02
DAV:  11    -0.109176233977E+04    0.17655E-05   -0.15593E-05 24288   0.694E-03    0.651E-03
DAV:  12    -0.109176233934E+04    0.42957E-06   -0.62791E-06 20640   0.421E-03
   9 F= -.10917623E+04 E0= -.10916614E+04  d E =-.330081E-01
 curvature:  -2.53 expect dE=-0.238E-01 dE for cont linesearch -0.238E-01
 ZBRENT: increasing intervall
 opt :   8.4608  next Energy= -1091.810479 (dE=-0.811E-01)
 bond charge predicted
       N       E                     dE             d eps       ncg     rms          rms(c)
DAV:   1    -0.109180915650E+04   -0.46817E-01   -0.32617E-01 21120   0.906E-01    0.142E-01
DAV:   2    -0.109181250952E+04   -0.33530E-02   -0.21653E-02 29280   0.300E-01    0.352E-01
DAV:   3    -0.109181212143E+04    0.38809E-03   -0.14656E-02 30336   0.223E-01    0.289E-01
DAV:   4    -0.109181018568E+04    0.19357E-02   -0.68532E-03 26496   0.146E-01    0.103E-01
DAV:   5    -0.109181074807E+04   -0.56240E-03   -0.24292E-03 28272   0.864E-02    0.160E-01
DAV:   6    -0.109181019151E+04    0.55657E-03   -0.23125E-03 27840   0.892E-02    0.799E-02
DAV:   7    -0.109181017016E+04    0.21343E-04   -0.93444E-04 27840   0.499E-02    0.745E-02
DAV:   8    -0.109181013461E+04    0.35555E-04   -0.61953E-04 29328   0.416E-02    0.522E-02
DAV:   9    -0.109181010770E+04    0.26911E-04   -0.37237E-04 28128   0.349E-02    0.419E-02
DAV:  10    -0.109181008690E+04    0.20799E-04   -0.21091E-04 30624   0.232E-02    0.243E-02
DAV:  11    -0.109181007860E+04    0.82965E-05   -0.65282E-05 26256   0.139E-02    0.130E-02
DAV:  12    -0.109181007685E+04    0.17481E-05   -0.25715E-05 25104   0.832E-03    0.827E-03
DAV:  13    -0.109181007638E+04    0.47162E-06   -0.10868E-05 23328   0.564E-03    0.612E-03
DAV:  14    -0.109181007599E+04    0.39292E-06   -0.48295E-06 19488   0.407E-03
  10 F= -.10918101E+04 E0= -.10917092E+04  d E =-.807448E-01
 curvature:  -5.11 expect dE=-0.442E-01 dE for cont linesearch -0.441E-01
 ZBRENT: increasing intervall
 opt :  18.6137  next Energy= -1091.900077 (dE=-0.171E+00)
 bond charge predicted
       N       E                     dE             d eps       ncg     rms          rms(c)
DAV:   1    -0.109189566594E+04   -0.85590E-01   -0.13041E+00 21120   0.181E+00    0.283E-01
DAV:   2    -0.109190952230E+04   -0.13856E-01   -0.87164E-02 29280   0.603E-01    0.715E-01
DAV:   3    -0.109190718483E+04    0.23375E-02   -0.58895E-02 30240   0.447E-01    0.566E-01
DAV:   4    -0.109189980146E+04    0.73834E-02   -0.26704E-02 26544   0.288E-01    0.207E-01
DAV:   5    -0.109190220145E+04   -0.24000E-02   -0.10028E-02 27840   0.175E-01    0.329E-01
DAV:   6    -0.109189980035E+04    0.24011E-02   -0.94238E-03 27648   0.182E-01    0.156E-01
DAV:   7    -0.109189973590E+04    0.64453E-04   -0.36067E-03 27840   0.997E-02    0.149E-01
DAV:   8    -0.109189958703E+04    0.14887E-03   -0.24022E-03 28800   0.836E-02    0.101E-01
DAV:   9    -0.109189948545E+04    0.10157E-03   -0.14518E-03 27312   0.694E-02    0.836E-02
DAV:  10    -0.109189940305E+04    0.82400E-04   -0.84181E-04 31776   0.464E-02    0.488E-02
DAV:  11    -0.109189937036E+04    0.32687E-04   -0.25835E-04 27696   0.278E-02    0.267E-02
DAV:  12    -0.109189936362E+04    0.67445E-05   -0.10317E-04 27072   0.169E-02    0.178E-02
DAV:  13    -0.109189936186E+04    0.17609E-05   -0.47323E-05 25344   0.120E-02    0.145E-02
DAV:  14    -0.109189935937E+04    0.24940E-05   -0.24564E-05 25344   0.852E-03    0.840E-03
DAV:  15    -0.109189935819E+04    0.11745E-05   -0.89592E-06 22608   0.551E-03    0.499E-03
DAV:  16    -0.109189935798E+04    0.20817E-06   -0.39796E-06 18288   0.356E-03
  11 F= -.10918994E+04 E0= -.10917985E+04  d E =-.170027E+00
 curvature: -10.44 expect dE=-0.748E-01 dE for cont linesearch -0.744E-01
 ZBRENT: increasing intervall
 opt :  38.9195  next Energy= -1092.053701 (dE=-0.324E+00)
 bond charge predicted
       N       E                     dE             d eps       ncg     rms          rms(c)
DAV:   1    -0.109203837139E+04   -0.13901E+00   -0.52148E+00 21216   0.362E+00    0.568E-01
DAV:   2    -0.109209559400E+04   -0.57223E-01   -0.35006E-01 29232   0.121E+00    0.146E+00
DAV:   3    -0.109208316866E+04    0.12425E-01   -0.23932E-01 30000   0.902E-01    0.111E+00
DAV:   4    -0.109205481013E+04    0.28359E-01   -0.10545E-01 26880   0.574E-01    0.414E-01
DAV:   5    -0.109206135457E+04   -0.65444E-02   -0.34289E-02 28128   0.320E-01    0.569E-01
DAV:   6    -0.109205526109E+04    0.60935E-02   -0.32372E-02 28032   0.336E-01    0.340E-01
DAV:   7    -0.109205452874E+04    0.73235E-03   -0.15159E-02 27216   0.207E-01    0.297E-01
DAV:   8    -0.109205395192E+04    0.57682E-03   -0.92033E-03 29040   0.167E-01    0.200E-01
DAV:   9    -0.109205353874E+04    0.41318E-03   -0.57715E-03 27360   0.139E-01    0.168E-01
DAV:  10    -0.109205320372E+04    0.33502E-03   -0.33935E-03 31632   0.935E-02    0.976E-02
DAV:  11    -0.109205307637E+04    0.12735E-03   -0.10413E-03 27696   0.559E-02    0.548E-02
DAV:  12    -0.109205304833E+04    0.28045E-04   -0.41748E-04 27360   0.341E-02    0.364E-02
DAV:  13    -0.109205303983E+04    0.85038E-05   -0.19211E-04 27888   0.242E-02    0.291E-02
DAV:  14    -0.109205302943E+04    0.10392E-04   -0.98381E-05 26976   0.166E-02    0.163E-02
DAV:  15    -0.109205302568E+04    0.37579E-05   -0.37374E-05 25056   0.110E-02    0.104E-02
DAV:  16    -0.109205302509E+04    0.58762E-06   -0.19667E-05 25248   0.720E-03    0.792E-03
DAV:  17    -0.109205302420E+04    0.89107E-06   -0.72406E-06 21024   0.468E-03
  12 F= -.10920530E+04 E0= -.10919523E+04  d E =-.323693E+00
 curvature: -21.64 expect dE=-0.103E+00 dE for cont linesearch -0.100E+00
 ZBRENT: increasing intervall
 opt :  79.5311  next Energy= -1092.263114 (dE=-0.534E+00)
 bond charge predicted
       N       E                     dE             d eps       ncg     rms          rms(c)
DAV:   1    -0.109220568474E+04   -0.15266E+00   -0.20855E+01 21504   0.724E+00    0.116E+00
DAV:   2    -0.109245204457E+04   -0.24636E+00   -0.14241E+00 29328   0.243E+00    0.303E+00
DAV:   3    -0.109237926617E+04    0.72778E-01   -0.10006E+00 29376   0.184E+00    0.220E+00
DAV:   4    -0.109227061358E+04    0.10865E+00   -0.42494E-01 26592   0.115E+00    0.846E-01
DAV:   5    -0.109227404074E+04   -0.34272E-02   -0.99991E-02 28512   0.526E-01    0.727E-01
DAV:   6    -0.109228693607E+04   -0.12895E-01   -0.10425E-01 28848   0.606E-01    0.988E-01
DAV:   7    -0.109226881021E+04    0.18126E-01   -0.88293E-02 27024   0.528E-01    0.590E-01
DAV:   8    -0.109226688300E+04    0.19272E-02   -0.33327E-02 28704   0.326E-01    0.398E-01
DAV:   9    -0.109226514593E+04    0.17371E-02   -0.22693E-02 26880   0.283E-01    0.344E-01
DAV:  10    -0.109226375431E+04    0.13916E-02   -0.14264E-02 31680   0.191E-01    0.201E-01
DAV:  11    -0.109226323590E+04    0.51841E-03   -0.43968E-03 27024   0.116E-01    0.119E-01
DAV:  12    -0.109226310064E+04    0.13526E-03   -0.17898E-03 29088   0.697E-02    0.763E-02
DAV:  13    -0.109226306396E+04    0.36684E-04   -0.77540E-04 28416   0.492E-02    0.602E-02
DAV:  14    -0.109226302322E+04    0.40740E-04   -0.42311E-04 27552   0.344E-02    0.359E-02
DAV:  15    -0.109226301230E+04    0.10921E-04   -0.19142E-04 26880   0.248E-02    0.264E-02
DAV:  16    -0.109226300768E+04    0.46133E-05   -0.11544E-04 26976   0.176E-02    0.200E-02
DAV:  17    -0.109226300151E+04    0.61769E-05   -0.45271E-05 24960   0.113E-02    0.963E-03
DAV:  18    -0.109226300105E+04    0.45542E-06   -0.18265E-05 25056   0.685E-03    0.790E-03
DAV:  19    -0.109226300044E+04    0.61132E-06   -0.89604E-06 22416   0.466E-03
  13 F= -.10922630E+04 E0= -.10921625E+04  d E =-.533669E+00
 curvature: -45.29 expect dE=-0.797E-01 dE for cont linesearch -0.583E-01
 ZBRENT: increasing intervall
 opt : 160.7543  next Energy= -1092.292550 (dE=-0.563E+00)
 bond charge predicted
       N       E                     dE             d eps       ncg     rms          rms(c)
DAV:   1    -0.109205936385E+04    0.20364E+00   -0.83221E+01 21120   0.145E+01    0.251E+00
DAV:   2    -0.109325810843E+04   -0.11987E+01   -0.61711E+00 29232   0.518E+00    0.664E+00
DAV:   3    -0.109276495447E+04    0.49315E+00   -0.42098E+00 28752   0.395E+00    0.442E+00
DAV:   4    -0.109234811780E+04    0.41684E+00   -0.18620E+00 26928   0.236E+00    0.189E+00
DAV:   5    -0.109247470716E+04   -0.12659E+00   -0.69619E-01 28272   0.153E+00    0.268E+00
DAV:   6    -0.109233242677E+04    0.14228E+00   -0.55980E-01 27552   0.140E+00    0.126E+00
DAV:   7    -0.109232419399E+04    0.82328E-02   -0.19582E-01 27696   0.798E-01    0.119E+00
DAV:   8    -0.109231679108E+04    0.74029E-02   -0.13553E-01 28656   0.655E-01    0.832E-01
DAV:   9    -0.109231073073E+04    0.60603E-02   -0.95361E-02 27600   0.555E-01    0.725E-01
DAV:  10    -0.109230497902E+04    0.57517E-02   -0.63320E-02 30960   0.406E-01    0.430E-01
DAV:  11    -0.109230262347E+04    0.23555E-02   -0.21179E-02 29712   0.249E-01    0.248E-01
DAV:  12    -0.109230202038E+04    0.60309E-03   -0.83122E-03 28896   0.152E-01    0.164E-01
DAV:  13    -0.109230169710E+04    0.32328E-03   -0.31425E-03 27504   0.995E-02    0.106E-01
DAV:  14    -0.109230158678E+04    0.11032E-03   -0.15249E-03 27744   0.633E-02    0.695E-02
DAV:  15    -0.109230153831E+04    0.48473E-04   -0.69498E-04 27216   0.458E-02    0.444E-02
DAV:  16    -0.109230152998E+04    0.83225E-05   -0.37104E-04 26928   0.327E-02    0.380E-02
DAV:  17    -0.109230150651E+04    0.23472E-04   -0.16201E-04 29568   0.210E-02    0.169E-02
DAV:  18    -0.109230150471E+04    0.18050E-05   -0.55194E-05 26880   0.121E-02    0.130E-02
DAV:  19    -0.109230150312E+04    0.15863E-05   -0.28490E-05 25200   0.835E-03    0.852E-03
DAV:  20    -0.109230150219E+04    0.93228E-06   -0.10107E-05 23232   0.548E-03    0.496E-03
DAV:  21    -0.109230150198E+04    0.21208E-06   -0.34955E-06 18096   0.325E-03
  14 F= -.10923015E+04 E0= -.10922015E+04  d E =-.572171E+00
 curvature: -22.96 expect dE=-0.564E-01 dE for cont linesearch -0.164E-01
 ZBRENT: bracketing found
 ZBRENT: interpolating
 opt : 126.0980  next Energy= -1092.347739 (dE=-0.618E+00)
 bond charge predicted
       N       E                     dE             d eps       ncg     rms          rms(c)
DAV:   1    -0.109230361958E+04   -0.21174E-02   -0.15155E+01 21024   0.619E+00    0.977E-01
DAV:   2    -0.109248772289E+04   -0.18410E+00   -0.10598E+00 29232   0.210E+00    0.262E+00
DAV:   3    -0.109242850920E+04    0.59214E-01   -0.73248E-01 29712   0.161E+00    0.184E+00
DAV:   4    -0.109235230594E+04    0.76203E-01   -0.29595E-01 26496   0.970E-01    0.706E-01
DAV:   5    -0.109235157641E+04    0.72953E-03   -0.68185E-02 28368   0.423E-01    0.542E-01
DAV:   6    -0.109235782023E+04   -0.62438E-02   -0.53181E-02 28848   0.410E-01    0.668E-01
DAV:   7    -0.109235880793E+04   -0.98769E-03   -0.67080E-02 28704   0.484E-01    0.722E-01
DAV:   8    -0.109234985924E+04    0.89487E-02   -0.36601E-02 27456   0.350E-01    0.342E-01
DAV:   9    -0.109234850920E+04    0.13500E-02   -0.16046E-02 28224   0.233E-01    0.286E-01
DAV:  10    -0.109234749141E+04    0.10178E-02   -0.99089E-03 31008   0.162E-01    0.165E-01
DAV:  11    -0.109234712637E+04    0.36504E-03   -0.30857E-03 28032   0.101E-01    0.101E-01
DAV:  12    -0.109234704645E+04    0.79912E-04   -0.14257E-03 28032   0.596E-02    0.677E-02
DAV:  13    -0.109234701111E+04    0.35341E-04   -0.56482E-04 28608   0.417E-02    0.492E-02
DAV:  14    -0.109234698189E+04    0.29221E-04   -0.28298E-04 26928   0.287E-02    0.284E-02
DAV:  15    -0.109234697298E+04    0.89133E-05   -0.11715E-04 27744   0.198E-02    0.193E-02
DAV:  16    -0.109234697186E+04    0.11175E-05   -0.73637E-05 26880   0.140E-02    0.170E-02
DAV:  17    -0.109234696723E+04    0.46273E-05   -0.30741E-05 25488   0.922E-03    0.770E-03
DAV:  18    -0.109234696686E+04    0.37617E-06   -0.10885E-05 23184   0.551E-03    0.605E-03
DAV:  19    -0.109234696664E+04    0.21945E-06   -0.60808E-06 21312   0.390E-03
  15 F= -.10923470E+04 E0= -.10922468E+04  d E =-.617635E+00
 curvature: -64.87 expect dE=-0.716E-01 dE for cont linesearch -0.175E-05
 trial: gam= 0.11078 g(F)=  0.110E-02 g(S)=  0.000E+00 ort =-0.164E-04 (trialstep = 0.259E+02)
 search vector abs. value=  0.122E-02
 bond charge predicted
       N       E                     dE             d eps       ncg     rms          rms(c)
DAV:   1    -0.109237047700E+04   -0.23510E-01   -0.98904E-01 20592   0.172E+00    0.243E-01
DAV:   2    -0.109239918132E+04   -0.28704E-01   -0.10742E-01 29760   0.711E-01    0.104E+00
DAV:   3    -0.109237953093E+04    0.19650E-01   -0.83902E-02 27456   0.541E-01    0.484E-01
DAV:   4    -0.109237527610E+04    0.42548E-02   -0.20045E-02 27312   0.264E-01    0.235E-01
DAV:   5    -0.109237748610E+04   -0.22100E-02   -0.12037E-02 28800   0.198E-01    0.353E-01
DAV:   6    -0.109237467786E+04    0.28082E-02   -0.80874E-03 27168   0.168E-01    0.143E-01
DAV:   7    -0.109237453240E+04    0.14547E-03   -0.20467E-03 27792   0.727E-02    0.112E-01
DAV:   8    -0.109237456985E+04   -0.37449E-04   -0.14949E-03 28704   0.709E-02    0.102E-01
DAV:   9    -0.109237448250E+04    0.87341E-04   -0.15211E-03 29232   0.642E-02    0.757E-02
DAV:  10    -0.109237440098E+04    0.81523E-04   -0.64622E-04 30960   0.441E-02    0.473E-02
DAV:  11    -0.109237437172E+04    0.29265E-04   -0.26605E-04 28272   0.248E-02    0.224E-02
DAV:  12    -0.109237436937E+04    0.23431E-05   -0.76608E-05 27552   0.142E-02    0.173E-02
DAV:  13    -0.109237436591E+04    0.34604E-05   -0.36233E-05 25056   0.966E-03    0.989E-03
DAV:  14    -0.109237436523E+04    0.68505E-06   -0.14925E-05 24624   0.669E-03    0.736E-03
DAV:  15    -0.109237436489E+04    0.33683E-06   -0.97826E-06 22992   0.513E-03
  16 F= -.10923744E+04 E0= -.10922742E+04  d E =-.273983E-01
 ZBRENT: can't locate minimum, use default step
 trial-energy change:   -0.027398  1 .order   -0.026767   -0.028545   -0.024990
 step: 103.5859(harm=207.9295)  dis= 0.01639  next Energy= -1092.461564 (dE=-0.115E+00)
 bond charge predicted
       N       E                     dE             d eps       ncg     rms          rms(c)
DAV:   1    -0.109240156092E+04   -0.27196E-01   -0.89099E+00 20976   0.517E+00    0.738E-01
DAV:   2    -0.109265886795E+04   -0.25731E+00   -0.94703E-01 29904   0.212E+00    0.310E+00
DAV:   3    -0.109248360113E+04    0.17527E+00   -0.75194E-01 27216   0.161E+00    0.147E+00
DAV:   4    -0.109244418239E+04    0.39419E-01   -0.18787E-01 29616   0.808E-01    0.717E-01
DAV:   5    -0.109246437788E+04   -0.20195E-01   -0.11139E-01 28416   0.600E-01    0.107E+00
DAV:   6    -0.109243850237E+04    0.25876E-01   -0.73586E-02 27168   0.504E-01    0.429E-01
DAV:   7    -0.109243726890E+04    0.12335E-02   -0.18116E-02 27312   0.216E-01    0.340E-01
DAV:   8    -0.109243768292E+04   -0.41402E-03   -0.13498E-02 28608   0.213E-01    0.313E-01
DAV:   9    -0.109243685062E+04    0.83230E-03   -0.13964E-02 29280   0.196E-01    0.232E-01
DAV:  10    -0.109243608925E+04    0.76136E-03   -0.60723E-03 30768   0.136E-01    0.145E-01
DAV:  11    -0.109243581447E+04    0.27479E-03   -0.25300E-03 28512   0.766E-02    0.698E-02
DAV:  12    -0.109243578627E+04    0.28199E-04   -0.73973E-04 28608   0.436E-02    0.522E-02
DAV:  13    -0.109243575405E+04    0.32222E-04   -0.32763E-04 27696   0.290E-02    0.299E-02
DAV:  14    -0.109243574818E+04    0.58629E-05   -0.13717E-04 27312   0.201E-02    0.226E-02
DAV:  15    -0.109243574540E+04    0.27862E-05   -0.91157E-05 27024   0.156E-02    0.179E-02
DAV:  16    -0.109243574131E+04    0.40887E-05   -0.45665E-05 26304   0.109E-02    0.107E-02
DAV:  17    -0.109243573968E+04    0.16236E-05   -0.15756E-05 24048   0.663E-03    0.630E-03
DAV:  18    -0.109243573929E+04    0.39135E-06   -0.65325E-06 21504   0.415E-03
  17 F= -.10924357E+04 E0= -.10923356E+04  d E =-.887727E-01
 curvature: -77.45 expect dE=-0.286E-01 dE for cont linesearch -0.202E-01
 ZBRENT: increasing intervall
 opt : 258.9647  next Energy= -1092.461140 (dE=-0.114E+00)
 bond charge predicted
       N       E                     dE             d eps       ncg     rms          rms(c)
DAV:   1    -0.109232510174E+04    0.11064E+00   -0.35630E+01 20496   0.104E+01    0.155E+00
DAV:   2    -0.109334215955E+04   -0.10171E+01   -0.36922E+00 30912   0.427E+00    0.607E+00
DAV:   3    -0.109267286597E+04    0.66929E+00   -0.28801E+00 27024   0.319E+00    0.305E+00
DAV:   4    -0.109250154712E+04    0.17132E+00   -0.84331E-01 29376   0.169E+00    0.153E+00
DAV:   5    -0.109259506775E+04   -0.93521E-01   -0.50891E-01 29376   0.128E+00    0.229E+00
DAV:   6    -0.109247362407E+04    0.12144E+00   -0.33207E-01 27168   0.106E+00    0.875E-01
DAV:   7    -0.109246903378E+04    0.45903E-02   -0.73708E-02 27264   0.433E-01    0.706E-01
DAV:   8    -0.109247086841E+04   -0.18346E-02   -0.54292E-02 27744   0.423E-01    0.644E-01
DAV:   9    -0.109246748729E+04    0.33811E-02   -0.56979E-02 28848   0.399E-01    0.484E-01
DAV:  10    -0.109246430353E+04    0.31838E-02   -0.26474E-02 30480   0.286E-01    0.303E-01
DAV:  11    -0.109246314635E+04    0.11572E-02   -0.11355E-02 29232   0.164E-01    0.155E-01
DAV:  12    -0.109246295622E+04    0.19013E-03   -0.34582E-03 28752   0.930E-02    0.107E-01
DAV:  13    -0.109246281808E+04    0.13814E-03   -0.13544E-03 27024   0.598E-02    0.626E-02
DAV:  14    -0.109246279856E+04    0.19517E-04   -0.60555E-04 27696   0.415E-02    0.489E-02
DAV:  15    -0.109246278697E+04    0.11590E-04   -0.40107E-04 28272   0.332E-02    0.389E-02
DAV:  16    -0.109246276738E+04    0.19591E-04   -0.21737E-04 28224   0.238E-02    0.236E-02
DAV:  17    -0.109246275926E+04    0.81224E-05   -0.74632E-05 26304   0.144E-02    0.134E-02
DAV:  18    -0.109246275771E+04    0.15494E-05   -0.31172E-05 25440   0.868E-03    0.893E-03
DAV:  19    -0.109246275652E+04    0.11834E-05   -0.11331E-05 23232   0.563E-03    0.489E-03
DAV:  20    -0.109246275634E+04    0.18043E-06   -0.42484E-06 19296   0.376E-03
  18 F= -.10924628E+04 E0= -.10923628E+04  d E =-.115790E+00
 curvature: -97.58 expect dE=-0.480E-01 dE for cont linesearch -0.500E-02
 ZBRENT: bracketing found
 ZBRENT: interpolating
 opt : 211.2093  next Energy= -1092.468735 (dE=-0.122E+00)
 bond charge predicted
       N       E                     dE             d eps       ncg     rms          rms(c)
DAV:   1    -0.109245449006E+04    0.82665E-02   -0.33601E+00 19968   0.318E+00    0.456E-01
DAV:   2    -0.109255348180E+04   -0.98992E-01   -0.37875E-01 30432   0.133E+00    0.195E+00
DAV:   3    -0.109248653915E+04    0.66943E-01   -0.28859E-01 26544   0.103E+00    0.909E-01
DAV:   4    -0.109247101848E+04    0.15521E-01   -0.71153E-02 29088   0.496E-01    0.436E-01
DAV:   5    -0.109247920588E+04   -0.81874E-02   -0.41673E-02 27984   0.373E-01    0.666E-01
DAV:   6    -0.109246904231E+04    0.10164E-01   -0.28960E-02 27072   0.322E-01    0.263E-01
DAV:   7    -0.109246855768E+04    0.48463E-03   -0.70070E-03 27504   0.135E-01    0.208E-01
DAV:   8    -0.109246872582E+04   -0.16814E-03   -0.53619E-03 28992   0.132E-01    0.197E-01
DAV:   9    -0.109246835563E+04    0.37020E-03   -0.53316E-03 29088   0.119E-01    0.136E-01
DAV:  10    -0.109246809594E+04    0.25969E-03   -0.21227E-03 30960   0.807E-02    0.875E-02
DAV:  11    -0.109246799752E+04    0.98414E-04   -0.91704E-04 29328   0.460E-02    0.425E-02
DAV:  12    -0.109246798673E+04    0.10789E-04   -0.26897E-04 27792   0.267E-02    0.324E-02
DAV:  13    -0.109246797404E+04    0.12696E-04   -0.12578E-04 26976   0.180E-02    0.185E-02
DAV:  14    -0.109246797114E+04    0.28949E-05   -0.52517E-05 26448   0.124E-02    0.134E-02
DAV:  15    -0.109246797035E+04    0.79670E-06   -0.32858E-05 25296   0.945E-03    0.109E-02
DAV:  16    -0.109246796882E+04    0.15319E-05   -0.16599E-05 23856   0.658E-03    0.636E-03
DAV:  17    -0.109246796820E+04    0.61597E-06   -0.53765E-06 20256   0.409E-03
  19 F= -.10924680E+04 E0= -.10923680E+04  d E =-.121002E+00
 curvature: ****** expect dE=-0.347E-01 dE for cont linesearch -0.290E-05
 trial: gam= 0.26311 g(F)=  0.298E-03 g(S)=  0.000E+00 ort =-0.552E-05 (trialstep = 0.630E+02)
 search vector abs. value=  0.380E-03
 bond charge predicted
       N       E                     dE             d eps       ncg     rms          rms(c)
DAV:   1    -0.109247273394E+04   -0.47651E-02   -0.19131E+00 20880   0.250E+00    0.344E-01
DAV:   2    -0.109262286441E+04   -0.15013E+00   -0.39628E-01 30432   0.132E+00    0.231E+00
DAV:   3    -0.109248721018E+04    0.13565E+00   -0.33052E-01 26400   0.109E+00    0.536E-01
DAV:   4    -0.109248618053E+04    0.10296E-02   -0.40195E-02 30720   0.364E-01    0.441E-01
DAV:   5    -0.109248555501E+04    0.62552E-03   -0.26851E-02 27936   0.297E-01    0.399E-01
DAV:   6    -0.109248259062E+04    0.29644E-02   -0.10860E-02 27552   0.194E-01    0.195E-01
DAV:   7    -0.109248223041E+04    0.36020E-03   -0.34453E-03 28464   0.967E-02    0.139E-01
DAV:   8    -0.109248242867E+04   -0.19826E-03   -0.28399E-03 27408   0.901E-02    0.157E-01
DAV:   9    -0.109248214191E+04    0.28677E-03   -0.28154E-03 28992   0.843E-02    0.906E-02
DAV:  10    -0.109248201169E+04    0.13021E-03   -0.94813E-04 29760   0.539E-02    0.489E-02
DAV:  11    -0.109248199088E+04    0.20812E-04   -0.37075E-04 28752   0.308E-02    0.321E-02
DAV:  12    -0.109248198085E+04    0.10035E-04   -0.13369E-04 27456   0.190E-02    0.207E-02
DAV:  13    -0.109248197704E+04    0.38074E-05   -0.54704E-05 27024   0.128E-02    0.147E-02
DAV:  14    -0.109248197605E+04    0.99424E-06   -0.33703E-05 25248   0.993E-03    0.108E-02
DAV:  15    -0.109248197478E+04    0.12702E-05   -0.15828E-05 24960   0.712E-03    0.753E-03
DAV:  16    -0.109248197400E+04    0.77659E-06   -0.79227E-06 22176   0.473E-03
  20 F= -.10924820E+04 E0= -.10923821E+04  d E =-.140058E-01
 ZBRENT: can't locate minimum, use default step
 trial-energy change:   -0.014006  1 .order   -0.016449   -0.018664   -0.014234
 step: 251.8361(harm=265.2609)  dis= 0.01838  next Energy= -1092.507286 (dE=-0.393E-01)
 bond charge predicted
       N       E                     dE             d eps       ncg     rms          rms(c)
DAV:   1    -0.109241606322E+04    0.65912E-01   -0.17244E+01 21168   0.750E+00    0.105E+00
DAV:   2    -0.109374543404E+04   -0.13294E+01   -0.32907E+00 30192   0.394E+00    0.675E+00
DAV:   3    -0.109254482007E+04    0.12006E+01   -0.26941E+00 26592   0.322E+00    0.162E+00
DAV:   4    -0.109253798734E+04    0.68327E-02   -0.38023E-01 30768   0.112E+00    0.138E+00
DAV:   5    -0.109253077531E+04    0.72120E-02   -0.26075E-01 28176   0.925E-01    0.123E+00
DAV:   6    -0.109250202724E+04    0.28748E-01   -0.10056E-01 27360   0.584E-01    0.579E-01
DAV:   7    -0.109249927943E+04    0.27478E-02   -0.30441E-02 27840   0.286E-01    0.434E-01
DAV:   8    -0.109250097259E+04   -0.16932E-02   -0.25484E-02 27408   0.267E-01    0.472E-01
DAV:   9    -0.109249849328E+04    0.24793E-02   -0.25611E-02 28848   0.257E-01    0.285E-01
DAV:  10    -0.109249722185E+04    0.12714E-02   -0.92892E-03 29136   0.169E-01    0.151E-01
DAV:  11    -0.109249703304E+04    0.18881E-03   -0.35818E-03 29184   0.964E-02    0.103E-01
DAV:  12    -0.109249691132E+04    0.12172E-03   -0.13016E-03 28464   0.584E-02    0.608E-02
DAV:  13    -0.109249688036E+04    0.30963E-04   -0.49178E-04 26928   0.389E-02    0.456E-02
DAV:  14    -0.109249687137E+04    0.89869E-05   -0.32883E-04 27552   0.302E-02    0.339E-02
DAV:  15    -0.109249685972E+04    0.11653E-04   -0.15163E-04 27168   0.225E-02    0.237E-02
DAV:  16    -0.109249685147E+04    0.82493E-05   -0.76047E-05 28608   0.141E-02    0.136E-02
DAV:  17    -0.109249684916E+04    0.23037E-05   -0.24777E-05 25008   0.785E-03    0.775E-03
DAV:  18    -0.109249684869E+04    0.47334E-06   -0.10204E-05 23328   0.486E-03    0.513E-03
DAV:  19    -0.109249684829E+04    0.39638E-06   -0.27919E-06 16704   0.328E-03
  21 F= -.10924968E+04 E0= -.10923974E+04  d E =-.288801E-01
 curvature: ****** expect dE=-0.211E-01 dE for cont linesearch -0.283E-04
 trial: gam= 0.38614 g(F)=  0.125E-03 g(S)=  0.000E+00 ort = 0.797E-05 (trialstep = 0.101E+03)
 search vector abs. value=  0.187E-03
 bond charge predicted
       N       E                     dE             d eps       ncg     rms          rms(c)
DAV:   1    -0.109249473287E+04    0.21158E-02   -0.24481E+00 21120   0.284E+00    0.364E-01
DAV:   2    -0.109275860910E+04   -0.26388E+00   -0.62664E-01 31056   0.161E+00    0.301E+00
DAV:   3    -0.109250733181E+04    0.25128E+00   -0.52709E-01 26640   0.139E+00    0.453E-01
DAV:   4    -0.109251474074E+04   -0.74089E-02   -0.54875E-02 30144   0.408E-01    0.639E-01
DAV:   5    -0.109250676154E+04    0.79792E-02   -0.37911E-02 27504   0.353E-01    0.323E-01
DAV:   6    -0.109250534161E+04    0.14199E-02   -0.75808E-03 27408   0.149E-01    0.177E-01
DAV:   7    -0.109250536018E+04   -0.18569E-04   -0.36969E-03 28032   0.953E-02    0.170E-01
DAV:   8    -0.109250529587E+04    0.64310E-04   -0.34167E-03 28656   0.971E-02    0.139E-01
DAV:   9    -0.109250517767E+04    0.11819E-03   -0.27884E-03 30240   0.876E-02    0.113E-01
DAV:  10    -0.109250498551E+04    0.19217E-03   -0.11172E-03 31056   0.605E-02    0.494E-02
DAV:  11    -0.109250495155E+04    0.33958E-04   -0.37474E-04 29664   0.324E-02    0.328E-02
DAV:  12    -0.109250493980E+04    0.11745E-04   -0.13155E-04 27696   0.187E-02    0.202E-02
DAV:  13    -0.109250493835E+04    0.14504E-05   -0.55569E-05 27504   0.142E-02    0.179E-02
DAV:  14    -0.109250493781E+04    0.54124E-06   -0.52541E-05 26640   0.120E-02    0.153E-02
DAV:  15    -0.109250493456E+04    0.32544E-05   -0.23368E-05 26064   0.944E-03    0.887E-03
DAV:  16    -0.109250493335E+04    0.12076E-05   -0.98936E-06 22464   0.551E-03    0.502E-03
DAV:  17    -0.109250493299E+04    0.35924E-06   -0.30452E-06 17424   0.324E-03
  22 F= -.10925049E+04 E0= -.10924055E+04  d E =-.808470E-02
 trial-energy change:   -0.008085  1 .order   -0.010230   -0.012854   -0.007605
 step: 246.6987(harm=246.6987)  dis= 0.01621  next Energy= -1092.512588 (dE=-0.157E-01)
 bond charge predicted
       N       E                     dE             d eps       ncg     rms          rms(c)
DAV:   1    -0.109248553237E+04    0.19401E-01   -0.51358E+00 21024   0.412E+00    0.533E-01
DAV:   2    -0.109303818167E+04   -0.55265E+00   -0.12983E+00 31392   0.234E+00    0.433E+00
DAV:   3    -0.109251222744E+04    0.52595E+00   -0.10749E+00 26688   0.200E+00    0.653E-01
DAV:   4    -0.109252898575E+04   -0.16758E-01   -0.11883E-01 30576   0.597E-01    0.946E-01
DAV:   5    -0.109251133732E+04    0.17648E-01   -0.83070E-02 28368   0.524E-01    0.475E-01
DAV:   6    -0.109250824646E+04    0.30909E-02   -0.16430E-02 27456   0.218E-01    0.257E-01
DAV:   7    -0.109250829947E+04   -0.53011E-04   -0.78569E-03 27840   0.138E-01    0.248E-01
DAV:   8    -0.109250813540E+04    0.16407E-03   -0.71875E-03 28704   0.140E-01    0.200E-01
DAV:   9    -0.109250789682E+04    0.23858E-03   -0.58140E-03 30288   0.126E-01    0.163E-01
DAV:  10    -0.109250750676E+04    0.39005E-03   -0.23638E-03 30864   0.871E-02    0.724E-02
DAV:  11    -0.109250743259E+04    0.74174E-04   -0.77891E-04 29616   0.473E-02    0.479E-02
DAV:  12    -0.109250740710E+04    0.25485E-04   -0.27892E-04 27984   0.273E-02    0.295E-02
DAV:  13    -0.109250740417E+04    0.29273E-05   -0.11817E-04 27600   0.207E-02    0.260E-02
DAV:  14    -0.109250740388E+04    0.29743E-06   -0.11459E-04 26928   0.176E-02    0.230E-02
DAV:  15    -0.109250739629E+04    0.75854E-05   -0.51223E-05 27696   0.141E-02    0.130E-02
DAV:  16    -0.109250739372E+04    0.25690E-05   -0.21364E-05 24672   0.800E-03    0.737E-03
DAV:  17    -0.109250739305E+04    0.66918E-06   -0.75860E-06 22944   0.461E-03
  23 F= -.10925074E+04 E0= -.10924080E+04  d E =-.105448E-01
 curvature: ****** expect dE=-0.107E-01 dE for cont linesearch -0.502E-05
 trial: gam= 0.45750 g(F)=  0.591E-04 g(S)=  0.000E+00 ort = 0.228E-05 (trialstep = 0.130E+03)
 search vector abs. value=  0.100E-03
 bond charge predicted
       N       E                     dE             d eps       ncg     rms          rms(c)
DAV:   1    -0.109250223045E+04    0.51633E-02   -0.22714E+00 21120   0.273E+00    0.341E-01
DAV:   2    -0.109274829815E+04   -0.24607E+00   -0.58125E-01 30960   0.154E+00    0.291E+00
DAV:   3    -0.109251368013E+04    0.23462E+00   -0.48259E-01 26640   0.133E+00    0.402E-01
DAV:   4    -0.109252048730E+04   -0.68072E-02   -0.48000E-02 30960   0.376E-01    0.596E-01
DAV:   5    -0.109251407648E+04    0.64108E-02   -0.33368E-02 27552   0.333E-01    0.327E-01
DAV:   6    -0.109251253594E+04    0.15405E-02   -0.69699E-03 28176   0.156E-01    0.188E-01
DAV:   7    -0.109251239852E+04    0.13742E-03   -0.32941E-03 28416   0.960E-02    0.156E-01
DAV:   8    -0.109251251332E+04   -0.11480E-03   -0.32447E-03 28944   0.987E-02    0.163E-01
DAV:   9    -0.109251219803E+04    0.31529E-03   -0.27704E-03 29184   0.899E-02    0.950E-02
DAV:  10    -0.109251207796E+04    0.12006E-03   -0.10544E-03 31200   0.603E-02    0.537E-02
DAV:  11    -0.109251204673E+04    0.31229E-04   -0.42969E-04 28512   0.335E-02    0.362E-02
DAV:  12    -0.109251202783E+04    0.18901E-04   -0.12614E-04 28368   0.191E-02    0.196E-02
DAV:  13    -0.109251202552E+04    0.23088E-05   -0.54673E-05 27072   0.139E-02    0.158E-02
DAV:  14    -0.109251202633E+04   -0.81032E-06   -0.51344E-05 26880   0.116E-02    0.150E-02
DAV:  15    -0.109251202333E+04    0.29998E-05   -0.27278E-05 25248   0.911E-03    0.922E-03
DAV:  16    -0.109251202195E+04    0.13804E-05   -0.10312E-05 22896   0.512E-03    0.452E-03
DAV:  17    -0.109251202161E+04    0.33966E-06   -0.24288E-06 15840   0.290E-03
  24 F= -.10925120E+04 E0= -.10924127E+04  d E =-.462856E-02
 trial-energy change:   -0.004629  1 .order   -0.006125   -0.007809   -0.004440
 step: 301.1399(harm=301.1399)  dis= 0.01472  next Energy= -1092.516443 (dE=-0.905E-02)
 bond charge predicted
       N       E                     dE             d eps       ncg     rms          rms(c)
DAV:   1    -0.109249580773E+04    0.16214E-01   -0.39444E+00 21120   0.360E+00    0.453E-01
DAV:   2    -0.109292624386E+04   -0.43044E+00   -0.10102E+00 30864   0.204E+00    0.384E+00
DAV:   3    -0.109251559957E+04    0.41064E+00   -0.83524E-01 26640   0.175E+00    0.528E-01
DAV:   4    -0.109252801168E+04   -0.12412E-01   -0.85275E-02 30960   0.500E-01    0.797E-01
DAV:   5    -0.109251644254E+04    0.11569E-01   -0.59793E-02 27552   0.443E-01    0.435E-01
DAV:   6    -0.109251370614E+04    0.27364E-02   -0.12264E-02 28416   0.206E-01    0.248E-01
DAV:   7    -0.109251347245E+04    0.23369E-03   -0.57268E-03 28272   0.126E-01    0.206E-01
DAV:   8    -0.109251367541E+04   -0.20296E-03   -0.56291E-03 28992   0.130E-01    0.216E-01
DAV:   9    -0.109251312026E+04    0.55515E-03   -0.48259E-03 29184   0.118E-01    0.125E-01
DAV:  10    -0.109251291893E+04    0.20133E-03   -0.18452E-03 31536   0.796E-02    0.713E-02
DAV:  11    -0.109251286262E+04    0.56317E-04   -0.74999E-04 28320   0.443E-02    0.479E-02
DAV:  12    -0.109251282942E+04    0.33199E-04   -0.22091E-04 29088   0.253E-02    0.260E-02
DAV:  13    -0.109251282558E+04    0.38410E-05   -0.96382E-05 27264   0.184E-02    0.211E-02
DAV:  14    -0.109251282698E+04   -0.14017E-05   -0.90337E-05 26880   0.154E-02    0.199E-02
DAV:  15    -0.109251282163E+04    0.53450E-05   -0.48155E-05 27168   0.122E-02    0.123E-02
DAV:  16    -0.109251281923E+04    0.24044E-05   -0.18274E-05 24336   0.664E-03    0.598E-03
DAV:  17    -0.109251281875E+04    0.47916E-06   -0.51834E-06 20304   0.372E-03
  25 F= -.10925128E+04 E0= -.10924136E+04  d E =-.542570E-02
 curvature: ****** expect dE=-0.592E-02 dE for cont linesearch -0.150E-04
 trial: gam= 0.48044 g(F)=  0.235E-04 g(S)=  0.000E+00 ort =-0.244E-05 (trialstep = 0.164E+03)
 search vector abs. value=  0.444E-04
 bond charge predicted
       N       E                     dE             d eps       ncg     rms          rms(c)
DAV:   1    -0.109250915761E+04    0.36616E-02   -0.13079E+00 20928   0.205E+00    0.280E-01
DAV:   2    -0.109265838115E+04   -0.14922E+00   -0.35366E-01 31152   0.118E+00    0.231E+00
DAV:   3    -0.109251620565E+04    0.14218E+00   -0.30375E-01 26736   0.104E+00    0.360E-01
DAV:   4    -0.109251884945E+04   -0.26438E-02   -0.29581E-02 30720   0.299E-01    0.440E-01
DAV:   5    -0.109251602420E+04    0.28252E-02   -0.20510E-02 27840   0.260E-01    0.279E-01
DAV:   6    -0.109251471606E+04    0.13081E-02   -0.51883E-03 27216   0.138E-01    0.149E-01
DAV:   7    -0.109251454551E+04    0.17055E-03   -0.21290E-03 29088   0.789E-02    0.115E-01
DAV:   8    -0.109251463222E+04   -0.86710E-04   -0.19443E-03 27984   0.774E-02    0.122E-01
DAV:   9    -0.109251445361E+04    0.17861E-03   -0.17813E-03 29952   0.699E-02    0.755E-02
DAV:  10    -0.109251437445E+04    0.79164E-04   -0.64457E-04 31344   0.466E-02    0.448E-02
DAV:  11    -0.109251434894E+04    0.25505E-04   -0.25209E-04 27504   0.262E-02    0.244E-02
DAV:  12    -0.109251434196E+04    0.69853E-05   -0.77376E-05 27360   0.153E-02    0.164E-02
DAV:  13    -0.109251433935E+04    0.26115E-05   -0.35721E-05 26160   0.995E-03    0.112E-02
DAV:  14    -0.109251433955E+04   -0.20266E-06   -0.23395E-05 26064   0.839E-03    0.103E-02
DAV:  15    -0.109251433828E+04    0.12660E-05   -0.14692E-05 23520   0.662E-03    0.652E-03
DAV:  16    -0.109251433761E+04    0.67715E-06   -0.57647E-06 20880   0.406E-03
  26 F= -.10925143E+04 E0= -.10924151E+04  d E =-.151886E-02
 trial-energy change:   -0.001519  1 .order   -0.002424   -0.003672   -0.001176
 step: 241.5299(harm=241.5299)  dis= 0.00897  next Energy= -1092.515520 (dE=-0.270E-02)
 bond charge predicted
       N       E                     dE             d eps       ncg     rms          rms(c)
DAV:   1    -0.109251301573E+04    0.13226E-02   -0.29054E-01 20928   0.964E-01    0.131E-01
DAV:   2    -0.109254627935E+04   -0.33264E-01   -0.79244E-02 31104   0.558E-01    0.109E+00
DAV:   3    -0.109251458885E+04    0.31691E-01   -0.68142E-02 26688   0.495E-01    0.171E-01
DAV:   4    -0.109251516245E+04   -0.57360E-03   -0.65552E-03 31248   0.141E-01    0.207E-01
DAV:   5    -0.109251453178E+04    0.63067E-03   -0.44968E-03 27648   0.122E-01    0.130E-01
DAV:   6    -0.109251425028E+04    0.28150E-03   -0.11347E-03 27168   0.644E-02    0.705E-02
DAV:   7    -0.109251421158E+04    0.38695E-04   -0.47184E-04 28656   0.371E-02    0.540E-02
DAV:   8    -0.109251423239E+04   -0.20811E-04   -0.43471E-04 27984   0.367E-02    0.581E-02
DAV:   9    -0.109251419112E+04    0.41270E-04   -0.39536E-04 30000   0.329E-02    0.353E-02
DAV:  10    -0.109251417366E+04    0.17464E-04   -0.14145E-04 31296   0.219E-02    0.210E-02
DAV:  11    -0.109251416814E+04    0.55215E-05   -0.55213E-05 26592   0.122E-02    0.114E-02
DAV:  12    -0.109251416664E+04    0.15011E-05   -0.17233E-05 24480   0.729E-03    0.778E-03
DAV:  13    -0.109251416593E+04    0.70516E-06   -0.79255E-06 21696   0.490E-03
  27 F= -.10925142E+04 E0= -.10924149E+04  d E =-.134718E-02
 curvature: ****** expect dE=-0.171E-02 dE for cont linesearch -0.210E-05
 trial: gam= 0.22188 g(F)=  0.714E-05 g(S)=  0.000E+00 ort =-0.624E-06 (trialstep = 0.180E+03)
 search vector abs. value=  0.905E-05
 bond charge predicted
       N       E                     dE             d eps       ncg     rms          rms(c)
DAV:   1    -0.109251335579E+04    0.81084E-03   -0.27852E-01 20352   0.896E-01    0.131E-01
DAV:   2    -0.109252802083E+04   -0.14665E-01   -0.43065E-02 30768   0.421E-01    0.753E-01
DAV:   3    -0.109251548722E+04    0.12534E-01   -0.36468E-02 26544   0.358E-01    0.236E-01
DAV:   4    -0.109251466033E+04    0.82690E-03   -0.58428E-03 29184   0.141E-01    0.143E-01
DAV:   5    -0.109251488408E+04   -0.22376E-03   -0.34236E-03 28464   0.105E-01    0.158E-01
DAV:   6    -0.109251437150E+04    0.51258E-03   -0.19710E-03 27072   0.820E-02    0.803E-02
DAV:   7    -0.109251429655E+04    0.74954E-04   -0.61888E-04 27936   0.387E-02    0.496E-02
DAV:   8    -0.109251431134E+04   -0.14786E-04   -0.41660E-04 28752   0.364E-02    0.532E-02
DAV:   9    -0.109251428600E+04    0.25334E-04   -0.40424E-04 29808   0.312E-02    0.387E-02
DAV:  10    -0.109251426088E+04    0.25119E-04   -0.15416E-04 27600   0.219E-02    0.183E-02
DAV:  11    -0.109251425779E+04    0.30928E-05   -0.57970E-05 25920   0.121E-02    0.125E-02
DAV:  12    -0.109251425607E+04    0.17234E-05   -0.21479E-05 25536   0.758E-03    0.750E-03
DAV:  13    -0.109251425567E+04    0.40216E-06   -0.78425E-06 21504   0.501E-03
  28 F= -.10925143E+04 E0= -.10924150E+04  d E =-.897342E-04
 trial-energy change:   -0.000090  1 .order   -0.000803   -0.001258   -0.000348
 step: 248.3511(harm=248.3511)  dis= 0.00468  next Energy= -1092.515036 (dE=-0.870E-03)
 bond charge predicted
       N       E                     dE             d eps       ncg     rms          rms(c)
DAV:   1    -0.109251390670E+04    0.34937E-03   -0.40846E-02 20544   0.343E-01    0.504E-02
DAV:   2    -0.109251609094E+04   -0.21842E-02   -0.64222E-03 30672   0.161E-01    0.292E-01
DAV:   3    -0.109251422818E+04    0.18628E-02   -0.54739E-03 26544   0.140E-01    0.929E-02
DAV:   4    -0.109251409271E+04    0.13547E-03   -0.88378E-04 29424   0.548E-02    0.546E-02
DAV:   5    -0.109251412644E+04   -0.33725E-04   -0.50473E-04 28320   0.402E-02    0.606E-02
DAV:   6    -0.109251405125E+04    0.75189E-04   -0.29101E-04 27024   0.315E-02    0.306E-02
DAV:   7    -0.109251404059E+04    0.10659E-04   -0.90860E-05 26976   0.148E-02    0.192E-02
DAV:   8    -0.109251404189E+04   -0.12976E-05   -0.60198E-05 26976   0.138E-02    0.197E-02
DAV:   9    -0.109251403887E+04    0.30143E-05   -0.56803E-05 26064   0.120E-02    0.151E-02
DAV:  10    -0.109251403531E+04    0.35580E-05   -0.23942E-05 25152   0.872E-03    0.755E-03
DAV:  11    -0.109251403467E+04    0.63973E-06   -0.90627E-06 22320   0.503E-03
  29 F= -.10925140E+04 E0= -.10924148E+04  d E =0.131258E-03
 curvature: ****** expect dE=-0.476E-03 dE for cont linesearch -0.338E-06
 trial: gam= 0.41545 g(F)=  0.296E-05 g(S)=  0.000E+00 ort =-0.138E-06 (trialstep = 0.193E+03)
 search vector abs. value=  0.441E-05
 bond charge predicted
       N       E                     dE             d eps       ncg     rms          rms(c)
DAV:   1    -0.109251377523E+04    0.26008E-03   -0.13929E-01 20496   0.605E-01    0.955E-02
DAV:   2    -0.109251785153E+04   -0.40763E-02   -0.15173E-02 30432   0.250E-01    0.406E-01
DAV:   3    -0.109251504466E+04    0.28069E-02   -0.12964E-02 27744   0.209E-01    0.199E-01
DAV:   4    -0.109251423145E+04    0.81322E-03   -0.32699E-03 27936   0.104E-01    0.837E-02
DAV:   5    -0.109251454917E+04   -0.31772E-03   -0.15864E-03 28896   0.715E-02    0.127E-01
DAV:   6    -0.109251419435E+04    0.35482E-03   -0.13153E-03 27312   0.677E-02    0.625E-02
DAV:   7    -0.109251414421E+04    0.50141E-04   -0.36312E-04 27024   0.310E-02    0.376E-02
DAV:   8    -0.109251414579E+04   -0.15788E-05   -0.23088E-04 27360   0.288E-02    0.375E-02
DAV:   9    -0.109251413333E+04    0.12453E-04   -0.22469E-04 27168   0.232E-02    0.283E-02
DAV:  10    -0.109251412083E+04    0.12505E-04   -0.90312E-05 27312   0.158E-02    0.136E-02
DAV:  11    -0.109251411878E+04    0.20437E-05   -0.29911E-05 27504   0.912E-03    0.857E-03
DAV:  12    -0.109251411824E+04    0.54893E-06   -0.11295E-05 24288   0.575E-03    0.597E-03
DAV:  13    -0.109251411790E+04    0.33544E-06   -0.45067E-06 19104   0.399E-03
  30 F= -.10925141E+04 E0= -.10924149E+04  d E =-.832265E-04
 trial-energy change:   -0.000083  1 .order   -0.000306   -0.000562   -0.000050
 step: 212.1492(harm=212.1492)  dis= 0.00290  next Energy= -1092.514343 (dE=-0.308E-03)
 bond charge predicted
       N       E                     dE             d eps       ncg     rms          rms(c)
DAV:   1    -0.109251409228E+04    0.25951E-04   -0.13227E-03 21744   0.591E-02    0.100E-02
DAV:   2    -0.109251413500E+04   -0.42718E-04   -0.16502E-04 31104   0.255E-02    0.427E-02
DAV:   3    -0.109251410865E+04    0.26354E-04   -0.15031E-04 27744   0.223E-02    0.237E-02
DAV:   4    -0.109251409611E+04    0.12537E-04   -0.42677E-05 24480   0.120E-02    0.829E-03
DAV:   5    -0.109251409922E+04   -0.31031E-05   -0.15968E-05 21168   0.718E-03    0.124E-02
DAV:   6    -0.109251409590E+04    0.33101E-05   -0.13334E-05 20016   0.693E-03    0.618E-03
DAV:   7    -0.109251409541E+04    0.49761E-06   -0.33069E-06 17232   0.348E-03    0.388E-03
DAV:   8    -0.109251409528E+04    0.13224E-06   -0.14571E-06 14160   0.303E-03    0.323E-03
DAV:   9    -0.109251409522E+04    0.53442E-07   -0.10843E-06 13680   0.258E-03    0.259E-03
DAV:  10    -0.109251409519E+04    0.34837E-07   -0.62203E-07 12528   0.202E-03
  31 F= -.10925141E+04 E0= -.10924148E+04  d E =-.605133E-04
 curvature: ****** expect dE=-0.195E-03 dE for cont linesearch -0.167E-05
 trial: gam= 0.34320 g(F)=  0.121E-05 g(S)=  0.000E+00 ort =-0.214E-06 (trialstep = 0.197E+03)
 search vector abs. value=  0.159E-05
 bond charge predicted
       N       E                     dE             d eps       ncg     rms          rms(c)
DAV:   1    -0.109251406022E+04    0.35004E-04   -0.52306E-02 21024   0.366E-01    0.526E-02
DAV:   2    -0.109251530236E+04   -0.12421E-02   -0.44225E-03 30624   0.140E-01    0.207E-01
DAV:   3    -0.109251430311E+04    0.99925E-03   -0.34701E-03 27312   0.111E-01    0.765E-02
DAV:   4    -0.109251426258E+04    0.40533E-04   -0.76908E-04 28656   0.473E-02    0.591E-02
DAV:   5    -0.109251431170E+04   -0.49125E-04   -0.57171E-04 28896   0.439E-02    0.704E-02
DAV:   6    -0.109251420173E+04    0.10997E-03   -0.30807E-04 26976   0.333E-02    0.262E-02
DAV:   7    -0.109251420216E+04   -0.43420E-06   -0.10843E-04 27744   0.186E-02    0.264E-02
DAV:   8    -0.109251419742E+04    0.47372E-05   -0.88126E-05 26928   0.164E-02    0.211E-02
DAV:   9    -0.109251419274E+04    0.46862E-05   -0.62596E-05 25728   0.127E-02    0.145E-02
DAV:  10    -0.109251418943E+04    0.33054E-05   -0.21803E-05 24864   0.821E-03    0.721E-03
DAV:  11    -0.109251418885E+04    0.58037E-06   -0.71735E-06 21648   0.471E-03
  32 F= -.10925142E+04 E0= -.10924149E+04  d E =-.936643E-04
 trial-energy change:   -0.000094  1 .order   -0.000120   -0.000225   -0.000015
 step: 211.5471(harm=211.5471)  dis= 0.00229  next Energy= -1092.514216 (dE=-0.121E-03)
 bond charge predicted
       N       E                     dE             d eps       ncg     rms          rms(c)
DAV:   1    -0.109251418694E+04    0.24867E-05   -0.28608E-04 22608   0.272E-02    0.528E-03
DAV:   2    -0.109251419535E+04   -0.84086E-05   -0.34578E-05 30240   0.119E-02    0.188E-02
DAV:   3    -0.109251419110E+04    0.42497E-05   -0.34163E-05 21216   0.107E-02    0.125E-02
DAV:   4    -0.109251418758E+04    0.35206E-05   -0.11254E-05 20208   0.636E-03    0.360E-03
DAV:   5    -0.109251418812E+04   -0.53929E-06   -0.28232E-06 14448   0.364E-03    0.532E-03
DAV:   6    -0.109251418768E+04    0.44295E-06   -0.30636E-06 12480   0.367E-03    0.385E-03
DAV:   7    -0.109251418743E+04    0.24978E-06   -0.97037E-07 12480   0.226E-03    0.192E-03
DAV:   8    -0.109251418742E+04    0.10783E-07   -0.32471E-07 12480   0.136E-03    0.159E-03
DAV:   9    -0.109251418741E+04    0.57335E-08   -0.27882E-07 12480   0.130E-03    0.128E-03
DAV:  10    -0.109251418740E+04    0.90004E-08   -0.15500E-07 12480   0.948E-04
  33 F= -.10925142E+04 E0= -.10924149E+04  d E =-.922174E-04
 curvature: ****** expect dE=-0.109E-03 dE for cont linesearch -0.116E-10
 trial: gam= 0.54613 g(F)=  0.739E-06 g(S)=  0.000E+00 ort =-0.354E-09 (trialstep = 0.200E+03)
 search vector abs. value=  0.121E-05
 bond charge predicted
       N       E                     dE             d eps       ncg     rms          rms(c)
DAV:   1    -0.109251430830E+04   -0.12089E-03   -0.36702E-02 21504   0.295E-01    0.467E-02
DAV:   2    -0.109251648248E+04   -0.21742E-02   -0.55906E-03 30672   0.147E-01    0.277E-01
DAV:   3    -0.109251445569E+04    0.20268E-02   -0.50210E-03 26592   0.134E-01    0.694E-02
DAV:   4    -0.109251445291E+04    0.27786E-05   -0.70299E-04 28752   0.442E-02    0.636E-02
DAV:   5    -0.109251442925E+04    0.23657E-04   -0.47808E-04 28032   0.398E-02    0.511E-02
DAV:   6    -0.109251438422E+04    0.45032E-04   -0.19696E-04 26832   0.267E-02    0.290E-02
DAV:   7    -0.109251437572E+04    0.85044E-05   -0.97176E-05 27168   0.164E-02    0.212E-02
DAV:   8    -0.109251437484E+04    0.88118E-06   -0.68098E-05 25488   0.142E-02    0.194E-02
DAV:   9    -0.109251437068E+04    0.41543E-05   -0.50983E-05 26496   0.116E-02    0.130E-02
DAV:  10    -0.109251436817E+04    0.25091E-05   -0.20713E-05 24528   0.787E-03    0.801E-03
DAV:  11    -0.109251436723E+04    0.93825E-06   -0.70016E-06 21792   0.454E-03
  34 F= -.10925144E+04 E0= -.10924151E+04  d E =-.179830E-03
 trial-energy change:   -0.000180  1 .order   -0.000068   -0.000148    0.000012
 step: 197.0676(harm=184.8502)  dis= 0.00204  next Energy= -1092.514367 (dE=-0.180E-03)
 bond charge predicted
       N       E                     dE             d eps       ncg     rms          rms(c)
DAV:   1    -0.109251436560E+04    0.25696E-05   -0.96285E-06 21216   0.512E-03    0.262E-03
DAV:   2    -0.109251436761E+04   -0.20111E-05   -0.77219E-06 20832   0.527E-03    0.977E-03
DAV:   3    -0.109251436708E+04    0.52917E-06   -0.90475E-06 15504   0.577E-03    0.752E-03
DAV:   4    -0.109251436547E+04    0.16117E-05   -0.35999E-06 14880   0.393E-03    0.188E-03
DAV:   5    -0.109251436567E+04   -0.19916E-06   -0.12007E-06 12480   0.199E-03    0.280E-03
DAV:   6    -0.109251436553E+04    0.14165E-06   -0.88184E-07 12480   0.203E-03    0.136E-03
DAV:   7    -0.109251436552E+04    0.73705E-08   -0.25788E-07 12480   0.102E-03    0.101E-03
DAV:   8    -0.109251436552E+04    0.53406E-08   -0.14451E-07 12480   0.836E-04    0.723E-04
DAV:   9    -0.109251436552E+04   -0.25393E-08   -0.58185E-08 12384   0.536E-04    0.472E-04
DAV:  10    -0.109251436552E+04   -0.88039E-09   -0.30943E-08 12336   0.395E-04
  35 F= -.10925144E+04 E0= -.10924151E+04  d E =-.178117E-03
 curvature: -53.24 expect dE=-0.297E-04 dE for cont linesearch -0.105E-06
 trial: gam= 0.77408 g(F)=  0.559E-06 g(S)=  0.000E+00 ort =-0.489E-07 (trialstep = 0.199E+03)
 search vector abs. value=  0.121E-05
 bond charge predicted
       N       E                     dE             d eps       ncg     rms          rms(c)
DAV:   1    -0.109251430005E+04    0.65472E-04   -0.34790E-02 21360   0.290E-01    0.487E-02
DAV:   2    -0.109251636334E+04   -0.20633E-02   -0.54035E-03 30768   0.146E-01    0.270E-01
DAV:   3    -0.109251449277E+04    0.18706E-02   -0.49951E-03 26592   0.134E-01    0.844E-02
DAV:   4    -0.109251442025E+04    0.72523E-04   -0.78407E-04 28800   0.473E-02    0.563E-02
DAV:   5    -0.109251442808E+04   -0.78336E-05   -0.47239E-04 28560   0.394E-02    0.562E-02
DAV:   6    -0.109251436914E+04    0.58946E-04   -0.23000E-04 27024   0.286E-02    0.282E-02
DAV:   7    -0.109251436144E+04    0.77024E-05   -0.94510E-05 27456   0.164E-02    0.208E-02
DAV:   8    -0.109251435989E+04    0.15495E-05   -0.65393E-05 25776   0.146E-02    0.188E-02
DAV:   9    -0.109251435684E+04    0.30431E-05   -0.53205E-05 26688   0.118E-02    0.141E-02
DAV:  10    -0.109251435394E+04    0.29049E-05   -0.21363E-05 24672   0.825E-03    0.824E-03
DAV:  11    -0.109251435289E+04    0.10495E-05   -0.79765E-06 22464   0.479E-03    0.409E-03
DAV:  12    -0.109251435266E+04    0.23272E-06   -0.21119E-06 15408   0.290E-03
  36 F= -.10925144E+04 E0= -.10924151E+04  d E =0.128655E-04
 trial-energy change:    0.000013  1 .order   -0.000011   -0.000104    0.000082
 step:  75.4435(harm=111.3924)  dis= 0.00092  next Energy= -1092.514384 (dE=-0.184E-04)
 bond charge predicted
       N       E                     dE             d eps       ncg     rms          rms(c)
DAV:   1    -0.109251435786E+04   -0.49714E-05   -0.13423E-02 21312   0.180E-01    0.303E-02
DAV:   2    -0.109251515237E+04   -0.79451E-03   -0.20861E-03 30672   0.910E-02    0.168E-01
DAV:   3    -0.109251443386E+04    0.71850E-03   -0.19147E-03 26592   0.833E-02    0.527E-02
DAV:   4    -0.109251440462E+04    0.29243E-04   -0.30235E-04 28704   0.294E-02    0.348E-02
DAV:   5    -0.109251440719E+04   -0.25673E-05   -0.17994E-04 27552   0.243E-02    0.345E-02
DAV:   6    -0.109251438523E+04    0.21956E-04   -0.87276E-05 25104   0.177E-02    0.176E-02
DAV:   7    -0.109251438210E+04    0.31282E-05   -0.36495E-05 25584   0.103E-02    0.128E-02
DAV:   8    -0.109251438146E+04    0.63994E-06   -0.25358E-05 25104   0.899E-03    0.114E-02
DAV:   9    -0.109251438057E+04    0.89480E-06   -0.20269E-05 25392   0.730E-03    0.889E-03
DAV:  10    -0.109251437932E+04    0.12524E-05   -0.80584E-06 21120   0.521E-03    0.497E-03
DAV:  11    -0.109251437888E+04    0.43988E-06   -0.24422E-06 15696   0.317E-03
  37 F= -.10925144E+04 E0= -.10924151E+04  d E =-.133545E-04
 curvature: ****** expect dE=-0.285E-04 dE for cont linesearch -0.222E-05
 trial: gam=-0.06743 g(F)=  0.264E-06 g(S)=  0.000E+00 ort = 0.158E-06 (trialstep = 0.175E+03)
 search vector abs. value=  0.249E-06
 reached required accuracy - stopping structural energy minimisation
