Ta32 Ti34 Nb32 W10                      
   1.00000000000000     
     9.1216997255111210    0.0000000000000000    0.0000000000000000
     0.0000000000000000    8.3788097184575001    0.0000000000000000
     0.0000000000000000   -2.7929387392984522   23.6988662189480195
   Ta   Ti   Nb   W 
    32    34    32    10
Selective dynamics
Direct
  0.4994571676000206  0.2963339554170759  0.2221844125832532   F   F   T
  0.0007011838891344  0.2961535522629575  0.2222969547399316   F   F   T
  0.2495600548973158  0.2403881107193016  0.0552218671863116   F   F   T
  0.4999658814041439  0.8144655901783509  0.1106250486140396   F   F   T
  0.0000479543384628  0.4816042774611375  0.1107595639448107   F   F   T
  0.0014814358292270  0.5929241247642665  0.4441870424789301   F   F   T
  0.2504715557544870  0.9810517181707397  0.6108685672411055   F   F   T
  0.0006088878015333  0.6666139272475817  0.0000564157924074   F   F   T
  0.7506980600066626  0.6850446592846069  0.7223370811846692   F   F   T
  0.4998717066019083  0.7778585209756628  0.3332488289665605   F   F   T
  0.2497759176542687  0.0181509914120070  0.7219820401393804   F   F   T
  0.9998461222754713  0.4821324703708783  0.7776772436159901   F   F   T
  0.0005745086022202  0.5559424224562690  0.6665706801487516   F   F   T
  0.2495106240223279  0.6113610405052015  0.8333599043358859   F   F   T
  0.7497640967820587  0.3147984396434751  0.6113127594073545   F   F   T
  0.0012324422402941  0.8886298797003178  0.6667589202653446   F   F   T
  0.2498146343417176  0.8705049393370672  0.2778721876399715   F   F   T
  0.4992161048643524  0.8891820161995483  0.6663259174694928   F   F   T
  0.5003964755988406  0.8151206114186706  0.7779960255058995   F   F   T
  0.4996118710759134  0.9988798960911396  0.0002092495871295   F   F   T
  0.5001801896752340  0.1480895516450360  0.7777102048961950   F   F   T
  0.4999855333282923  0.4442394939645240  0.3335002845253286   F   F   T
  0.0003203214657930  0.9630505371468061  0.2222758329792427   F   F   T
  0.2491167970940609  0.6854977995427731  0.3892463970274349   F   F   T
  0.4995821383535883  0.6670130384474078  0.0000962085192455   F   F   T
  0.7502763096117064  0.6489276306976635  0.6108467221356192   F   F   T
  0.7504420632422253  0.9811963137546300  0.6109905865278406   F   F   T
  0.0002089534286114  0.1479573905423592  0.1106420942708439   F   F   T
  0.2497824446881296  0.9441306717764348  0.8332720978506815   F   F   T
  0.5009183035403240  0.5190258679808863  0.8896547066661000   F   F   T
  0.9997743751242751  0.8531478866702429  0.8894052059858879   F   F   T
  0.2499611531302293  0.5366450232920243  0.2777786518139819   F   F   T
  0.4993217237138055  0.7410759879118132  0.5558412334762933   F   F   T
  0.0006181661184712  0.0741892620469002  0.5556698044370237   F   F   T
  0.5000270802090654  0.5550720174849246  0.6666470210034278   F   F   T
  0.7503350559090833  0.2404469966637137  0.0554064020510268   F   F   T
  0.5001069796275743  0.2594222763908078  0.4442993439930021   F   F   T
  0.7500853215986609  0.8703364250193744  0.2778550345578665   F   F   T
  0.7501204241673207  0.2036876804315142  0.2779134634888791   F   F   T
  0.7498964864102220  0.0553775249754196  0.1665200910555598   F   F   T
  0.9999488100767664  0.5187278190894347  0.8887023250580413   F   F   T
  0.7485847158406287  0.0195361303542683  0.3890418402806048   F   F   T
  0.5000746504558933  0.8513939909854855  0.8896041809652644   F   F   T
  0.4998462243517281  0.3339840239898209  0.9999880550207152   F   F   T
  0.5002779828903812  0.1853173501062244  0.8889666155683643   F   F   T
  0.0004289236194879  0.7781305323519305  0.3334865845304975   F   F   T
  0.7492359320902082  0.3516772376831199  0.3892039890393449   F   F   T
  0.4990507496593892  0.9270869356532998  0.4445007074576211   F   F   T
  0.7504724678271089  0.0926285032375205  0.9444180717995393   F   F   T
  0.7502944376332223  0.0190834446763404  0.7222225599458343   F   F   T
  0.2495517935165452  0.6849846585551873  0.7218703431923998   F   F   T
  0.2492706110137775  0.0190322536417113  0.3894639861429141   F   F   T
  0.0004841176504584  0.4074943532228232  0.5558272347654521   F   F   T
  0.4998581739266967  0.1477667172330257  0.1107399222769629   F   F   T
  0.7495056616346218  0.6850888115326370  0.3890133779922066   F   F   T
  0.7498974037428923  0.7591984685848843  0.9442398911268413   F   F   T
  0.7502289433568023  0.8335392775001083  0.4998680576375491   F   F   T
  0.2498951653222576  0.2776886221501158  0.8333550674743505   F   F   T
  0.0007319690377372  0.1108678190761054  0.3333241389969999   F   F   T
  0.5005552856449071  0.6294007104358172  0.2219207200823021   F   F   T
  0.7498102399859761  0.4997526498020974  0.4999738191343895   F   F   T
  0.5003063270432619  0.4813342021394433  0.7778945817211708   F   F   T
  0.0003011545578602  0.4443109776683158  0.3333297782578200   F   F   T
  0.2500659537346763  0.3889246304119780  0.1666646156521310   F   F   T
  0.0004593157160002  0.7407276527814304  0.5556994616071549   F   F   T
  0.7499589664007402  0.5372290332766667  0.2778279007604568   F   F   T
  0.0034042081272148  0.9261668275055257  0.4443379516513985   F   F   T
  0.9992044502014608  0.1829543116271282  0.8889021362158047   F   F   T
  0.4998168687279900  0.4819857159258447  0.1108445805938914   F   F   T
  0.2529331584649555  0.1647168025687904  0.4991768249129436   F   F   T
  0.4975832870308210  0.4060733292063432  0.5556765570889014   F   F   T
  0.2514682671844923  0.3521084343831120  0.7228563909179327   F   F   T
  0.7498894854668166  0.1664824173500747  0.4999650255851762   F   F   T
  0.9999800691477887  0.0000509534776043  0.9998253215482434   F   F   T
  0.7503600807643522  0.6115088869677763  0.8337254542792180   F   F   T
  0.7513694862986284  0.3506210232401443  0.7229465459648523   F   F   T
  0.2501330520519929  0.8345364137811941  0.4998775633385436   F   F   T
  0.2504580636488072  0.7585554181408796  0.9442539053911148   F   F   T
  0.2492790023416731  0.4984525881095649  0.4994514799096095   F   F   T
  0.0009289644364827  0.3332877714754758 -0.0000259359246471   F   F   T
  0.9999297653457830  0.8146359456249570  0.1113915522971851   F   F   T
  0.7487214725870288  0.9085137896187732  0.0557467007561030   F   F   T
  0.5005938200933713  0.1112181006453739  0.3337247156851077   F   F   T
  0.5008810097877685  0.5941933848555010  0.4439628845172762   F   F   T
  0.7495892499497998  0.2773138149833443  0.8331660554124626   F   F   T
  0.7500503501359645  0.9417347832369174  0.8334601901535450   F   F   T
  0.0003188102599410  0.6295835746257978  0.2220188481800917   F   F   T
  0.9986838604704076  0.2214063211430073  0.6670689401932393   F   F   T
  0.7498685242076348  0.5742869276092861  0.0555269802144309   F   F   T
  0.4996707942471517  0.9626561509222711  0.2222487277888234   F   F   T
  0.7498829497651229  0.3891606930294884  0.1665311362689721   F   F   T
  0.4957225303476420  0.0751066790780470  0.5552737998694184   F   F   T
  0.2511062279074494  0.9074611947719475  0.0552915934497307   F   F   T
  0.0012608868751300  0.2589141319932367  0.4442796182522102   F   F   T
  0.2500160050277884  0.0555491159780814  0.1666748385297154   F   F   T
  0.2483608885329858  0.6510571379936323  0.6106357076716405   F   F   T
  0.2507630857270939  0.3141984130510664  0.6104611992979516   F   F   T
  0.7475495221513739  0.4263324350243778  0.9445207599043215   F   F   T
  0.2500587314067104  0.5740539773686919  0.0553548956246033   F   F   T
  0.2494184020951380  0.0925856277890489  0.9448121444358648   F   F   T
  0.2502745500970818  0.7222056179457894  0.1666768861842343   F   F   T
  0.2494411266852055  0.2046124881747460  0.2777928376900647   F   F   T
  0.9999629411264692  0.8139895819083449  0.7778233066028618   F   F   T
  0.2493584891262870  0.3512416656210320  0.3895648227731527   F   F   T
  0.9995397471666081  0.1483869711147037  0.7776907264989390   F   F   T
  0.2498069767961155  0.4263283928624020  0.9448492218075089   F   F   T
  0.7499436562060993  0.7220114388365459  0.1665267452015015   F   F   T
  0.4996546992342843  0.2231895890905093  0.6665379891809168   F   F   T
 
  0.00000000E+00  0.00000000E+00  0.00000000E+00
  0.00000000E+00  0.00000000E+00  0.00000000E+00
  0.00000000E+00  0.00000000E+00  0.00000000E+00
  0.00000000E+00  0.00000000E+00  0.00000000E+00
  0.00000000E+00  0.00000000E+00  0.00000000E+00
  0.00000000E+00  0.00000000E+00  0.00000000E+00
  0.00000000E+00  0.00000000E+00  0.00000000E+00
  0.00000000E+00  0.00000000E+00  0.00000000E+00
  0.00000000E+00  0.00000000E+00  0.00000000E+00
  0.00000000E+00  0.00000000E+00  0.00000000E+00
  0.00000000E+00  0.00000000E+00  0.00000000E+00
  0.00000000E+00  0.00000000E+00  0.00000000E+00
  0.00000000E+00  0.00000000E+00  0.00000000E+00
  0.00000000E+00  0.00000000E+00  0.00000000E+00
  0.00000000E+00  0.00000000E+00  0.00000000E+00
  0.00000000E+00  0.00000000E+00  0.00000000E+00
  0.00000000E+00  0.00000000E+00  0.00000000E+00
  0.00000000E+00  0.00000000E+00  0.00000000E+00
  0.00000000E+00  0.00000000E+00  0.00000000E+00
  0.00000000E+00  0.00000000E+00  0.00000000E+00
  0.00000000E+00  0.00000000E+00  0.00000000E+00
  0.00000000E+00  0.00000000E+00  0.00000000E+00
  0.00000000E+00  0.00000000E+00  0.00000000E+00
  0.00000000E+00  0.00000000E+00  0.00000000E+00
  0.00000000E+00  0.00000000E+00  0.00000000E+00
  0.00000000E+00  0.00000000E+00  0.00000000E+00
  0.00000000E+00  0.00000000E+00  0.00000000E+00
  0.00000000E+00  0.00000000E+00  0.00000000E+00
  0.00000000E+00  0.00000000E+00  0.00000000E+00
  0.00000000E+00  0.00000000E+00  0.00000000E+00
  0.00000000E+00  0.00000000E+00  0.00000000E+00
  0.00000000E+00  0.00000000E+00  0.00000000E+00
  0.00000000E+00  0.00000000E+00  0.00000000E+00
  0.00000000E+00  0.00000000E+00  0.00000000E+00
  0.00000000E+00  0.00000000E+00  0.00000000E+00
  0.00000000E+00  0.00000000E+00  0.00000000E+00
  0.00000000E+00  0.00000000E+00  0.00000000E+00
  0.00000000E+00  0.00000000E+00  0.00000000E+00
  0.00000000E+00  0.00000000E+00  0.00000000E+00
  0.00000000E+00  0.00000000E+00  0.00000000E+00
  0.00000000E+00  0.00000000E+00  0.00000000E+00
  0.00000000E+00  0.00000000E+00  0.00000000E+00
  0.00000000E+00  0.00000000E+00  0.00000000E+00
  0.00000000E+00  0.00000000E+00  0.00000000E+00
  0.00000000E+00  0.00000000E+00  0.00000000E+00
  0.00000000E+00  0.00000000E+00  0.00000000E+00
  0.00000000E+00  0.00000000E+00  0.00000000E+00
  0.00000000E+00  0.00000000E+00  0.00000000E+00
  0.00000000E+00  0.00000000E+00  0.00000000E+00
  0.00000000E+00  0.00000000E+00  0.00000000E+00
  0.00000000E+00  0.00000000E+00  0.00000000E+00
  0.00000000E+00  0.00000000E+00  0.00000000E+00
  0.00000000E+00  0.00000000E+00  0.00000000E+00
  0.00000000E+00  0.00000000E+00  0.00000000E+00
  0.00000000E+00  0.00000000E+00  0.00000000E+00
  0.00000000E+00  0.00000000E+00  0.00000000E+00
  0.00000000E+00  0.00000000E+00  0.00000000E+00
  0.00000000E+00  0.00000000E+00  0.00000000E+00
  0.00000000E+00  0.00000000E+00  0.00000000E+00
  0.00000000E+00  0.00000000E+00  0.00000000E+00
  0.00000000E+00  0.00000000E+00  0.00000000E+00
  0.00000000E+00  0.00000000E+00  0.00000000E+00
  0.00000000E+00  0.00000000E+00  0.00000000E+00
  0.00000000E+00  0.00000000E+00  0.00000000E+00
  0.00000000E+00  0.00000000E+00  0.00000000E+00
  0.00000000E+00  0.00000000E+00  0.00000000E+00
  0.00000000E+00  0.00000000E+00  0.00000000E+00
  0.00000000E+00  0.00000000E+00  0.00000000E+00
  0.00000000E+00  0.00000000E+00  0.00000000E+00
  0.00000000E+00  0.00000000E+00  0.00000000E+00
  0.00000000E+00  0.00000000E+00  0.00000000E+00
  0.00000000E+00  0.00000000E+00  0.00000000E+00
  0.00000000E+00  0.00000000E+00  0.00000000E+00
  0.00000000E+00  0.00000000E+00  0.00000000E+00
  0.00000000E+00  0.00000000E+00  0.00000000E+00
  0.00000000E+00  0.00000000E+00  0.00000000E+00
  0.00000000E+00  0.00000000E+00  0.00000000E+00
  0.00000000E+00  0.00000000E+00  0.00000000E+00
  0.00000000E+00  0.00000000E+00  0.00000000E+00
  0.00000000E+00  0.00000000E+00  0.00000000E+00
  0.00000000E+00  0.00000000E+00  0.00000000E+00
  0.00000000E+00  0.00000000E+00  0.00000000E+00
  0.00000000E+00  0.00000000E+00  0.00000000E+00
  0.00000000E+00  0.00000000E+00  0.00000000E+00
  0.00000000E+00  0.00000000E+00  0.00000000E+00
  0.00000000E+00  0.00000000E+00  0.00000000E+00
  0.00000000E+00  0.00000000E+00  0.00000000E+00
  0.00000000E+00  0.00000000E+00  0.00000000E+00
  0.00000000E+00  0.00000000E+00  0.00000000E+00
  0.00000000E+00  0.00000000E+00  0.00000000E+00
  0.00000000E+00  0.00000000E+00  0.00000000E+00
  0.00000000E+00  0.00000000E+00  0.00000000E+00
  0.00000000E+00  0.00000000E+00  0.00000000E+00
  0.00000000E+00  0.00000000E+00  0.00000000E+00
  0.00000000E+00  0.00000000E+00  0.00000000E+00
  0.00000000E+00  0.00000000E+00  0.00000000E+00
  0.00000000E+00  0.00000000E+00  0.00000000E+00
  0.00000000E+00  0.00000000E+00  0.00000000E+00
  0.00000000E+00  0.00000000E+00  0.00000000E+00
  0.00000000E+00  0.00000000E+00  0.00000000E+00
  0.00000000E+00  0.00000000E+00  0.00000000E+00
  0.00000000E+00  0.00000000E+00  0.00000000E+00
  0.00000000E+00  0.00000000E+00  0.00000000E+00
  0.00000000E+00  0.00000000E+00  0.00000000E+00
  0.00000000E+00  0.00000000E+00  0.00000000E+00
  0.00000000E+00  0.00000000E+00  0.00000000E+00
  0.00000000E+00  0.00000000E+00  0.00000000E+00
  0.00000000E+00  0.00000000E+00  0.00000000E+00
