       N       E                     dE             d eps       ncg     rms          rms(c)
DAV:   1    -0.396212557492E+05   -0.39621E+05   -0.91662E+05 33696   0.209E+03
DAV:   2    -0.585666486747E+05   -0.18945E+05   -0.18057E+05 36528   0.111E+03
DAV:   3    -0.614530634368E+05   -0.28864E+04   -0.27331E+04 38400   0.462E+02
DAV:   4    -0.624007528961E+05   -0.94769E+03   -0.87810E+03 38400   0.236E+02
DAV:   5    -0.629260867243E+05   -0.52533E+03   -0.49844E+03 38400   0.164E+02    0.131E+04
DAV:   6    -0.223363089623E+05    0.40590E+05   -0.22679E+05 34560   0.806E+02    0.124E+04
DAV:   7    -0.135527780805E+05    0.87835E+04   -0.23027E+05 37776   0.958E+02    0.560E+03
DAV:   8    -0.175807522437E+05   -0.40280E+04   -0.32411E+05 38400   0.108E+03    0.488E+03
DAV:   9    -0.420461260769E+04    0.13376E+05   -0.16784E+05 36624   0.707E+02    0.425E+03
DAV:  10    -0.501034120382E+04   -0.80573E+03   -0.62321E+04 34560   0.389E+02    0.402E+03
DAV:  11    -0.339226212736E+04    0.16181E+04   -0.15224E+04 35472   0.227E+02    0.419E+03
DAV:  12    -0.522445976748E+04   -0.18322E+04   -0.69651E+03 32304   0.124E+02    0.430E+03
DAV:  13    -0.569423223362E+04   -0.46977E+03   -0.22336E+03 33984   0.657E+01    0.430E+03
DAV:  14    -0.508939545612E+04    0.60484E+03   -0.50999E+02 34704   0.439E+01    0.429E+03
DAV:  15    -0.611344862069E+04   -0.10241E+04   -0.15223E+03 34080   0.931E+01    0.425E+03
DAV:  16    -0.681542971238E+04   -0.70198E+03   -0.83161E+02 35328   0.576E+01    0.421E+03
DAV:  17    -0.709714872416E+04   -0.28172E+03   -0.18864E+02 38400   0.243E+01    0.422E+03
DAV:  18    -0.708285067741E+04    0.14298E+02   -0.44311E+01 36480   0.806E+00    0.444E+03
DAV:  19    -0.703846037044E+04    0.44390E+02   -0.19721E+01 35760   0.338E+00    0.465E+03
DAV:  20    -0.698684872931E+04    0.51612E+02   -0.91242E+00 30528   0.247E+00    0.456E+03
DAV:  21    -0.683554137142E+04    0.15131E+03   -0.17127E+01 30672   0.740E+00    0.456E+03
DAV:  22    -0.691508411658E+04   -0.79543E+02   -0.43520E+00 31824   0.365E+00    0.456E+03
DAV:  23    -0.524006212864E+04    0.16750E+04   -0.43323E+02 31008   0.465E+01    0.411E+03
DAV:  24    -0.554624648923E+04   -0.30618E+03   -0.11309E+02 33264   0.163E+01    0.426E+03
DAV:  25    -0.392706169649E+04    0.16192E+04   -0.36582E+03 32640   0.715E+01    0.393E+03
DAV:  26    -0.381273626540E+04    0.11433E+03   -0.82552E+03 34032   0.105E+02    0.339E+03
DAV:  27    -0.428176507969E+04   -0.46903E+03   -0.30486E+03 31152   0.995E+01    0.309E+03
DAV:  28    -0.519998316236E+04   -0.91822E+03   -0.20508E+03 28704   0.777E+01    0.290E+03
DAV:  29    -0.667628298424E+04   -0.14763E+04   -0.22458E+03 28992   0.900E+01    0.268E+03
DAV:  30    -0.746051418044E+04   -0.78423E+03   -0.14674E+03 31584   0.803E+01
   1 F= -.74605142E+04 E0= -.74604734E+04  d E =-.746051E+04
       N       E                     dE             d eps       ncg     rms          rms(c)
DAV:   1    -0.738245315899E+04   -0.70617E+03   -0.30677E+02 27408   0.343E+01    0.279E+03
DAV:   2    -0.174393462952E+05   -0.10057E+05   -0.27253E+05 37392   0.623E+02    0.182E+03
DAV:   3    -0.240518347220E+05   -0.66125E+04   -0.58166E+05 36432   0.112E+03    0.364E+03
DAV:   4    -0.120067544223E+05    0.12045E+05   -0.48226E+04 33264   0.532E+02    0.113E+03
DAV:   5    -0.127173612011E+05   -0.71061E+03   -0.34826E+05 38400   0.701E+02    0.275E+03
DAV:   6    -0.185508013748E+05   -0.58334E+04   -0.60940E+04 33696   0.494E+02    0.126E+03
DAV:   7    -0.787549721135E+04    0.10675E+05   -0.18212E+05 38208   0.479E+02    0.947E+02
DAV:   8    -0.778463867342E+04    0.90859E+02   -0.10285E+05 37440   0.577E+02    0.775E+02
DAV:   9    -0.487436450096E+04    0.29103E+04   -0.62929E+04 37680   0.439E+02    0.550E+02
DAV:  10    -0.329817066575E+04    0.15762E+04   -0.69983E+04 36768   0.309E+02    0.652E+02
DAV:  11    -0.160295448875E+04    0.16952E+04   -0.24168E+04 33504   0.223E+02    0.661E+02
DAV:  12    -0.179181677699E+04   -0.18886E+03   -0.14745E+04 32208   0.243E+02    0.664E+02
DAV:  13    -0.151061440635E+04    0.28120E+03   -0.34207E+03 34320   0.835E+01    0.627E+02
DAV:  14    -0.152519852036E+04   -0.14584E+02   -0.15008E+03 30816   0.716E+01    0.596E+02
DAV:  15    -0.132720052873E+04    0.19800E+03   -0.16550E+03 30240   0.719E+01    0.551E+02
DAV:  16    -0.125603003492E+04    0.71170E+02   -0.74224E+02 28512   0.540E+01    0.497E+02
DAV:  17    -0.121271726991E+04    0.43313E+02   -0.40781E+02 28800   0.358E+01    0.464E+02
DAV:  18    -0.116781439630E+04    0.44903E+02   -0.29693E+02 28320   0.282E+01    0.435E+02
DAV:  19    -0.115298294598E+04    0.14831E+02   -0.19331E+02 27408   0.236E+01    0.399E+02
DAV:  20    -0.113249071242E+04    0.20492E+02   -0.10914E+02 28128   0.169E+01    0.380E+02
DAV:  21    -0.112396001957E+04    0.85307E+01   -0.47833E+01 26880   0.103E+01    0.361E+02
DAV:  22    -0.111519246835E+04    0.87676E+01   -0.28622E+01 27744   0.770E+00    0.343E+02
DAV:  23    -0.111048532081E+04    0.47071E+01   -0.18433E+01 28800   0.615E+00    0.320E+02
DAV:  24    -0.110844090058E+04    0.20444E+01   -0.68602E+00 27168   0.376E+00    0.300E+02
DAV:  25    -0.110611394569E+04    0.23270E+01   -0.72640E+00 26880   0.406E+00    0.274E+02
DAV:  26    -0.110376478863E+04    0.23492E+01   -0.61494E+00 27504   0.396E+00    0.248E+02
DAV:  27    -0.110117289350E+04    0.25919E+01   -0.62091E+00 28800   0.364E+00    0.226E+02
DAV:  28    -0.110052278171E+04    0.65011E+00   -0.18889E+00 29328   0.203E+00    0.210E+02
DAV:  29    -0.109886360030E+04    0.16592E+01   -0.19485E+00 26976   0.210E+00    0.187E+02
DAV:  30    -0.109723351335E+04    0.16301E+01   -0.21010E+00 27648   0.218E+00
   2 F= -.10972335E+04 E0= -.10971360E+04  d E =0.636328E+04
       N       E                     dE             d eps       ncg     rms          rms(c)
DAV:   1    -0.109653635586E+04    0.23272E+01   -0.12286E+00 26880   0.177E+00    0.151E+02
DAV:   2    -0.130451216915E+04   -0.20798E+03   -0.23675E+02 30384   0.401E+01    0.124E+02
DAV:   3    -0.179561270132E+04   -0.49110E+03   -0.56680E+03 36288   0.842E+01    0.158E+02
DAV:   4    -0.135414070363E+04    0.44147E+03   -0.63202E+03 33744   0.122E+02    0.887E+01
DAV:   5    -0.191538772601E+04   -0.56125E+03   -0.48159E+03 31776   0.781E+01    0.118E+02
DAV:   6    -0.107879096474E+04    0.83660E+03   -0.31866E+03 31824   0.749E+01    0.542E+01
DAV:   7    -0.115833479404E+04   -0.79544E+02   -0.13934E+03 32208   0.393E+01    0.453E+01
DAV:   8    -0.113293274145E+04    0.25402E+02   -0.21750E+02 30048   0.200E+01    0.377E+01
DAV:   9    -0.112036143837E+04    0.12571E+02   -0.47905E+01 29232   0.915E+00    0.323E+01
DAV:  10    -0.111312452445E+04    0.72369E+01   -0.12675E+01 30528   0.551E+00    0.287E+01
DAV:  11    -0.110626193252E+04    0.68626E+01   -0.61792E+00 28224   0.389E+00    0.246E+01
DAV:  12    -0.110058213077E+04    0.56798E+01   -0.49915E+00 27504   0.338E+00    0.197E+01
DAV:  13    -0.109720606517E+04    0.33761E+01   -0.34155E+00 27936   0.280E+00    0.162E+01
DAV:  14    -0.109612338767E+04    0.10827E+01   -0.94640E-01 29712   0.143E+00    0.146E+01
DAV:  15    -0.109502848117E+04    0.10949E+01   -0.67580E-01 27840   0.133E+00    0.128E+01
DAV:  16    -0.109349487771E+04    0.15336E+01   -0.12914E+00 25824   0.175E+00    0.998E+00
DAV:  17    -0.109210797057E+04    0.13869E+01   -0.19735E+00 28512   0.220E+00    0.624E+00
DAV:  18    -0.109160719241E+04    0.50078E+00   -0.11188E+00 28272   0.156E+00    0.382E+00
DAV:  19    -0.109146563815E+04    0.14155E+00   -0.33800E-01 30048   0.885E-01    0.269E+00
DAV:  20    -0.109141858271E+04    0.47055E-01   -0.17444E-01 28224   0.687E-01    0.213E+00
DAV:  21    -0.109135482297E+04    0.63760E-01   -0.19012E-01 27792   0.682E-01    0.107E+00
DAV:  22    -0.109134133570E+04    0.13487E-01   -0.10283E-01 29952   0.498E-01    0.581E-01
DAV:  23    -0.109133900963E+04    0.23261E-02   -0.34434E-02 27888   0.286E-01    0.409E-01
DAV:  24    -0.109133875960E+04    0.25004E-03   -0.16635E-02 29760   0.205E-01    0.373E-01
DAV:  25    -0.109133700408E+04    0.17555E-02   -0.95912E-03 27264   0.153E-01    0.189E-01
DAV:  26    -0.109133684593E+04    0.15814E-03   -0.52234E-03 28272   0.119E-01    0.155E-01
DAV:  27    -0.109133662915E+04    0.21678E-03   -0.22324E-03 28704   0.782E-02    0.106E-01
DAV:  28    -0.109133654035E+04    0.88800E-04   -0.14969E-03 28800   0.596E-02    0.650E-02
DAV:  29    -0.109133649790E+04    0.42447E-04   -0.47383E-04 29472   0.351E-02    0.401E-02
DAV:  30    -0.109133648362E+04    0.14277E-04   -0.22264E-04 28032   0.249E-02
   3 F= -.10913365E+04 E0= -.10912302E+04  d E =0.636918E+04
       N       E                     dE             d eps       ncg     rms          rms(c)
DAV:   1    -0.109133703323E+04   -0.53533E-03   -0.70206E-04 22944   0.439E-02    0.172E-02
DAV:   2    -0.109133713674E+04   -0.10352E-03   -0.37222E-04 29040   0.355E-02    0.686E-02
DAV:   3    -0.109133707857E+04    0.58180E-04   -0.41096E-04 27408   0.366E-02    0.432E-02
DAV:   4    -0.109133703443E+04    0.44140E-04   -0.14242E-04 25152   0.205E-02    0.133E-02
DAV:   5    -0.109133704102E+04   -0.65990E-05   -0.42918E-05 25632   0.105E-02    0.182E-02
DAV:   6    -0.109133703490E+04    0.61201E-05   -0.30373E-05 22992   0.101E-02    0.978E-03
DAV:   7    -0.109133703415E+04    0.75887E-06   -0.80607E-06 20880   0.531E-03    0.707E-03
DAV:   8    -0.109133703403E+04    0.11896E-06   -0.49487E-06 19392   0.431E-03    0.539E-03
DAV:   9    -0.109133703418E+04   -0.15095E-06   -0.32686E-06 17856   0.362E-03    0.432E-03
DAV:  10    -0.109133703414E+04    0.38992E-07   -0.23655E-06 15984   0.322E-03
   4 F= -.10913370E+04 E0= -.10912307E+04  d E =0.636918E+04
       N       E                     dE             d eps       ncg     rms          rms(c)
DAV:   1    -0.109135880348E+04   -0.21769E-01   -0.33128E+00 21312   0.296E+00    0.462E-01
DAV:   2    -0.109141760804E+04   -0.58805E-01   -0.29325E-01 28320   0.111E+00    0.147E+00
DAV:   3    -0.109139267907E+04    0.24929E-01   -0.21676E-01 29664   0.847E-01    0.972E-01
DAV:   4    -0.109137317332E+04    0.19506E-01   -0.82233E-02 27120   0.501E-01    0.425E-01
DAV:   5    -0.109138004397E+04   -0.68706E-02   -0.42331E-02 28272   0.355E-01    0.633E-01
DAV:   6    -0.109137136832E+04    0.86756E-02   -0.28790E-02 27072   0.305E-01    0.269E-01
DAV:   7    -0.109137081220E+04    0.55613E-03   -0.78548E-03 29376   0.148E-01    0.204E-01
DAV:   8    -0.109137066020E+04    0.15200E-03   -0.53114E-03 28560   0.133E-01    0.164E-01
DAV:   9    -0.109137046340E+04    0.19680E-03   -0.44849E-03 29328   0.107E-01    0.129E-01
DAV:  10    -0.109137018645E+04    0.27694E-03   -0.18682E-03 28080   0.733E-02    0.708E-02
DAV:  11    -0.109137014137E+04    0.45084E-04   -0.71373E-04 29328   0.414E-02    0.469E-02
DAV:  12    -0.109137012759E+04    0.13779E-04   -0.28383E-04 27360   0.281E-02    0.342E-02
DAV:  13    -0.109137011276E+04    0.14830E-04   -0.12023E-04 27408   0.195E-02    0.201E-02
DAV:  14    -0.109137010897E+04    0.37942E-05   -0.54971E-05 26304   0.143E-02    0.153E-02
DAV:  15    -0.109137010698E+04    0.19836E-05   -0.37728E-05 25248   0.940E-03    0.105E-02
DAV:  16    -0.109137010571E+04    0.12705E-05   -0.15236E-05 24192   0.680E-03    0.701E-03
DAV:  17    -0.109137010505E+04    0.66676E-06   -0.63521E-06 21168   0.413E-03
   5 F= -.10913701E+04 E0= -.10912639E+04  d E =0.636914E+04
       N       E                     dE             d eps       ncg     rms          rms(c)
DAV:   1    -0.109137827441E+04   -0.81687E-02   -0.82604E-01 20880   0.148E+00    0.234E-01
DAV:   2    -0.109139348548E+04   -0.15211E-01   -0.76259E-02 28128   0.576E-01    0.742E-01
DAV:   3    -0.109138701279E+04    0.64727E-02   -0.55459E-02 28128   0.430E-01    0.487E-01
DAV:   4    -0.109138211339E+04    0.48994E-02   -0.20822E-02 27120   0.255E-01    0.215E-01
DAV:   5    -0.109138392535E+04   -0.18120E-02   -0.11015E-02 28224   0.182E-01    0.324E-01
DAV:   6    -0.109138164437E+04    0.22810E-02   -0.75279E-03 27168   0.155E-01    0.137E-01
DAV:   7    -0.109138148608E+04    0.15829E-03   -0.19966E-03 28848   0.749E-02    0.101E-01
DAV:   8    -0.109138145002E+04    0.36060E-04   -0.13019E-03 28704   0.658E-02    0.812E-02
DAV:   9    -0.109138140435E+04    0.45668E-04   -0.11112E-03 29088   0.532E-02    0.647E-02
DAV:  10    -0.109138133403E+04    0.70324E-04   -0.46730E-04 27936   0.366E-02    0.348E-02
DAV:  11    -0.109138132345E+04    0.10583E-04   -0.17692E-04 29040   0.205E-02    0.232E-02
DAV:  12    -0.109138132005E+04    0.33965E-05   -0.70193E-05 26448   0.139E-02    0.169E-02
DAV:  13    -0.109138131656E+04    0.34930E-05   -0.30244E-05 25344   0.975E-03    0.103E-02
DAV:  14    -0.109138131550E+04    0.10558E-05   -0.14020E-05 23568   0.734E-03    0.773E-03
DAV:  15    -0.109138131499E+04    0.50812E-06   -0.95434E-06 22608   0.485E-03
   6 F= -.10913813E+04 E0= -.10912751E+04  d E =0.636913E+04
       N       E                     dE             d eps       ncg     rms          rms(c)
DAV:   1    -0.109138487904E+04   -0.35635E-02   -0.20670E-01 21456   0.741E-01    0.116E-01
DAV:   2    -0.109138877043E+04   -0.38914E-02   -0.19163E-02 27936   0.287E-01    0.376E-01
DAV:   3    -0.109138702614E+04    0.17443E-02   -0.14005E-02 28320   0.218E-01    0.242E-01
DAV:   4    -0.109138583002E+04    0.11961E-02   -0.51335E-03 27168   0.126E-01    0.107E-01
DAV:   5    -0.109138625403E+04   -0.42401E-03   -0.26878E-03 28416   0.901E-02    0.159E-01
DAV:   6    -0.109138571279E+04    0.54124E-03   -0.18186E-03 27168   0.760E-02    0.683E-02
DAV:   7    -0.109138567234E+04    0.40453E-04   -0.49426E-04 29232   0.374E-02    0.498E-02
DAV:   8    -0.109138566412E+04    0.82180E-05   -0.32324E-04 28704   0.328E-02    0.407E-02
DAV:   9    -0.109138565268E+04    0.11444E-04   -0.28014E-04 28992   0.264E-02    0.322E-02
DAV:  10    -0.109138563456E+04    0.18118E-04   -0.11379E-04 27168   0.181E-02    0.168E-02
DAV:  11    -0.109138563240E+04    0.21562E-05   -0.42751E-05 25104   0.101E-02    0.117E-02
DAV:  12    -0.109138563154E+04    0.86080E-06   -0.17445E-05 24528   0.706E-03    0.847E-03
DAV:  13    -0.109138563057E+04    0.97622E-06   -0.74114E-06 20976   0.503E-03
   7 F= -.10913856E+04 E0= -.10912795E+04  d E =0.636913E+04
       N       E                     dE             d eps       ncg     rms          rms(c)
DAV:   1    -0.109138728339E+04   -0.16518E-02   -0.51713E-02 22176   0.370E-01    0.584E-02
DAV:   2    -0.109138823652E+04   -0.95313E-03   -0.47986E-03 28416   0.143E-01    0.187E-01
DAV:   3    -0.109138784957E+04    0.38695E-03   -0.35386E-03 28800   0.109E-01    0.125E-01
DAV:   4    -0.109138751682E+04    0.33275E-03   -0.13318E-03 27120   0.649E-02    0.526E-02
DAV:   5    -0.109138763352E+04   -0.11671E-03   -0.68040E-04 27936   0.454E-02    0.811E-02
DAV:   6    -0.109138749095E+04    0.14257E-03   -0.47989E-04 27072   0.389E-02    0.347E-02
DAV:   7    -0.109138748059E+04    0.10366E-04   -0.12626E-04 28608   0.187E-02    0.251E-02
DAV:   8    -0.109138747814E+04    0.24420E-05   -0.80418E-05 27840   0.162E-02    0.200E-02
DAV:   9    -0.109138747535E+04    0.27905E-05   -0.69123E-05 28896   0.130E-02    0.159E-02
DAV:  10    -0.109138747130E+04    0.40553E-05   -0.29776E-05 25200   0.924E-03    0.889E-03
DAV:  11    -0.109138747058E+04    0.71961E-06   -0.10533E-05 23040   0.531E-03    0.579E-03
DAV:  12    -0.109138747029E+04    0.28742E-06   -0.39189E-06 17568   0.391E-03
   8 F= -.10913875E+04 E0= -.10912813E+04  d E =0.636913E+04
       N       E                     dE             d eps       ncg     rms          rms(c)
DAV:   1    -0.109138825927E+04   -0.78869E-03   -0.12935E-02 22464   0.185E-01    0.293E-02
DAV:   2    -0.109138848449E+04   -0.22522E-03   -0.11788E-03 28320   0.710E-02    0.909E-02
DAV:   3    -0.109138840478E+04    0.79708E-04   -0.86549E-04 28752   0.539E-02    0.638E-02
DAV:   4    -0.109138831690E+04    0.87881E-04   -0.34342E-04 27024   0.328E-02    0.260E-02
DAV:   5    -0.109138834842E+04   -0.31524E-04   -0.17312E-04 26016   0.230E-02    0.416E-02
DAV:   6    -0.109138831067E+04    0.37757E-04   -0.12399E-04 25488   0.197E-02    0.173E-02
DAV:   7    -0.109138830837E+04    0.22996E-05   -0.32209E-05 26064   0.936E-03    0.128E-02
DAV:   8    -0.109138830787E+04    0.49690E-06   -0.20796E-05 25536   0.817E-03    0.106E-02
DAV:   9    -0.109138830724E+04    0.63300E-06   -0.18955E-05 24960   0.691E-03    0.889E-03
DAV:  10    -0.109138830612E+04    0.11185E-05   -0.85113E-06 21648   0.524E-03    0.538E-03
DAV:  11    -0.109138830572E+04    0.40039E-06   -0.27366E-06 15984   0.332E-03
   9 F= -.10913883E+04 E0= -.10912822E+04  d E =0.636913E+04
       N       E                     dE             d eps       ncg     rms          rms(c)
DAV:   1    -0.109138868957E+04   -0.38345E-03   -0.32371E-03 22560   0.927E-02    0.148E-02
DAV:   2    -0.109138874286E+04   -0.53288E-04   -0.28436E-04 28512   0.354E-02    0.435E-02
DAV:   3    -0.109138872775E+04    0.15106E-04   -0.21277E-04 28848   0.268E-02    0.332E-02
DAV:   4    -0.109138870399E+04    0.23764E-04   -0.90289E-05 25632   0.168E-02    0.135E-02
DAV:   5    -0.109138871300E+04   -0.90130E-05   -0.46056E-05 24384   0.117E-02    0.217E-02
DAV:   6    -0.109138870257E+04    0.10436E-04   -0.33973E-05 22512   0.106E-02    0.901E-03
DAV:   7    -0.109138870173E+04    0.83445E-06   -0.80388E-06 21408   0.508E-03    0.625E-03
DAV:   8    -0.109138870154E+04    0.19163E-06   -0.42678E-06 18384   0.426E-03    0.481E-03
DAV:   9    -0.109138870160E+04   -0.62544E-07   -0.39551E-06 18192   0.372E-03    0.486E-03
DAV:  10    -0.109138870120E+04    0.40380E-06   -0.16155E-06 14112   0.310E-03
  10 F= -.10913887E+04 E0= -.10912826E+04  d E =0.636913E+04
       N       E                     dE             d eps       ncg     rms          rms(c)
DAV:   1    -0.109138888930E+04   -0.18770E-03   -0.80850E-04 22752   0.464E-02    0.751E-03
DAV:   2    -0.109138890074E+04   -0.11439E-04   -0.66781E-05 28176   0.170E-02    0.201E-02
DAV:   3    -0.109138889871E+04    0.20344E-05   -0.47295E-05 24576   0.126E-02    0.164E-02
DAV:   4    -0.109138889288E+04    0.58245E-05   -0.22658E-05 22896   0.820E-03    0.650E-03
DAV:   5    -0.109138889579E+04   -0.29068E-05   -0.11633E-05 17376   0.608E-03    0.116E-02
DAV:   6    -0.109138889247E+04    0.33203E-05   -0.90661E-06 15696   0.590E-03    0.403E-03
DAV:   7    -0.109138889241E+04    0.53384E-07   -0.15893E-06 14112   0.288E-03    0.349E-03
DAV:   8    -0.109138889236E+04    0.55035E-07   -0.95192E-07 12480   0.252E-03    0.236E-03
DAV:   9    -0.109138889235E+04    0.90658E-08   -0.62277E-07 12480   0.188E-03    0.209E-03
DAV:  10    -0.109138889230E+04    0.53857E-07   -0.38496E-07 12480   0.153E-03
  11 F= -.10913889E+04 E0= -.10912828E+04  d E =0.636913E+04
       N       E                     dE             d eps       ncg     rms          rms(c)
DAV:   1    -0.109138898708E+04   -0.94731E-04   -0.20181E-04 22848   0.232E-02    0.359E-03
DAV:   2    -0.109138899023E+04   -0.31510E-05   -0.16421E-05 26880   0.847E-03    0.103E-02
DAV:   3    -0.109138898870E+04    0.15299E-05   -0.10072E-05 16080   0.619E-03    0.616E-03
DAV:   4    -0.109138898804E+04    0.65918E-06   -0.42708E-06 17088   0.384E-03    0.358E-03
DAV:   5    -0.109138898858E+04   -0.53837E-06   -0.30244E-06 12480   0.333E-03    0.537E-03
DAV:   6    -0.109138898786E+04    0.72107E-06   -0.18379E-06 12480   0.289E-03    0.177E-03
DAV:   7    -0.109138898787E+04   -0.10354E-07   -0.36748E-07 12480   0.134E-03    0.175E-03
DAV:   8    -0.109138898787E+04    0.28813E-08   -0.24551E-07 12480   0.121E-03    0.114E-03
DAV:   9    -0.109138898787E+04   -0.72760E-10   -0.16441E-07 12480   0.930E-04    0.104E-03
DAV:  10    -0.109138898785E+04    0.14668E-07   -0.10173E-07 12480   0.759E-04
  12 F= -.10913890E+04 E0= -.10912829E+04  d E =0.636913E+04
       N       E                     dE             d eps       ncg     rms          rms(c)
DAV:   1    -0.109138903609E+04   -0.48227E-04   -0.50618E-05 22848   0.116E-02    0.185E-03
DAV:   2    -0.109138903688E+04   -0.78759E-06   -0.37486E-06 16896   0.436E-03    0.525E-03
DAV:   3    -0.109138903653E+04    0.34996E-06   -0.28255E-06 12480   0.357E-03    0.322E-03
DAV:   4    -0.109138903632E+04    0.21150E-06   -0.88156E-07 12480   0.207E-03    0.165E-03
DAV:   5    -0.109138903643E+04   -0.11291E-06   -0.73313E-07 12480   0.163E-03    0.252E-03
DAV:   6    -0.109138903628E+04    0.15511E-06   -0.42215E-07 12480   0.139E-03    0.843E-04
DAV:   7    -0.109138903629E+04   -0.13802E-07   -0.11035E-07 12480   0.671E-04    0.930E-04
DAV:   8    -0.109138903629E+04    0.22774E-08   -0.76300E-08 12480   0.641E-04    0.522E-04
DAV:   9    -0.109138903629E+04   -0.26630E-08   -0.50993E-08 12480   0.465E-04    0.516E-04
DAV:  10    -0.109138903629E+04    0.32815E-08   -0.35549E-08 12480   0.414E-04
  13 F= -.10913890E+04 E0= -.10912829E+04  d E =0.636913E+04
       N       E                     dE             d eps       ncg     rms          rms(c)
DAV:   1    -0.109138905929E+04   -0.23002E-04   -0.12723E-05 22896   0.579E-03    0.944E-04
DAV:   2    -0.109138905951E+04   -0.21236E-06   -0.96345E-07 13728   0.224E-03    0.276E-03
DAV:   3    -0.109138905942E+04    0.86620E-07   -0.79522E-07 12480   0.191E-03    0.173E-03
DAV:   4    -0.109138905935E+04    0.67375E-07   -0.24779E-07 12480   0.112E-03    0.763E-04
DAV:   5    -0.109138905939E+04   -0.39399E-07   -0.20053E-07 12480   0.861E-04    0.140E-03
DAV:   6    -0.109138905934E+04    0.48800E-07   -0.14270E-07 12480   0.780E-04    0.539E-04
DAV:   7    -0.109138905935E+04   -0.17026E-08   -0.37497E-08 12384   0.392E-04    0.473E-04
DAV:   8    -0.109138905935E+04   -0.21610E-08   -0.23636E-08 12336   0.320E-04    0.279E-04
DAV:   9    -0.109138905935E+04    0.37107E-09   -0.16741E-08 12336   0.252E-04    0.272E-04
DAV:  10    -0.109138905935E+04    0.72760E-09   -0.12454E-08 12240   0.234E-04
  14 F= -.10913891E+04 E0= -.10912829E+04  d E =0.636913E+04
       N       E                     dE             d eps       ncg     rms          rms(c)
DAV:   1    -0.109138907110E+04   -0.11757E-04   -0.31517E-06 20160   0.290E-03    0.480E-04
DAV:   2    -0.109138907116E+04   -0.55545E-07   -0.25270E-07 12432   0.120E-03    0.135E-03
DAV:   3    -0.109138907114E+04    0.19769E-07   -0.20441E-07 12192   0.100E-03    0.843E-04
DAV:   4    -0.109138907112E+04    0.17571E-07   -0.67716E-08 12192   0.595E-04    0.395E-04
DAV:   5    -0.109138907113E+04   -0.12158E-07   -0.57491E-08 12192   0.465E-04    0.732E-04
DAV:   6    -0.109138907112E+04    0.15425E-07   -0.38620E-08 12192   0.416E-04    0.217E-04
DAV:   7    -0.109138907112E+04   -0.24156E-08   -0.10047E-08 12192   0.190E-04    0.234E-04
DAV:   8    -0.109138907112E+04   -0.37107E-09   -0.70617E-09 12192   0.161E-04    0.133E-04
DAV:   9    -0.109138907112E+04    0.17462E-09   -0.58235E-09 12192   0.137E-04    0.170E-04
DAV:  10    -0.109138907112E+04    0.61118E-09   -0.46313E-09 12192   0.129E-04
  15 F= -.10913891E+04 E0= -.10912829E+04  d E =0.636913E+04
       N       E                     dE             d eps       ncg     rms          rms(c)
DAV:   1    -0.109138907700E+04   -0.58752E-05   -0.73778E-07 13152   0.145E-03    0.343E-04
DAV:   2    -0.109138907701E+04   -0.15869E-07   -0.10041E-07 12192   0.757E-04    0.710E-04
DAV:   3    -0.109138907702E+04   -0.25902E-08   -0.89467E-08 12192   0.651E-04    0.635E-04
DAV:   4    -0.109138907701E+04    0.90004E-08   -0.40622E-08 12192   0.459E-04    0.333E-04
DAV:   5    -0.109138907701E+04   -0.58135E-08   -0.31031E-08 12192   0.340E-04    0.528E-04
DAV:   6    -0.109138907700E+04    0.73705E-08   -0.21118E-08 12192   0.305E-04    0.161E-04
DAV:   7    -0.109138907700E+04    0.26921E-09   -0.52863E-09 12192   0.126E-04    0.150E-04
DAV:   8    -0.109138907700E+04   -0.66939E-09   -0.34362E-09 12096   0.985E-05    0.104E-04
DAV:   9    -0.109138907701E+04   -0.41473E-09   -0.26443E-09 12048   0.719E-05    0.883E-05
DAV:  10    -0.109138907700E+04    0.48021E-09   -0.24299E-09 12048   0.742E-05
  16 F= -.10913891E+04 E0= -.10912829E+04  d E =0.636913E+04
       N       E                     dE             d eps       ncg     rms          rms(c)
DAV:   1    -0.109138908007E+04   -0.30682E-05   -0.17589E-07 11952   0.721E-04    0.261E-04
DAV:   2    -0.109138908008E+04   -0.56243E-08   -0.33615E-08 11904   0.470E-04    0.412E-04
DAV:   3    -0.109138908009E+04   -0.82146E-08   -0.48847E-08 11904   0.461E-04    0.641E-04
DAV:   4    -0.109138908008E+04    0.10754E-07   -0.33068E-08 11904   0.375E-04    0.268E-04
DAV:   5    -0.109138908008E+04    0.27649E-09   -0.91469E-09 11904   0.180E-04    0.238E-04
DAV:   6    -0.109138908008E+04    0.21100E-09   -0.70709E-09 11904   0.158E-04    0.118E-04
DAV:   7    -0.109138908008E+04    0.18190E-09   -0.30806E-09 11904   0.880E-05    0.974E-05
DAV:   8    -0.109138908008E+04    0.20373E-09   -0.21780E-09 11904   0.608E-05    0.677E-05
DAV:   9    -0.109138908008E+04    0.72760E-11   -0.19278E-09 11904   0.444E-05    0.585E-05
DAV:  10    -0.109138908008E+04   -0.27649E-09   -0.17875E-09 11904   0.471E-05
  17 F= -.10913891E+04 E0= -.10912829E+04  d E =0.636913E+04
       N       E                     dE             d eps       ncg     rms          rms(c)
DAV:   1    -0.109138908154E+04   -0.14691E-05   -0.44842E-08 11904   0.360E-04    0.124E-04
DAV:   2    -0.109138908155E+04   -0.17462E-08   -0.88478E-09 11904   0.219E-04    0.171E-04
DAV:   3    -0.109138908155E+04   -0.16807E-08   -0.11801E-08 11904   0.212E-04    0.296E-04
DAV:   4    -0.109138908155E+04    0.21319E-08   -0.80618E-09 11904   0.174E-04    0.108E-04
DAV:   5    -0.109138908155E+04   -0.18917E-09   -0.38678E-09 11904   0.976E-05    0.146E-04
DAV:   6    -0.109138908155E+04   -0.48021E-09   -0.31177E-09 11904   0.884E-05    0.561E-05
DAV:   7    -0.109138908155E+04    0.90949E-09   -0.17739E-09 11904   0.430E-05    0.517E-05
DAV:   8    -0.109138908155E+04    0.32014E-09   -0.16350E-09 11904   0.346E-05    0.354E-05
DAV:   9    -0.109138908155E+04   -0.92405E-09   -0.15637E-09 11904   0.248E-05    0.295E-05
DAV:  10    -0.109138908155E+04    0.72032E-09   -0.14796E-09 11904   0.247E-05
  18 F= -.10913891E+04 E0= -.10912830E+04  d E =0.636913E+04
       N       E                     dE             d eps       ncg     rms          rms(c)
DAV:   1    -0.109138908228E+04   -0.73415E-06   -0.12312E-08 11904   0.180E-04    0.619E-05
DAV:   2    -0.109138908228E+04   -0.16007E-09   -0.34800E-09 11904   0.117E-04    0.993E-05
DAV:   3    -0.109138908228E+04   -0.11642E-08   -0.41191E-09 11904   0.111E-04    0.150E-04
DAV:   4    -0.109138908228E+04    0.11278E-08   -0.33017E-09 11904   0.895E-05    0.621E-05
DAV:   5    -0.109138908228E+04    0.29104E-10   -0.18705E-09 11904   0.453E-05    0.617E-05
DAV:   6    -0.109138908228E+04    0.11642E-09   -0.17322E-09 11904   0.414E-05    0.302E-05
DAV:   7    -0.109138908228E+04   -0.60390E-09   -0.16065E-09 11904   0.235E-05    0.282E-05
DAV:   8    -0.109138908228E+04   -0.72760E-10   -0.15828E-09 11904   0.181E-05    0.196E-05
DAV:   9    -0.109138908228E+04    0.59663E-09   -0.14535E-09 11904   0.134E-05    0.168E-05
DAV:  10    -0.109138908228E+04   -0.33469E-09   -0.15464E-09 11904   0.139E-05
  19 F= -.10913891E+04 E0= -.10912830E+04  d E =0.636913E+04
       N       E                     dE             d eps       ncg     rms          rms(c)
DAV:   1    -0.109138908302E+04   -0.73439E-06   -0.12332E-08 11904   0.180E-04    0.606E-05
DAV:   2    -0.109138908302E+04   -0.39290E-09   -0.31965E-09 11904   0.106E-04    0.840E-05
DAV:   3    -0.109138908302E+04   -0.83674E-09   -0.37354E-09 11904   0.102E-04    0.135E-04
DAV:   4    -0.109138908301E+04    0.18626E-08   -0.28704E-09 11904   0.813E-05    0.525E-05
DAV:   5    -0.109138908302E+04   -0.89494E-09   -0.20405E-09 11904   0.470E-05    0.702E-05
DAV:   6    -0.109138908302E+04   -0.32014E-09   -0.17496E-09 11904   0.423E-05    0.243E-05
DAV:   7    -0.109138908302E+04    0.13097E-09   -0.14811E-09 11808   0.186E-05    0.245E-05
DAV:   8    -0.109138908302E+04   -0.20373E-09   -0.14292E-09 11664   0.156E-05    0.161E-05
DAV:   9    -0.109138908301E+04    0.91677E-09   -0.14766E-09 11616   0.110E-05    0.141E-05
DAV:  10    -0.109138908302E+04   -0.34197E-09   -0.14766E-09 11616   0.107E-05
  20 F= -.10913891E+04 E0= -.10912830E+04  d E =0.636913E+04
       N       E                     dE             d eps       ncg     rms          rms(c)
DAV:   1    -0.109138908302E+04   -0.34925E-09   -0.14819E-09 11616   0.863E-06    0.831E-06
DAV:   2    -0.109138908302E+04   -0.10477E-08   -0.14402E-09 11616   0.152E-05    0.239E-05
DAV:   3    -0.109138908302E+04    0.10186E-09   -0.14312E-09 11616   0.167E-05    0.200E-05
DAV:   4    -0.109138908302E+04    0.98225E-09   -0.14597E-09 11616   0.112E-05    0.556E-06
DAV:   5    -0.109138908302E+04   -0.88039E-09   -0.14544E-09 11616   0.617E-06    0.896E-06
DAV:   6    -0.109138908302E+04    0.73487E-09   -0.14748E-09 11616   0.624E-06    0.481E-06
DAV:   7    -0.109138908302E+04   -0.15280E-09   -0.14669E-09 11616   0.395E-06    0.346E-06
DAV:   8    -0.109138908302E+04   -0.72760E-10   -0.14536E-09 11616   0.327E-06    0.238E-06
DAV:   9    -0.109138908302E+04    0.36380E-10   -0.14285E-09 11616   0.288E-06    0.242E-06
DAV:  10    -0.109138908302E+04   -0.62573E-09   -0.13308E-09 11616   0.251E-06
  21 F= -.10913891E+04 E0= -.10912830E+04  d E =0.636913E+04
       N       E                     dE             d eps       ncg     rms          rms(c)
DAV:   1    -0.109138908302E+04    0.13097E-09   -0.13686E-09 11616   0.193E-06    0.149E-06
DAV:   2    -0.109138908302E+04   -0.26921E-09   -0.14281E-09 11616   0.245E-06    0.408E-06
DAV:   3    -0.109138908302E+04    0.51659E-09   -0.14586E-09 11616   0.316E-06    0.377E-06
DAV:   4    -0.109138908301E+04    0.29104E-09   -0.14752E-09 11616   0.238E-06    0.133E-06
DAV:   5    -0.109138908301E+04    0.27649E-09   -0.13994E-09 11616   0.130E-06    0.118E-06
DAV:   6    -0.109138908302E+04   -0.90222E-09   -0.14582E-09 11616   0.129E-06    0.102E-06
DAV:   7    -0.109138908302E+04   -0.36380E-10   -0.14464E-09 11616   0.980E-07    0.597E-07
DAV:   8    -0.109138908302E+04   -0.18190E-09   -0.13863E-09 11616   0.790E-07    0.469E-07
DAV:   9    -0.109138908302E+04    0.48021E-09   -0.14483E-09 11520   0.711E-07    0.440E-07
DAV:  10    -0.109138908302E+04   -0.74215E-09   -0.14300E-09 11472   0.625E-07
  22 F= -.10913891E+04 E0= -.10912830E+04  d E =0.636913E+04
       N       E                     dE             d eps       ncg     rms          rms(c)
DAV:   1    -0.109138908302E+04   -0.10914E-09   -0.14542E-09 11472   0.574E-07    0.300E-07
DAV:   2    -0.109138908301E+04    0.46566E-09   -0.13413E-09 11472   0.848E-07    0.140E-06
DAV:   3    -0.109138908301E+04   -0.15280E-09   -0.14122E-09 11472   0.918E-07    0.634E-07
DAV:   4    -0.109138908301E+04    0.26921E-09   -0.13987E-09 11472   0.511E-07    0.341E-07
DAV:   5    -0.109138908302E+04   -0.13970E-08   -0.14092E-09 11472   0.430E-07    0.419E-07
DAV:   6    -0.109138908301E+04    0.12660E-08   -0.14582E-09 11472   0.388E-07    0.226E-07
DAV:   7    -0.109138908301E+04   -0.80036E-10   -0.14491E-09 11472   0.276E-07    0.221E-07
DAV:   8    -0.109138908302E+04   -0.82218E-09   -0.14190E-09 11472   0.252E-07    0.172E-07
DAV:   9    -0.109138908301E+04    0.12005E-08   -0.13432E-09 11472   0.217E-07    0.153E-07
DAV:  10    -0.109138908302E+04   -0.11787E-08   -0.13650E-09 11328   0.199E-07
  23 F= -.10913891E+04 E0= -.10912830E+04  d E =0.636913E+04
       N       E                     dE             d eps       ncg     rms          rms(c)
DAV:   1    -0.109138908301E+04   -0.38563E-09   -0.13982E-09 11328   0.191E-07    0.125E-07
DAV:   2    -0.109138908302E+04   -0.95315E-09   -0.14009E-09 11328   0.315E-07    0.548E-07
DAV:   3    -0.109138908302E+04    0.88039E-09   -0.13702E-09 11328   0.368E-07    0.459E-07
DAV:   4    -0.109138908301E+04    0.32014E-09   -0.14262E-09 11328   0.260E-07    0.863E-08
DAV:   5    -0.109138908302E+04   -0.12806E-08   -0.13587E-09 11328   0.119E-07    0.875E-08
DAV:   6    -0.109138908302E+04    0.85856E-09   -0.14205E-09 11328   0.118E-07    0.856E-08
DAV:   7    -0.109138908302E+04   -0.35652E-09   -0.14252E-09 11328   0.959E-08    0.496E-08
DAV:   8    -0.109138908301E+04    0.58208E-09   -0.14082E-09 11328   0.805E-08    0.684E-08
DAV:   9    -0.109138908302E+04   -0.77125E-09   -0.13787E-09 11232   0.732E-08    0.402E-08
DAV:  10    -0.109138908301E+04    0.66939E-09   -0.13592E-09 11184   0.642E-08
  24 F= -.10913891E+04 E0= -.10912830E+04  d E =0.636913E+04
       N       E                     dE             d eps       ncg     rms          rms(c)
DAV:   1    -0.109138908302E+04    0.30559E-09   -0.13895E-09 11184   0.582E-08    0.333E-08
DAV:   2    -0.109138908301E+04    0.42201E-09   -0.13921E-09 11184   0.578E-08    0.578E-08
DAV:   3    -0.109138908302E+04   -0.81491E-09   -0.13880E-09 11184   0.688E-08    0.640E-08
DAV:   4    -0.109138908302E+04    0.13097E-09   -0.13996E-09 11184   0.574E-08    0.427E-08
DAV:   5    -0.109138908302E+04    0.37835E-09   -0.13620E-09 11184   0.389E-08    0.207E-08
DAV:   6    -0.109138908301E+04    0.26921E-09   -0.14568E-09 11184   0.493E-08    0.614E-08
DAV:   7    -0.109138908302E+04   -0.78580E-09   -0.13587E-09 11184   0.430E-08    0.119E-08
DAV:   8    -0.109138908302E+04    0.40745E-09   -0.14161E-09 11184   0.283E-08    0.287E-08
DAV:   9    -0.109138908302E+04    0.19645E-09   -0.13857E-09 11184   0.282E-08    0.886E-09
DAV:  10    -0.109138908302E+04   -0.10550E-08   -0.14199E-09 11184   0.225E-08
  25 F= -.10913891E+04 E0= -.10912830E+04  d E =0.636913E+04
       N       E                     dE             d eps       ncg     rms          rms(c)
DAV:   1    -0.109138908301E+04    0.14552E-09   -0.14429E-09 11184   0.207E-08    0.628E-09
DAV:   2    -0.109138908302E+04   -0.77853E-09   -0.14624E-09 11184   0.200E-08    0.224E-08
DAV:   3    -0.109138908302E+04   -0.14552E-10   -0.13834E-09 11184   0.193E-08    0.999E-09
DAV:   4    -0.109138908302E+04    0.78580E-09   -0.14423E-09 11184   0.168E-08    0.161E-08
DAV:   5    -0.109138908302E+04   -0.48749E-09   -0.13824E-09 11184   0.132E-08    0.847E-09
DAV:   6    -0.109138908302E+04    0.27649E-09   -0.14599E-09 11184   0.124E-08    0.137E-08
DAV:   7    -0.109138908302E+04    0.19645E-09   -0.14210E-09 11184   0.109E-08    0.532E-09
DAV:   8    -0.109138908302E+04   -0.74942E-09   -0.14022E-09 11184   0.100E-08    0.130E-08
DAV:   9    -0.109138908302E+04    0.21828E-09   -0.14566E-09 11184   0.895E-09    0.625E-09
DAV:  10    -0.109138908301E+04    0.10841E-08   -0.14808E-09 11184   0.783E-09
  26 F= -.10913891E+04 E0= -.10912830E+04  d E =0.636913E+04
       N       E                     dE             d eps       ncg     rms          rms(c)
DAV:   1    -0.109138908302E+04   -0.21828E-09   -0.14966E-09 11184   0.723E-09    0.684E-09
DAV:   2    -0.109138908301E+04    0.83674E-09   -0.14371E-09 11184   0.871E-09    0.122E-08
DAV:   3    -0.109138908302E+04   -0.12369E-09   -0.14285E-09 11184   0.795E-09    0.549E-09
DAV:   4    -0.109138908301E+04    0.18190E-09   -0.14329E-09 11184   0.835E-09    0.119E-08
DAV:   5    -0.109138908302E+04   -0.29104E-09   -0.13568E-09 11184   0.975E-09    0.127E-08
DAV:   6    -0.109138908302E+04    0.14552E-10   -0.13983E-09 11184   0.831E-09    0.628E-09
DAV:   7    -0.109138908302E+04   -0.58935E-09   -0.14300E-09 10992   0.525E-09    0.329E-09
DAV:   8    -0.109138908301E+04    0.82218E-09   -0.14352E-09 10896   0.448E-09    0.255E-09
DAV:   9    -0.109138908302E+04   -0.29104E-09   -0.13967E-09 10896   0.352E-09    0.180E-09
DAV:  10    -0.109138908302E+04   -0.15280E-09   -0.14786E-09 10896   0.311E-09
  27 F= -.10913891E+04 E0= -.10912830E+04  d E =0.636913E+04
       N       E                     dE             d eps       ncg     rms          rms(c)
DAV:   1    -0.109138908302E+04    0.16735E-09   -0.14303E-09 10896   0.272E-09    0.130E-09
DAV:   2    -0.109138908302E+04   -0.17462E-09   -0.14382E-09 10896   0.274E-09    0.220E-09
DAV:   3    -0.109138908302E+04   -0.43656E-10   -0.14218E-09 10896   0.324E-09    0.302E-09
DAV:   4    -0.109138908302E+04   -0.64028E-09   -0.14120E-09 10896   0.291E-09    0.137E-09
DAV:   5    -0.109138908301E+04    0.12878E-08   -0.14326E-09 10896   0.208E-09    0.115E-09
DAV:   6    -0.109138908302E+04   -0.11642E-08   -0.14729E-09 10896   0.197E-09    0.114E-09
DAV:   7    -0.109138908302E+04   -0.33469E-09   -0.14102E-09 10896   0.160E-09    0.675E-10
DAV:   8    -0.109138908301E+04    0.15061E-08   -0.14191E-09 10896   0.154E-09    0.699E-10
DAV:   9    -0.109138908302E+04   -0.95315E-09   -0.14601E-09 10896   0.133E-09    0.454E-10
DAV:  10    -0.109138908302E+04   -0.12369E-09   -0.14255E-09 10896   0.124E-09
  28 F= -.10913891E+04 E0= -.10912830E+04  d E =0.636913E+04
       N       E                     dE             d eps       ncg     rms          rms(c)
DAV:   1    -0.109138908302E+04    0.19645E-09   -0.14549E-09 10896   0.106E-09    0.288E-10
DAV:   2    -0.109138908302E+04   -0.91677E-09   -0.14215E-09 10896   0.108E-09    0.731E-10
DAV:   3    -0.109138908302E+04    0.76398E-09   -0.14657E-09 10896   0.114E-09    0.766E-10
DAV:   4    -0.109138908302E+04   -0.25466E-09   -0.14130E-09 10896   0.995E-10    0.466E-10
DAV:   5    -0.109138908302E+04   -0.22555E-09   -0.14153E-09 10896   0.764E-10    0.269E-10
DAV:   6    -0.109138908301E+04    0.12660E-08   -0.14545E-09 10896   0.706E-10    0.336E-10
DAV:   7    -0.109138908302E+04   -0.28376E-09   -0.14407E-09 10896   0.589E-10    0.202E-10
DAV:   8    -0.109138908301E+04    0.72760E-10   -0.14485E-09 10896   0.567E-10    0.313E-10
DAV:   9    -0.109138908302E+04   -0.29104E-09   -0.13901E-09 10848   0.489E-10    0.171E-10
DAV:  10    -0.109138908302E+04   -0.34197E-09   -0.14129E-09 10752   0.468E-10
  29 F= -.10913891E+04 E0= -.10912830E+04  d E =0.636913E+04
       N       E                     dE             d eps       ncg     rms          rms(c)
DAV:   1    -0.109138908302E+04   -0.56025E-09   -0.14513E-09 10752   0.411E-10    0.179E-10
DAV:   2    -0.109138908302E+04    0.26921E-09   -0.14196E-09 10752   0.483E-10    0.431E-10
DAV:   3    -0.109138908301E+04    0.85129E-09   -0.14698E-09 10752   0.486E-10    0.279E-10
DAV:   4    -0.109138908302E+04   -0.53842E-09   -0.14638E-09 10752   0.399E-10    0.214E-10
DAV:   5    -0.109138908302E+04   -0.11642E-09   -0.14388E-09 10752   0.327E-10    0.194E-10
DAV:   6    -0.109138908302E+04   -0.61118E-09   -0.14367E-09 10752   0.332E-10    0.216E-10
DAV:   7    -0.109138908302E+04    0.45111E-09   -0.14437E-09 10752   0.254E-10    0.163E-10
DAV:   8    -0.109138908302E+04   -0.24738E-09   -0.14584E-09 10752   0.257E-10    0.181E-10
DAV:   9    -0.109138908302E+04    0.36380E-09   -0.14087E-09 10704   0.221E-10    0.134E-10
DAV:  10    -0.109138908302E+04    0.18190E-09   -0.14224E-09 10608   0.216E-10
  30 F= -.10913891E+04 E0= -.10912830E+04  d E =0.636913E+04
       N       E                     dE             d eps       ncg     rms          rms(c)
DAV:   1    -0.109138908302E+04   -0.50932E-09   -0.14183E-09 10608   0.193E-10    0.124E-10
DAV:   2    -0.109138908302E+04    0.31287E-09   -0.14235E-09 10608   0.367E-10    0.649E-10
DAV:   3    -0.109138908302E+04   -0.19645E-09   -0.14852E-09 10608   0.388E-10    0.184E-10
DAV:   4    -0.109138908302E+04   -0.33469E-09   -0.14514E-09 10608   0.215E-10    0.225E-10
DAV:   5    -0.109138908301E+04    0.11642E-08   -0.14689E-09 10608   0.203E-10    0.146E-10
DAV:   6    -0.109138908302E+04   -0.10405E-08   -0.14695E-09 10608   0.142E-10    0.120E-10
DAV:   7    -0.109138908302E+04    0.36380E-09   -0.14278E-09 10608   0.128E-10    0.106E-10
DAV:   8    -0.109138908302E+04   -0.16735E-09   -0.14321E-09 10608   0.111E-10    0.108E-10
DAV:   9    -0.109138908301E+04    0.85856E-09   -0.14042E-09 10608   0.106E-10    0.108E-10
DAV:  10    -0.109138908302E+04   -0.30559E-09   -0.14286E-09 10608   0.975E-11
  31 F= -.10913891E+04 E0= -.10912830E+04  d E =0.636913E+04
       N       E                     dE             d eps       ncg     rms          rms(c)
DAV:   1    -0.109138908302E+04   -0.35652E-09   -0.14503E-09 10608   0.929E-11    0.103E-10
DAV:   2    -0.109138908302E+04    0.22555E-09   -0.14383E-09 10608   0.173E-10    0.275E-10
DAV:   3    -0.109138908302E+04   -0.85856E-09   -0.14601E-09 10608   0.215E-10    0.244E-10
DAV:   4    -0.109138908302E+04    0.82946E-09   -0.14390E-09 10608   0.146E-10    0.122E-10
DAV:   5    -0.109138908302E+04   -0.84401E-09   -0.14382E-09 10608   0.113E-10    0.175E-10
DAV:   6    -0.109138908302E+04    0.63301E-09   -0.14523E-09 10608   0.112E-10    0.111E-10
DAV:   7    -0.109138908302E+04    0.94587E-10   -0.14418E-09 10608   0.730E-11    0.979E-11
DAV:   8    -0.109138908301E+04    0.50204E-09   -0.14414E-09 10608   0.665E-11    0.112E-10
DAV:   9    -0.109138908301E+04   -0.29104E-09   -0.14276E-09 10608   0.606E-11    0.987E-11
DAV:  10    -0.109138908302E+04   -0.50932E-09   -0.14466E-09 10560   0.577E-11
  32 F= -.10913891E+04 E0= -.10912830E+04  d E =0.636913E+04
       N       E                     dE             d eps       ncg     rms          rms(c)
DAV:   1    -0.109138908302E+04   -0.25466E-09   -0.14546E-09 10464   0.582E-11    0.878E-11
DAV:   2    -0.109138908301E+04    0.32014E-09   -0.14048E-09 10464   0.121E-10    0.212E-10
DAV:   3    -0.109138908302E+04   -0.10550E-08   -0.14274E-09 10464   0.164E-10    0.220E-10
DAV:   4    -0.109138908302E+04    0.57480E-09   -0.14521E-09 10464   0.122E-10    0.110E-10
DAV:   5    -0.109138908302E+04   -0.48021E-09   -0.14407E-09 10464   0.863E-11    0.117E-10
DAV:   6    -0.109138908302E+04   -0.50204E-09   -0.14363E-09 10464   0.706E-11    0.104E-10
DAV:   7    -0.109138908302E+04    0.40018E-09   -0.14002E-09 10464   0.521E-11    0.955E-11
DAV:   8    -0.109138908302E+04    0.96770E-09   -0.14595E-09 10464   0.435E-11    0.925E-11
DAV:   9    -0.109138908302E+04   -0.98953E-09   -0.14211E-09 10464   0.446E-11    0.949E-11
DAV:  10    -0.109138908302E+04    0.98225E-09   -0.14388E-09 10464   0.459E-11
  33 F= -.10913891E+04 E0= -.10912830E+04  d E =0.636913E+04
       N       E                     dE             d eps       ncg     rms          rms(c)
DAV:   1    -0.109138908302E+04    0.81491E-09   -0.14328E-09 10464   0.427E-11    0.909E-11
DAV:   2    -0.109138908302E+04   -0.81491E-09   -0.14400E-09 10464   0.149E-10    0.341E-10
DAV:   3    -0.109138908302E+04    0.43656E-09   -0.14590E-09 10464   0.187E-10    0.178E-10
DAV:   4    -0.109138908302E+04   -0.76398E-09   -0.13989E-09 10464   0.973E-11    0.125E-10
DAV:   5    -0.109138908302E+04    0.12515E-08   -0.14185E-09 10464   0.886E-11    0.146E-10
DAV:   6    -0.109138908302E+04   -0.92405E-09   -0.14532E-09 10464   0.697E-11    0.973E-11
DAV:   7    -0.109138908301E+04    0.13315E-08   -0.14232E-09 10464   0.418E-11    0.928E-11
DAV:   8    -0.109138908302E+04   -0.37107E-09   -0.14482E-09 10464   0.392E-11    0.942E-11
DAV:   9    -0.109138908302E+04   -0.10696E-08   -0.14194E-09 10464   0.379E-11    0.986E-11
DAV:  10    -0.109138908302E+04    0.20373E-09   -0.14221E-09 10464   0.358E-11
  34 F= -.10913891E+04 E0= -.10912830E+04  d E =0.636913E+04
       N       E                     dE             d eps       ncg     rms          rms(c)
DAV:   1    -0.109138908302E+04    0.46566E-09   -0.14230E-09 10464   0.363E-11    0.932E-11
DAV:   2    -0.109138908302E+04   -0.51659E-09   -0.14099E-09 10464   0.110E-10    0.244E-10
DAV:   3    -0.109138908302E+04    0.11423E-08   -0.13890E-09 10464   0.172E-10    0.231E-10
DAV:   4    -0.109138908302E+04   -0.40018E-09   -0.14388E-09 10464   0.129E-10    0.126E-10
DAV:   5    -0.109138908302E+04   -0.64028E-09   -0.13963E-09 10464   0.851E-11    0.154E-10
DAV:   6    -0.109138908302E+04    0.44383E-09   -0.14473E-09 10464   0.754E-11    0.897E-11
DAV:   7    -0.109138908302E+04   -0.34197E-09   -0.14275E-09 10464   0.430E-11    0.852E-11
DAV:   8    -0.109138908302E+04    0.27649E-09   -0.13834E-09 10464   0.359E-11    0.980E-11
DAV:   9    -0.109138908302E+04    0.10914E-09   -0.14169E-09 10464   0.344E-11    0.908E-11
DAV:  10    -0.109138908302E+04   -0.40745E-09   -0.13960E-09 10464   0.328E-11
  35 F= -.10913891E+04 E0= -.10912830E+04  d E =0.636913E+04
       N       E                     dE             d eps       ncg     rms          rms(c)
DAV:   1    -0.109138908301E+04    0.61846E-09   -0.13880E-09 10464   0.352E-11    0.955E-11
DAV:   2    -0.109138908302E+04   -0.40018E-09   -0.14307E-09 10464   0.242E-10    0.575E-10
DAV:   3    -0.109138908302E+04   -0.28376E-09   -0.14423E-09 10464   0.269E-10    0.126E-10
DAV:   4    -0.109138908301E+04    0.91677E-09   -0.14398E-09 10464   0.795E-11    0.121E-10
DAV:   5    -0.109138908302E+04   -0.10259E-08   -0.14313E-09 10464   0.877E-11    0.156E-10
DAV:   6    -0.109138908301E+04    0.88767E-09   -0.14193E-09 10464   0.699E-11    0.928E-11
DAV:   7    -0.109138908302E+04   -0.96770E-09   -0.14260E-09 10464   0.383E-11    0.109E-10
DAV:   8    -0.109138908302E+04    0.46566E-09   -0.14347E-09 10464   0.383E-11    0.997E-11
DAV:   9    -0.109138908302E+04   -0.33469E-09   -0.14133E-09 10464   0.358E-11    0.917E-11
DAV:  10    -0.109138908302E+04   -0.24738E-09   -0.14486E-09 10464   0.346E-11
  36 F= -.10913891E+04 E0= -.10912830E+04  d E =0.636913E+04
       N       E                     dE             d eps       ncg     rms          rms(c)
DAV:   1    -0.109138908301E+04    0.88767E-09   -0.13816E-09 10464   0.382E-11    0.108E-10
DAV:   2    -0.109138908302E+04   -0.11569E-08   -0.14334E-09 10464   0.230E-10    0.529E-10
DAV:   3    -0.109138908301E+04    0.10696E-08   -0.14376E-09 10464   0.267E-10    0.177E-10
DAV:   4    -0.109138908302E+04   -0.13169E-08   -0.14686E-09 10464   0.995E-11    0.124E-10
DAV:   5    -0.109138908302E+04    0.75670E-09   -0.14120E-09 10464   0.894E-11    0.181E-10
DAV:   6    -0.109138908302E+04    0.40018E-09   -0.14193E-09 10464   0.905E-11    0.962E-11
DAV:   7    -0.109138908302E+04   -0.84401E-09   -0.13995E-09 10464   0.456E-11    0.101E-10
DAV:   8    -0.109138908302E+04    0.43656E-09   -0.14348E-09 10464   0.386E-11    0.929E-11
DAV:   9    -0.109138908302E+04   -0.49477E-09   -0.14471E-09 10464   0.351E-11    0.101E-10
DAV:  10    -0.109138908302E+04    0.90949E-09   -0.14478E-09 10464   0.356E-11
  37 F= -.10913891E+04 E0= -.10912830E+04  d E =0.636913E+04
       N       E                     dE             d eps       ncg     rms          rms(c)
DAV:   1    -0.109138908302E+04    0.67666E-09   -0.14137E-09 10464   0.340E-11    0.890E-11
DAV:   2    -0.109138908302E+04   -0.14552E-09   -0.14166E-09 10464   0.152E-10    0.376E-10
DAV:   3    -0.109138908302E+04   -0.14552E-09   -0.14448E-09 10464   0.196E-10    0.168E-10
DAV:   4    -0.109138908302E+04   -0.64756E-09   -0.14306E-09 10464   0.990E-11    0.151E-10
DAV:   5    -0.109138908302E+04    0.11860E-08   -0.14483E-09 10464   0.809E-11    0.117E-10
DAV:   6    -0.109138908302E+04   -0.87311E-10   -0.14440E-09 10464   0.533E-11    0.971E-11
DAV:   7    -0.109138908302E+04    0.10914E-09   -0.14278E-09 10464   0.381E-11    0.104E-10
DAV:   8    -0.109138908301E+04    0.14552E-09   -0.14316E-09 10464   0.377E-11    0.926E-11
DAV:   9    -0.109138908302E+04   -0.10914E-08   -0.14443E-09 10464   0.375E-11    0.101E-10
DAV:  10    -0.109138908302E+04   -0.65484E-10   -0.14442E-09 10464   0.364E-11
  38 F= -.10913891E+04 E0= -.10912830E+04  d E =0.636913E+04
       N       E                     dE             d eps       ncg     rms          rms(c)
DAV:   1    -0.109138908302E+04    0.69122E-09   -0.14321E-09 10464   0.315E-11    0.961E-11
DAV:   2    -0.109138908302E+04   -0.33469E-09   -0.14090E-09 10464   0.213E-10    0.506E-10
DAV:   3    -0.109138908302E+04    0.56025E-09   -0.14513E-09 10464   0.253E-10    0.148E-10
DAV:   4    -0.109138908301E+04    0.24011E-09   -0.14360E-09 10464   0.998E-11    0.146E-10
DAV:   5    -0.109138908301E+04   -0.10186E-09   -0.14439E-09 10464   0.908E-11    0.126E-10
DAV:   6    -0.109138908302E+04   -0.71304E-09   -0.14185E-09 10464   0.613E-11    0.107E-10
DAV:   7    -0.109138908302E+04   -0.37107E-09   -0.14252E-09 10464   0.392E-11    0.976E-11
DAV:   8    -0.109138908302E+04    0.74215E-09   -0.14170E-09 10464   0.359E-11    0.948E-11
DAV:   9    -0.109138908302E+04    0.14552E-09   -0.14259E-09 10464   0.399E-11    0.101E-10
DAV:  10    -0.109138908302E+04   -0.61118E-09   -0.14118E-09 10464   0.349E-11
  39 F= -.10913891E+04 E0= -.10912830E+04  d E =0.636913E+04
       N       E                     dE             d eps       ncg     rms          rms(c)
DAV:   1    -0.109138908302E+04    0.72760E-10   -0.14387E-09 10464   0.325E-11    0.866E-11
DAV:   2    -0.109138908301E+04    0.94587E-10   -0.14690E-09 10464   0.879E-11    0.183E-10
DAV:   3    -0.109138908301E+04    0.00000E+00   -0.14367E-09 10464   0.137E-10    0.215E-10
DAV:   4    -0.109138908301E+04    0.36380E-10   -0.14495E-09 10464   0.116E-10    0.113E-10
DAV:   5    -0.109138908302E+04   -0.74215E-09   -0.14623E-09 10464   0.734E-11    0.128E-10
DAV:   6    -0.109138908302E+04   -0.34197E-09   -0.14488E-09 10464   0.648E-11    0.960E-11
DAV:   7    -0.109138908302E+04    0.93132E-09   -0.14361E-09 10464   0.403E-11    0.107E-10
DAV:   8    -0.109138908301E+04    0.31287E-09   -0.14500E-09 10464   0.392E-11    0.936E-11
DAV:   9    -0.109138908302E+04   -0.36380E-09   -0.14330E-09 10464   0.396E-11    0.868E-11
DAV:  10    -0.109138908302E+04   -0.85129E-09   -0.14313E-09 10464   0.323E-11
  40 F= -.10913891E+04 E0= -.10912830E+04  d E =0.636913E+04
       N       E                     dE             d eps       ncg     rms          rms(c)
DAV:   1    -0.109138908302E+04   -0.18190E-09   -0.14384E-09 10464   0.327E-11    0.957E-11
DAV:   2    -0.109138908302E+04   -0.21100E-09   -0.14406E-09 10464   0.196E-10    0.449E-10
DAV:   3    -0.109138908301E+04    0.50932E-09   -0.14479E-09 10464   0.227E-10    0.138E-10
DAV:   4    -0.109138908302E+04   -0.80036E-10   -0.14698E-09 10464   0.874E-11    0.121E-10
DAV:   5    -0.109138908302E+04   -0.89494E-09   -0.14030E-09 10464   0.849E-11    0.159E-10
DAV:   6    -0.109138908302E+04    0.50932E-09   -0.14761E-09 10464   0.742E-11    0.916E-11
DAV:   7    -0.109138908301E+04    0.48749E-09   -0.14425E-09 10464   0.442E-11    0.996E-11
DAV:   8    -0.109138908302E+04   -0.11787E-08   -0.14441E-09 10464   0.375E-11    0.106E-10
DAV:   9    -0.109138908302E+04    0.62573E-09   -0.14380E-09 10464   0.345E-11    0.854E-11
DAV:  10    -0.109138908302E+04   -0.32742E-09   -0.14286E-09 10464   0.366E-11
  41 F= -.10913891E+04 E0= -.10912830E+04  d E =0.636913E+04
       N       E                     dE             d eps       ncg     rms          rms(c)
DAV:   1    -0.109138908302E+04    0.21828E-10   -0.14380E-09 10464   0.354E-11    0.972E-11
DAV:   2    -0.109138908302E+04   -0.28376E-09   -0.14243E-09 10464   0.140E-10    0.294E-10
DAV:   3    -0.109138908302E+04   -0.34925E-09   -0.14623E-09 10464   0.183E-10    0.206E-10
DAV:   4    -0.109138908302E+04    0.84401E-09   -0.14549E-09 10464   0.106E-10    0.111E-10
DAV:   5    -0.109138908302E+04    0.18917E-09   -0.14146E-09 10464   0.802E-11    0.128E-10
DAV:   6    -0.109138908302E+04   -0.29104E-10   -0.14095E-09 10464   0.681E-11    0.994E-11
DAV:   7    -0.109138908302E+04   -0.36380E-09   -0.14264E-09 10464   0.378E-11    0.837E-11
DAV:   8    -0.109138908302E+04   -0.29104E-09   -0.14444E-09 10464   0.365E-11    0.964E-11
DAV:   9    -0.109138908301E+04    0.11350E-08   -0.14521E-09 10464   0.350E-11    0.919E-11
DAV:  10    -0.109138908302E+04   -0.67666E-09   -0.14427E-09 10464   0.347E-11
  42 F= -.10913891E+04 E0= -.10912830E+04  d E =0.636913E+04
       N       E                     dE             d eps       ncg     rms          rms(c)
DAV:   1    -0.109138908301E+04   -0.21828E-10   -0.14176E-09 10464   0.344E-11    0.835E-11
DAV:   2    -0.109138908301E+04   -0.23283E-09   -0.14460E-09 10464   0.119E-10    0.251E-10
DAV:   3    -0.109138908302E+04   -0.73487E-09   -0.14170E-09 10464   0.161E-10    0.195E-10
DAV:   4    -0.109138908301E+04    0.98225E-09   -0.14329E-09 10464   0.102E-10    0.124E-10
DAV:   5    -0.109138908302E+04   -0.10405E-08   -0.14164E-09 10464   0.823E-11    0.134E-10
DAV:   6    -0.109138908302E+04   -0.42201E-09   -0.14335E-09 10464   0.679E-11    0.107E-10
DAV:   7    -0.109138908302E+04    0.40745E-09   -0.14254E-09 10416   0.347E-11    0.958E-11
DAV:   8    -0.109138908302E+04   -0.50932E-10   -0.14207E-09 10320   0.374E-11    0.104E-10
DAV:   9    -0.109138908301E+04    0.82946E-09   -0.14305E-09 10320   0.350E-11    0.100E-10
DAV:  10    -0.109138908302E+04   -0.24011E-09   -0.14628E-09 10320   0.323E-11
  43 F= -.10913891E+04 E0= -.10912830E+04  d E =0.636913E+04
       N       E                     dE             d eps       ncg     rms          rms(c)
DAV:   1    -0.109138908301E+04   -0.36380E-10   -0.14359E-09 10320   0.330E-11    0.838E-11
DAV:   2    -0.109138908302E+04   -0.86584E-09   -0.14397E-09 10320   0.119E-10    0.263E-10
DAV:   3    -0.109138908302E+04    0.18917E-09   -0.14179E-09 10320   0.162E-10    0.183E-10
DAV:   4    -0.109138908301E+04    0.70577E-09   -0.14341E-09 10320   0.949E-11    0.964E-11
DAV:   5    -0.109138908301E+04    0.37835E-09   -0.14480E-09 10320   0.542E-11    0.104E-10
DAV:   6    -0.109138908301E+04   -0.39290E-09   -0.14040E-09 10320   0.579E-11    0.100E-10
DAV:   7    -0.109138908302E+04   -0.11132E-08   -0.14453E-09 10320   0.472E-11    0.917E-11
DAV:   8    -0.109138908302E+04    0.32014E-09   -0.14359E-09 10320   0.391E-11    0.967E-11
DAV:   9    -0.109138908302E+04   -0.47294E-09   -0.14291E-09 10320   0.330E-11    0.994E-11
DAV:  10    -0.109138908302E+04    0.11569E-08   -0.14364E-09 10320   0.307E-11
  44 F= -.10913891E+04 E0= -.10912830E+04  d E =0.636913E+04
       N       E                     dE             d eps       ncg     rms          rms(c)
DAV:   1    -0.109138908302E+04    0.47294E-09   -0.14312E-09 10320   0.319E-11    0.101E-10
DAV:   2    -0.109138908302E+04    0.80036E-10   -0.14292E-09 10320   0.204E-10    0.458E-10
DAV:   3    -0.109138908302E+04    0.30559E-09   -0.14270E-09 10320   0.241E-10    0.189E-10
DAV:   4    -0.109138908302E+04   -0.16007E-09   -0.14251E-09 10320   0.102E-10    0.130E-10
DAV:   5    -0.109138908302E+04    0.34925E-09   -0.14248E-09 10320   0.920E-11    0.160E-10
DAV:   6    -0.109138908302E+04   -0.63301E-09   -0.14075E-09 10320   0.832E-11    0.116E-10
DAV:   7    -0.109138908302E+04    0.79308E-09   -0.14150E-09 10320   0.447E-11    0.982E-11
DAV:   8    -0.109138908302E+04   -0.58208E-09   -0.14389E-09 10320   0.405E-11    0.953E-11
DAV:   9    -0.109138908302E+04   -0.17462E-09   -0.14181E-09 10320   0.354E-11    0.839E-11
DAV:  10    -0.109138908302E+04    0.00000E+00   -0.14440E-09 10320   0.383E-11
  45 F= -.10913891E+04 E0= -.10912830E+04  d E =0.636913E+04
       N       E                     dE             d eps       ncg     rms          rms(c)
DAV:   1    -0.109138908302E+04   -0.21100E-09   -0.14179E-09 10320   0.362E-11    0.873E-11
DAV:   2    -0.109138908301E+04    0.11059E-08   -0.14430E-09 10320   0.929E-11    0.182E-10
DAV:   3    -0.109138908302E+04   -0.96043E-09   -0.14533E-09 10320   0.143E-10    0.209E-10
DAV:   4    -0.109138908301E+04    0.12733E-08   -0.14682E-09 10320   0.111E-10    0.105E-10
DAV:   5    -0.109138908302E+04   -0.88767E-09   -0.14072E-09 10320   0.479E-11    0.106E-10
DAV:   6    -0.109138908302E+04   -0.33469E-09   -0.13801E-09 10320   0.585E-11    0.120E-10
DAV:   7    -0.109138908302E+04    0.45839E-09   -0.14448E-09 10320   0.542E-11    0.960E-11
DAV:   8    -0.109138908302E+04    0.72760E-11   -0.14402E-09 10320   0.420E-11    0.957E-11
DAV:   9    -0.109138908302E+04    0.13097E-09   -0.14328E-09 10320   0.364E-11    0.825E-11
DAV:  10    -0.109138908301E+04    0.22555E-09   -0.14471E-09 10320   0.305E-11
  46 F= -.10913891E+04 E0= -.10912830E+04  d E =0.636913E+04
       N       E                     dE             d eps       ncg     rms          rms(c)
DAV:   1    -0.109138908302E+04   -0.21100E-09   -0.14326E-09 10320   0.348E-11    0.987E-11
DAV:   2    -0.109138908302E+04   -0.38563E-09   -0.14153E-09 10320   0.209E-10    0.496E-10
DAV:   3    -0.109138908302E+04   -0.13097E-09   -0.14678E-09 10320   0.242E-10    0.145E-10
DAV:   4    -0.109138908301E+04    0.12442E-08   -0.14557E-09 10320   0.931E-11    0.161E-10
DAV:   5    -0.109138908302E+04   -0.15498E-08   -0.14149E-09 10320   0.952E-11    0.136E-10
DAV:   6    -0.109138908302E+04    0.34925E-09   -0.14056E-09 10320   0.721E-11    0.106E-10
DAV:   7    -0.109138908302E+04    0.34925E-09   -0.14666E-09 10320   0.422E-11    0.983E-11
DAV:   8    -0.109138908302E+04   -0.33469E-09   -0.14146E-09 10320   0.372E-11    0.100E-10
DAV:   9    -0.109138908302E+04   -0.32014E-09   -0.14389E-09 10320   0.339E-11    0.941E-11
DAV:  10    -0.109138908301E+04    0.13679E-08   -0.14242E-09 10320   0.352E-11
  47 F= -.10913891E+04 E0= -.10912830E+04  d E =0.636913E+04
       N       E                     dE             d eps       ncg     rms          rms(c)
DAV:   1    -0.109138908302E+04    0.66211E-09   -0.14316E-09 10320   0.376E-11    0.926E-11
DAV:   2    -0.109138908302E+04   -0.30559E-09   -0.14102E-09 10320   0.134E-10    0.292E-10
DAV:   3    -0.109138908302E+04    0.40745E-09   -0.14433E-09 10320   0.173E-10    0.175E-10
DAV:   4    -0.109138908302E+04   -0.42928E-09   -0.14618E-09 10320   0.101E-10    0.132E-10
DAV:   5    -0.109138908301E+04    0.95315E-09   -0.14778E-09 10320   0.793E-11    0.125E-10
DAV:   6    -0.109138908302E+04   -0.64756E-09   -0.14514E-09 10320   0.636E-11    0.113E-10
DAV:   7    -0.109138908302E+04    0.36380E-09   -0.14319E-09 10320   0.419E-11    0.949E-11
DAV:   8    -0.109138908302E+04   -0.61846E-09   -0.14495E-09 10320   0.391E-11    0.997E-11
DAV:   9    -0.109138908302E+04    0.58208E-10   -0.13982E-09 10320   0.352E-11    0.906E-11
DAV:  10    -0.109138908302E+04    0.42201E-09   -0.14454E-09 10320   0.320E-11
  48 F= -.10913891E+04 E0= -.10912830E+04  d E =0.636913E+04
       N       E                     dE             d eps       ncg     rms          rms(c)
DAV:   1    -0.109138908302E+04    0.31287E-09   -0.14232E-09 10320   0.354E-11    0.876E-11
DAV:   2    -0.109138908301E+04    0.57480E-09   -0.14046E-09 10320   0.923E-11    0.195E-10
DAV:   3    -0.109138908302E+04   -0.22555E-09   -0.14022E-09 10320   0.149E-10    0.230E-10
DAV:   4    -0.109138908302E+04   -0.39290E-09   -0.14860E-09 10320   0.118E-10    0.100E-10
DAV:   5    -0.109138908302E+04   -0.10477E-08   -0.14269E-09 10320   0.601E-11    0.115E-10
DAV:   6    -0.109138908302E+04    0.12587E-08   -0.14814E-09 10320   0.663E-11    0.123E-10
DAV:   7    -0.109138908302E+04   -0.87311E-10   -0.14343E-09 10320   0.476E-11    0.973E-11
DAV:   8    -0.109138908301E+04    0.34197E-09   -0.14545E-09 10320   0.349E-11    0.887E-11
DAV:   9    -0.109138908301E+04    0.87311E-10   -0.14381E-09 10320   0.359E-11    0.100E-10
DAV:  10    -0.109138908302E+04   -0.12733E-08   -0.14322E-09 10320   0.369E-11
  49 F= -.10913891E+04 E0= -.10912830E+04  d E =0.636913E+04
       N       E                     dE             d eps       ncg     rms          rms(c)
DAV:   1    -0.109138908302E+04   -0.29831E-09   -0.14066E-09 10320   0.354E-11    0.885E-11
DAV:   2    -0.109138908302E+04   -0.44383E-09   -0.14275E-09 10320   0.912E-11    0.203E-10
DAV:   3    -0.109138908302E+04    0.46566E-09   -0.14498E-09 10320   0.123E-10    0.170E-10
DAV:   4    -0.109138908301E+04    0.20373E-09   -0.14151E-09 10320   0.103E-10    0.108E-10
DAV:   5    -0.109138908301E+04   -0.72760E-11   -0.14378E-09 10320   0.563E-11    0.100E-10
DAV:   6    -0.109138908302E+04   -0.76398E-09   -0.14286E-09 10320   0.458E-11    0.976E-11
DAV:   7    -0.109138908302E+04    0.19645E-09   -0.14406E-09 10320   0.430E-11    0.986E-11
DAV:   8    -0.109138908301E+04    0.82218E-09   -0.14278E-09 10320   0.344E-11    0.987E-11
DAV:   9    -0.109138908301E+04    0.72760E-10   -0.14602E-09 10320   0.372E-11    0.972E-11
DAV:  10    -0.109138908301E+04   -0.28376E-09   -0.14238E-09 10320   0.339E-11
  50 F= -.10913891E+04 E0= -.10912830E+04  d E =0.636913E+04
       N       E                     dE             d eps       ncg     rms          rms(c)
DAV:   1    -0.109138908302E+04   -0.13169E-08   -0.14203E-09 10320   0.323E-11    0.974E-11
DAV:   2    -0.109138908302E+04    0.51659E-09   -0.14053E-09 10320   0.187E-10    0.427E-10
DAV:   3    -0.109138908302E+04   -0.72760E-10   -0.14965E-09 10320   0.213E-10    0.147E-10
DAV:   4    -0.109138908302E+04    0.21828E-09   -0.14183E-09 10320   0.872E-11    0.124E-10
DAV:   5    -0.109138908302E+04   -0.73487E-09   -0.14301E-09 10320   0.844E-11    0.137E-10
DAV:   6    -0.109138908302E+04    0.53114E-09   -0.14237E-09 10320   0.653E-11    0.973E-11
DAV:   7    -0.109138908302E+04   -0.69122E-09   -0.14565E-09 10320   0.374E-11    0.102E-10
DAV:   8    -0.109138908301E+04    0.13461E-08   -0.14427E-09 10320   0.399E-11    0.110E-10
DAV:   9    -0.109138908302E+04   -0.34925E-09   -0.14459E-09 10320   0.409E-11    0.994E-11
DAV:  10    -0.109138908302E+04   -0.52387E-09   -0.14797E-09 10320   0.343E-11
  51 F= -.10913891E+04 E0= -.10912830E+04  d E =0.636913E+04
       N       E                     dE             d eps       ncg     rms          rms(c)
DAV:   1    -0.109138908301E+04    0.33469E-09   -0.14302E-09 10320   0.342E-11    0.959E-11
DAV:   2    -0.109138908302E+04   -0.77853E-09   -0.14237E-09 10320   0.106E-10    0.213E-10
DAV:   3    -0.109138908302E+04    0.61118E-09   -0.14264E-09 10320   0.151E-10    0.214E-10
DAV:   4    -0.109138908302E+04   -0.90949E-09   -0.14227E-09 10320   0.117E-10    0.126E-10
DAV:   5    -0.109138908302E+04    0.50932E-10   -0.14465E-09 10320   0.617E-11    0.103E-10
DAV:   6    -0.109138908302E+04    0.80036E-09   -0.14999E-09 10320   0.494E-11    0.974E-11
DAV:   7    -0.109138908302E+04   -0.96770E-09   -0.14239E-09 10320   0.453E-11    0.944E-11
DAV:   8    -0.109138908302E+04    0.56025E-09   -0.14451E-09 10320   0.399E-11    0.965E-11
DAV:   9    -0.109138908302E+04    0.50204E-09   -0.14572E-09 10320   0.387E-11    0.943E-11
DAV:  10    -0.109138908302E+04   -0.75670E-09   -0.14492E-09 10320   0.370E-11
  52 F= -.10913891E+04 E0= -.10912830E+04  d E =0.636913E+04
       N       E                     dE             d eps       ncg     rms          rms(c)
DAV:   1    -0.109138908302E+04   -0.88039E-09   -0.13968E-09 10320   0.337E-11    0.917E-11
DAV:   2    -0.109138908302E+04    0.13824E-09   -0.14249E-09 10320   0.103E-10    0.227E-10
DAV:   3    -0.109138908301E+04    0.76398E-09   -0.14361E-09 10320   0.159E-10    0.224E-10
DAV:   4    -0.109138908302E+04   -0.47294E-09   -0.14222E-09 10320   0.124E-10    0.103E-10
DAV:   5    -0.109138908302E+04   -0.16735E-09   -0.14192E-09 10320   0.740E-11    0.160E-10
DAV:   6    -0.109138908301E+04    0.89494E-09   -0.14499E-09 10320   0.776E-11    0.113E-10
DAV:   7    -0.109138908302E+04   -0.33469E-09   -0.14386E-09 10320   0.447E-11    0.924E-11
DAV:   8    -0.109138908301E+04    0.21828E-09   -0.14315E-09 10320   0.398E-11    0.941E-11
DAV:   9    -0.109138908302E+04   -0.10259E-08   -0.14403E-09 10320   0.320E-11    0.943E-11
DAV:  10    -0.109138908302E+04    0.60390E-09   -0.14185E-09 10320   0.371E-11
  53 F= -.10913891E+04 E0= -.10912830E+04  d E =0.636913E+04
       N       E                     dE             d eps       ncg     rms          rms(c)
DAV:   1    -0.109138908302E+04    0.41473E-09   -0.14488E-09 10320   0.343E-11    0.902E-11
DAV:   2    -0.109138908301E+04    0.64756E-09   -0.14236E-09 10320   0.140E-10    0.332E-10
DAV:   3    -0.109138908302E+04   -0.98953E-09   -0.14812E-09 10320   0.187E-10    0.198E-10
DAV:   4    -0.109138908302E+04    0.50932E-10   -0.14207E-09 10320   0.102E-10    0.106E-10
DAV:   5    -0.109138908301E+04    0.90222E-09   -0.14545E-09 10320   0.638E-11    0.147E-10
DAV:   6    -0.109138908301E+04    0.43656E-10   -0.14581E-09 10320   0.689E-11    0.918E-11
DAV:   7    -0.109138908302E+04   -0.99681E-09   -0.14365E-09 10320   0.436E-11    0.928E-11
DAV:   8    -0.109138908302E+04    0.35652E-09   -0.14137E-09 10224   0.336E-11    0.951E-11
DAV:   9    -0.109138908302E+04    0.35652E-09   -0.14266E-09 10176   0.370E-11    0.903E-11
DAV:  10    -0.109138908302E+04   -0.29104E-09   -0.14315E-09 10176   0.321E-11
  54 F= -.10913891E+04 E0= -.10912830E+04  d E =0.636913E+04
       N       E                     dE             d eps       ncg     rms          rms(c)
DAV:   1    -0.109138908301E+04    0.56025E-09   -0.14169E-09 10176   0.335E-11    0.886E-11
DAV:   2    -0.109138908301E+04   -0.33469E-09   -0.14382E-09 10176   0.985E-11    0.217E-10
DAV:   3    -0.109138908302E+04   -0.11205E-08   -0.14325E-09 10176   0.146E-10    0.207E-10
DAV:   4    -0.109138908302E+04    0.21100E-09   -0.14757E-09 10176   0.117E-10    0.112E-10
DAV:   5    -0.109138908301E+04    0.98953E-09   -0.14366E-09 10176   0.694E-11    0.146E-10
DAV:   6    -0.109138908302E+04   -0.52387E-09   -0.14489E-09 10176   0.746E-11    0.970E-11
DAV:   7    -0.109138908301E+04    0.32014E-09   -0.14283E-09 10176   0.396E-11    0.892E-11
DAV:   8    -0.109138908302E+04   -0.53842E-09   -0.14274E-09 10176   0.341E-11    0.923E-11
DAV:   9    -0.109138908302E+04    0.18917E-09   -0.14334E-09 10176   0.343E-11    0.927E-11
DAV:  10    -0.109138908302E+04   -0.76398E-09   -0.14376E-09 10176   0.339E-11
  55 F= -.10913891E+04 E0= -.10912830E+04  d E =0.636913E+04
       N       E                     dE             d eps       ncg     rms          rms(c)
DAV:   1    -0.109138908302E+04    0.87311E-10   -0.14411E-09 10176   0.353E-11    0.101E-10
DAV:   2    -0.109138908301E+04    0.26193E-09   -0.14115E-09 10176   0.114E-10    0.215E-10
DAV:   3    -0.109138908302E+04   -0.38563E-09   -0.14471E-09 10176   0.164E-10    0.237E-10
DAV:   4    -0.109138908302E+04   -0.73487E-09   -0.14117E-09 10176   0.122E-10    0.135E-10
DAV:   5    -0.109138908302E+04   -0.11642E-09   -0.14252E-09 10176   0.869E-11    0.132E-10
DAV:   6    -0.109138908302E+04    0.77853E-09   -0.14535E-09 10176   0.714E-11    0.959E-11
DAV:   7    -0.109138908302E+04    0.43656E-09   -0.14278E-09 10128   0.402E-11    0.991E-11
DAV:   8    -0.109138908302E+04   -0.21828E-10   -0.14237E-09  9936   0.358E-11    0.935E-11
DAV:   9    -0.109138908302E+04   -0.29104E-09   -0.14254E-09  9888   0.308E-11    0.924E-11
DAV:  10    -0.109138908302E+04    0.21100E-09   -0.14130E-09  9888   0.321E-11
  56 F= -.10913891E+04 E0= -.10912830E+04  d E =0.636913E+04
       N       E                     dE             d eps       ncg     rms          rms(c)
DAV:   1    -0.109138908302E+04   -0.81491E-09   -0.13902E-09  9888   0.328E-11    0.103E-10
DAV:   2    -0.109138908302E+04    0.11642E-09   -0.14089E-09  9888   0.190E-10    0.455E-10
DAV:   3    -0.109138908302E+04    0.41473E-09   -0.14672E-09  9888   0.223E-10    0.143E-10
DAV:   4    -0.109138908302E+04   -0.72760E-11   -0.14396E-09  9888   0.845E-11    0.130E-10
DAV:   5    -0.109138908302E+04   -0.65484E-10   -0.14443E-09  9888   0.856E-11    0.141E-10
DAV:   6    -0.109138908302E+04    0.62573E-09   -0.13894E-09  9888   0.739E-11    0.986E-11
DAV:   7    -0.109138908302E+04   -0.14552E-10   -0.14338E-09  9888   0.432E-11    0.926E-11
DAV:   8    -0.109138908302E+04   -0.10114E-08   -0.14083E-09  9888   0.373E-11    0.104E-10
DAV:   9    -0.109138908302E+04    0.21828E-09   -0.14422E-09  9888   0.351E-11    0.935E-11
DAV:  10    -0.109138908302E+04    0.42201E-09   -0.14513E-09  9888   0.338E-11
  57 F= -.10913891E+04 E0= -.10912830E+04  d E =0.636913E+04
       N       E                     dE             d eps       ncg     rms          rms(c)
DAV:   1    -0.109138908302E+04   -0.32014E-09   -0.14471E-09  9888   0.368E-11    0.925E-11
DAV:   2    -0.109138908302E+04    0.10259E-08   -0.14101E-09  9888   0.850E-11    0.167E-10
DAV:   3    -0.109138908302E+04   -0.21828E-09   -0.14319E-09  9888   0.120E-10    0.192E-10
DAV:   4    -0.109138908302E+04   -0.43656E-10   -0.14782E-09  9888   0.109E-10    0.987E-11
DAV:   5    -0.109138908301E+04    0.46566E-09   -0.14115E-09  9888   0.692E-11    0.131E-10
DAV:   6    -0.109138908302E+04   -0.24011E-09   -0.14365E-09  9888   0.680E-11    0.996E-11
DAV:   7    -0.109138908302E+04    0.72760E-10   -0.14356E-09  9888   0.400E-11    0.922E-11
DAV:   8    -0.109138908302E+04   -0.13097E-09   -0.14104E-09  9888   0.369E-11    0.983E-11
DAV:   9    -0.109138908302E+04    0.11642E-09   -0.14513E-09  9888   0.378E-11    0.902E-11
DAV:  10    -0.109138908302E+04   -0.29104E-10   -0.14249E-09  9888   0.380E-11
  58 F= -.10913891E+04 E0= -.10912830E+04  d E =0.636913E+04
       N       E                     dE             d eps       ncg     rms          rms(c)
DAV:   1    -0.109138908302E+04   -0.73487E-09   -0.14326E-09  9888   0.366E-11    0.939E-11
DAV:   2    -0.109138908302E+04    0.37835E-09   -0.14388E-09  9888   0.141E-10    0.329E-10
DAV:   3    -0.109138908302E+04   -0.16007E-09   -0.14517E-09  9888   0.183E-10    0.158E-10
DAV:   4    -0.109138908301E+04    0.65484E-09   -0.14742E-09  9888   0.108E-10    0.146E-10
DAV:   5    -0.109138908302E+04   -0.54570E-09   -0.14214E-09  9888   0.938E-11    0.134E-10
DAV:   6    -0.109138908301E+04    0.66939E-09   -0.14183E-09  9888   0.600E-11    0.993E-11
DAV:   7    -0.109138908302E+04   -0.82946E-09   -0.14261E-09  9888   0.412E-11    0.996E-11
DAV:   8    -0.109138908302E+04    0.54570E-09   -0.14101E-09  9888   0.356E-11    0.986E-11
DAV:   9    -0.109138908302E+04   -0.58935E-09   -0.14440E-09  9888   0.370E-11    0.913E-11
DAV:  10    -0.109138908302E+04    0.21828E-09   -0.14544E-09  9888   0.366E-11
  59 F= -.10913891E+04 E0= -.10912830E+04  d E =0.636913E+04
       N       E                     dE             d eps       ncg     rms          rms(c)
DAV:   1    -0.109138908302E+04   -0.18190E-09   -0.14463E-09  9888   0.333E-11    0.875E-11
DAV:   2    -0.109138908302E+04   -0.34197E-09   -0.14504E-09  9888   0.123E-10    0.272E-10
DAV:   3    -0.109138908302E+04    0.11205E-08   -0.14819E-09  9888   0.164E-10    0.164E-10
DAV:   4    -0.109138908301E+04    0.26921E-09   -0.14134E-09  9888   0.943E-11    0.118E-10
DAV:   5    -0.109138908302E+04   -0.94587E-09   -0.14529E-09  9888   0.733E-11    0.131E-10
DAV:   6    -0.109138908302E+04   -0.15280E-09   -0.14601E-09  9888   0.658E-11    0.975E-11
DAV:   7    -0.109138908302E+04   -0.58208E-10   -0.14515E-09  9888   0.413E-11    0.962E-11
DAV:   8    -0.109138908302E+04    0.10041E-08   -0.14540E-09  9888   0.391E-11    0.945E-11
DAV:   9    -0.109138908302E+04   -0.48749E-09   -0.14533E-09  9888   0.325E-11    0.854E-11
DAV:  10    -0.109138908302E+04    0.26921E-09   -0.14281E-09  9888   0.331E-11
  60 F= -.10913891E+04 E0= -.10912830E+04  d E =0.636913E+04
       N       E                     dE             d eps       ncg     rms          rms(c)
DAV:   1    -0.109138908302E+04   -0.40745E-09   -0.14249E-09  9888   0.354E-11    0.846E-11
DAV:   2    -0.109138908302E+04    0.78580E-09   -0.14418E-09  9888   0.122E-10    0.278E-10
DAV:   3    -0.109138908302E+04   -0.65484E-09   -0.14702E-09  9888   0.159E-10    0.162E-10
DAV:   4    -0.109138908301E+04    0.81491E-09   -0.14387E-09  9888   0.858E-11    0.116E-10
DAV:   5    -0.109138908302E+04   -0.14552E-09   -0.14299E-09  9888   0.742E-11    0.127E-10
DAV:   6    -0.109138908302E+04   -0.42928E-09   -0.14418E-09  9888   0.707E-11    0.934E-11
DAV:   7    -0.109138908302E+04   -0.17462E-09   -0.14604E-09  9888   0.424E-11    0.868E-11
DAV:   8    -0.109138908302E+04   -0.47294E-09   -0.14512E-09  9888   0.351E-11    0.931E-11
DAV:   9    -0.109138908302E+04    0.25466E-09   -0.14445E-09  9888   0.359E-11    0.859E-11
DAV:  10    -0.109138908301E+04    0.10405E-08   -0.14502E-09  9888   0.339E-11
  61 F= -.10913891E+04 E0= -.10912830E+04  d E =0.636913E+04
       N       E                     dE             d eps       ncg     rms          rms(c)
DAV:   1    -0.109138908302E+04    0.11642E-09   -0.14290E-09  9888   0.404E-11    0.990E-11
DAV:   2    -0.109138908302E+04    0.42928E-09   -0.14412E-09  9888   0.200E-10    0.511E-10
DAV:   3    -0.109138908302E+04   -0.67666E-09   -0.14728E-09  9888   0.235E-10    0.128E-10
DAV:   4    -0.109138908302E+04    0.14552E-09   -0.14393E-09  9888   0.970E-11    0.138E-10
DAV:   5    -0.109138908301E+04    0.96770E-09   -0.14630E-09  9888   0.101E-10    0.119E-10
DAV:   6    -0.109138908302E+04   -0.14770E-08   -0.14387E-09  9888   0.641E-11    0.114E-10
DAV:   7    -0.109138908302E+04    0.16007E-09   -0.14256E-09  9888   0.418E-11    0.105E-10
DAV:   8    -0.109138908301E+04    0.13388E-08   -0.14477E-09  9888   0.350E-11    0.102E-10
DAV:   9    -0.109138908302E+04   -0.73487E-09   -0.14184E-09  9888   0.366E-11    0.953E-11
DAV:  10    -0.109138908302E+04    0.34197E-09   -0.14399E-09  9888   0.357E-11
  62 F= -.10913891E+04 E0= -.10912830E+04  d E =0.636913E+04
       N       E                     dE             d eps       ncg     rms          rms(c)
DAV:   1    -0.109138908302E+04    0.34197E-09   -0.14453E-09  9888   0.320E-11    0.896E-11
DAV:   2    -0.109138908302E+04    0.32742E-09   -0.14223E-09  9888   0.102E-10    0.234E-10
DAV:   3    -0.109138908301E+04    0.14552E-10   -0.14484E-09  9888   0.157E-10    0.228E-10
DAV:   4    -0.109138908302E+04   -0.15280E-09   -0.14745E-09  9888   0.118E-10    0.110E-10
DAV:   5    -0.109138908302E+04   -0.10114E-08   -0.14347E-09  9888   0.613E-11    0.134E-10
DAV:   6    -0.109138908302E+04    0.47294E-09   -0.14282E-09  9888   0.706E-11    0.944E-11
DAV:   7    -0.109138908302E+04    0.53114E-09   -0.14391E-09  9888   0.424E-11    0.902E-11
DAV:   8    -0.109138908302E+04   -0.48749E-09   -0.14220E-09  9888   0.355E-11    0.918E-11
DAV:   9    -0.109138908302E+04    0.37107E-09   -0.14084E-09  9888   0.369E-11    0.960E-11
DAV:  10    -0.109138908302E+04   -0.36380E-10   -0.14054E-09  9888   0.352E-11
  63 F= -.10913891E+04 E0= -.10912830E+04  d E =0.636913E+04
       N       E                     dE             d eps       ncg     rms          rms(c)
DAV:   1    -0.109138908302E+04   -0.86584E-09   -0.14499E-09  9888   0.355E-11    0.865E-11
DAV:   2    -0.109138908302E+04    0.39290E-09   -0.14422E-09  9888   0.191E-10    0.431E-10
DAV:   3    -0.109138908302E+04    0.58208E-09   -0.14511E-09  9888   0.222E-10    0.147E-10
DAV:   4    -0.109138908302E+04   -0.15280E-09   -0.14514E-09  9888   0.835E-11    0.106E-10
DAV:   5    -0.109138908302E+04   -0.55297E-09   -0.14293E-09  9888   0.738E-11    0.149E-10
DAV:   6    -0.109138908302E+04    0.18190E-09   -0.13946E-09  9888   0.746E-11    0.920E-11
DAV:   7    -0.109138908302E+04    0.42201E-09   -0.14485E-09  9888   0.379E-11    0.948E-11
DAV:   8    -0.109138908302E+04   -0.87311E-10   -0.14485E-09  9888   0.362E-11    0.881E-11
DAV:   9    -0.109138908302E+04   -0.67666E-09   -0.14116E-09  9888   0.353E-11    0.908E-11
DAV:  10    -0.109138908301E+04    0.12078E-08   -0.14247E-09  9888   0.308E-11
  64 F= -.10913891E+04 E0= -.10912830E+04  d E =0.636913E+04
       N       E                     dE             d eps       ncg     rms          rms(c)
DAV:   1    -0.109138908302E+04    0.13097E-09   -0.14412E-09  9888   0.368E-11    0.106E-10
DAV:   2    -0.109138908302E+04    0.62573E-09   -0.14448E-09  9888   0.186E-10    0.418E-10
DAV:   3    -0.109138908302E+04    0.65484E-10   -0.14284E-09  9888   0.226E-10    0.201E-10
DAV:   4    -0.109138908302E+04   -0.27649E-09   -0.14719E-09  9888   0.107E-10    0.122E-10
DAV:   5    -0.109138908302E+04   -0.37835E-09   -0.14301E-09  9888   0.902E-11    0.184E-10
DAV:   6    -0.109138908302E+04   -0.21828E-09   -0.14133E-09  9888   0.837E-11    0.968E-11
DAV:   7    -0.109138908302E+04    0.72760E-09   -0.14283E-09  9888   0.421E-11    0.103E-10
DAV:   8    -0.109138908302E+04   -0.43656E-09   -0.14266E-09  9888   0.366E-11    0.960E-11
DAV:   9    -0.109138908302E+04    0.69122E-09   -0.14248E-09  9888   0.328E-11    0.970E-11
DAV:  10    -0.109138908302E+04   -0.11642E-09   -0.14439E-09  9888   0.338E-11
  65 F= -.10913891E+04 E0= -.10912830E+04  d E =0.636913E+04
       N       E                     dE             d eps       ncg     rms          rms(c)
DAV:   1    -0.109138908301E+04    0.94587E-10   -0.14115E-09  9888   0.358E-11    0.914E-11
DAV:   2    -0.109138908302E+04   -0.51659E-09   -0.14513E-09  9888   0.101E-10    0.212E-10
DAV:   3    -0.109138908302E+04    0.45111E-09   -0.13967E-09  9888   0.154E-10    0.219E-10
DAV:   4    -0.109138908302E+04   -0.24011E-09   -0.14198E-09  9888   0.118E-10    0.997E-11
DAV:   5    -0.109138908302E+04   -0.79308E-09   -0.14107E-09  9888   0.750E-11    0.144E-10
DAV:   6    -0.109138908302E+04    0.64756E-09   -0.14511E-09  9888   0.789E-11    0.989E-11
DAV:   7    -0.109138908302E+04   -0.58208E-10   -0.14254E-09  9888   0.465E-11    0.107E-10
DAV:   8    -0.109138908302E+04   -0.68394E-09   -0.14285E-09  9888   0.394E-11    0.997E-11
DAV:   9    -0.109138908302E+04    0.10041E-08   -0.14468E-09  9888   0.345E-11    0.881E-11
DAV:  10    -0.109138908302E+04   -0.72760E-10   -0.14271E-09  9888   0.357E-11
  66 F= -.10913891E+04 E0= -.10912830E+04  d E =0.636913E+04
       N       E                     dE             d eps       ncg     rms          rms(c)
DAV:   1    -0.109138908302E+04   -0.71304E-09   -0.14035E-09  9888   0.412E-11    0.102E-10
DAV:   2    -0.109138908302E+04    0.66939E-09   -0.14531E-09  9888   0.138E-10    0.307E-10
DAV:   3    -0.109138908302E+04   -0.86584E-09   -0.14291E-09  9888   0.184E-10    0.222E-10
DAV:   4    -0.109138908302E+04   -0.14552E-10   -0.13981E-09  9888   0.120E-10    0.102E-10
DAV:   5    -0.109138908301E+04    0.15643E-08   -0.14218E-09  9888   0.652E-11    0.123E-10
DAV:   6    -0.109138908302E+04   -0.12224E-08   -0.14702E-09  9888   0.759E-11    0.143E-10
DAV:   7    -0.109138908302E+04    0.32742E-09   -0.14421E-09  9888   0.561E-11    0.981E-11
DAV:   8    -0.109138908302E+04   -0.39290E-09   -0.14041E-09  9888   0.382E-11    0.942E-11
DAV:   9    -0.109138908302E+04    0.66939E-09   -0.14088E-09  9888   0.389E-11    0.978E-11
DAV:  10    -0.109138908302E+04   -0.87311E-10   -0.14305E-09  9888   0.335E-11
  67 F= -.10913891E+04 E0= -.10912830E+04  d E =0.636913E+04
       N       E                     dE             d eps       ncg     rms          rms(c)
DAV:   1    -0.109138908302E+04   -0.85129E-09   -0.14486E-09  9888   0.316E-11    0.950E-11
DAV:   2    -0.109138908302E+04    0.77853E-09   -0.14158E-09  9888   0.190E-10    0.455E-10
DAV:   3    -0.109138908302E+04   -0.90949E-09   -0.14400E-09  9888   0.225E-10    0.163E-10
DAV:   4    -0.109138908302E+04    0.10405E-08   -0.14149E-09  9888   0.945E-11    0.123E-10
DAV:   5    -0.109138908302E+04   -0.32014E-09   -0.14410E-09  9888   0.799E-11    0.148E-10
DAV:   6    -0.109138908302E+04    0.27649E-09   -0.14111E-09  9888   0.700E-11    0.881E-11
DAV:   7    -0.109138908302E+04   -0.60390E-09   -0.14575E-09  9888   0.407E-11    0.103E-10
DAV:   8    -0.109138908301E+04    0.10477E-08   -0.14417E-09  9888   0.457E-11    0.104E-10
DAV:   9    -0.109138908302E+04   -0.62573E-09   -0.14554E-09  9888   0.358E-11    0.970E-11
DAV:  10    -0.109138908302E+04   -0.17462E-09   -0.14411E-09  9888   0.370E-11
  68 F= -.10913891E+04 E0= -.10912830E+04  d E =0.636913E+04
       N       E                     dE             d eps       ncg     rms          rms(c)
DAV:   1    -0.109138908302E+04   -0.26193E-09   -0.14185E-09  9888   0.358E-11    0.941E-11
DAV:   2    -0.109138908302E+04   -0.45111E-09   -0.14198E-09  9888   0.143E-10    0.303E-10
DAV:   3    -0.109138908302E+04    0.50932E-10   -0.14705E-09  9888   0.185E-10    0.208E-10
DAV:   4    -0.109138908302E+04    0.45839E-09   -0.14063E-09  9888   0.106E-10    0.109E-10
DAV:   5    -0.109138908302E+04    0.40745E-09   -0.14195E-09  9888   0.709E-11    0.141E-10
DAV:   6    -0.109138908301E+04    0.16007E-09   -0.14695E-09  9888   0.753E-11    0.116E-10
DAV:   7    -0.109138908302E+04   -0.39290E-09   -0.13891E-09  9888   0.493E-11    0.892E-11
DAV:   8    -0.109138908302E+04    0.13824E-09   -0.14218E-09  9888   0.334E-11    0.921E-11
DAV:   9    -0.109138908302E+04   -0.96043E-09   -0.14557E-09  9888   0.394E-11    0.985E-11
DAV:  10    -0.109138908302E+04    0.61846E-09   -0.13944E-09  9888   0.385E-11
  69 F= -.10913891E+04 E0= -.10912830E+04  d E =0.636913E+04
       N       E                     dE             d eps       ncg     rms          rms(c)
DAV:   1    -0.109138908302E+04    0.93132E-09   -0.14051E-09  9888   0.380E-11    0.899E-11
DAV:   2    -0.109138908301E+04    0.31287E-09   -0.14189E-09  9888   0.117E-10    0.249E-10
DAV:   3    -0.109138908302E+04   -0.98225E-09   -0.14249E-09  9888   0.167E-10    0.214E-10
DAV:   4    -0.109138908302E+04    0.56752E-09   -0.14625E-09  9888   0.119E-10    0.119E-10
DAV:   5    -0.109138908302E+04    0.50932E-10   -0.13941E-09  9888   0.716E-11    0.130E-10
DAV:   6    -0.109138908302E+04   -0.94587E-10   -0.14285E-09  9888   0.721E-11    0.105E-10
DAV:   7    -0.109138908302E+04   -0.32014E-09   -0.14225E-09  9888   0.458E-11    0.957E-11
DAV:   8    -0.109138908302E+04    0.62573E-09   -0.14359E-09  9888   0.410E-11    0.968E-11
DAV:   9    -0.109138908301E+04    0.18190E-09   -0.14315E-09  9888   0.332E-11    0.963E-11
DAV:  10    -0.109138908302E+04   -0.52387E-09   -0.14081E-09  9888   0.341E-11
  70 F= -.10913891E+04 E0= -.10912830E+04  d E =0.636913E+04
       N       E                     dE             d eps       ncg     rms          rms(c)
DAV:   1    -0.109138908302E+04   -0.69122E-09   -0.14084E-09  9888   0.378E-11    0.885E-11
DAV:   2    -0.109138908302E+04    0.65484E-10   -0.14132E-09  9888   0.112E-10    0.259E-10
DAV:   3    -0.109138908302E+04   -0.48749E-09   -0.14158E-09  9888   0.155E-10    0.169E-10
DAV:   4    -0.109138908302E+04    0.80763E-09   -0.14736E-09  9888   0.101E-10    0.127E-10
DAV:   5    -0.109138908302E+04   -0.61846E-09   -0.14304E-09  9888   0.789E-11    0.133E-10
DAV:   6    -0.109138908301E+04    0.11496E-08   -0.14060E-09  9888   0.691E-11    0.991E-11
DAV:   7    -0.109138908301E+04   -0.87311E-10   -0.14415E-09  9888   0.388E-11    0.972E-11
DAV:   8    -0.109138908302E+04   -0.11205E-08   -0.14318E-09  9888   0.378E-11    0.104E-10
DAV:   9    -0.109138908301E+04    0.91677E-09   -0.14309E-09  9888   0.373E-11    0.912E-11
DAV:  10    -0.109138908302E+04   -0.50932E-10   -0.14323E-09  9888   0.350E-11
  71 F= -.10913891E+04 E0= -.10912830E+04  d E =0.636913E+04
       N       E                     dE             d eps       ncg     rms          rms(c)
DAV:   1    -0.109138908302E+04   -0.55297E-09   -0.14204E-09  9888   0.376E-11    0.967E-11
DAV:   2    -0.109138908302E+04    0.10186E-09   -0.14078E-09  9888   0.109E-10    0.229E-10
DAV:   3    -0.109138908301E+04    0.59663E-09   -0.14371E-09  9888   0.169E-10    0.232E-10
DAV:   4    -0.109138908302E+04   -0.96043E-09   -0.14600E-09  9888   0.122E-10    0.130E-10
DAV:   5    -0.109138908302E+04    0.62573E-09   -0.14458E-09  9888   0.929E-11    0.148E-10
DAV:   6    -0.109138908302E+04   -0.50932E-10   -0.14390E-09  9888   0.718E-11    0.970E-11
DAV:   7    -0.109138908302E+04    0.72760E-11   -0.14297E-09  9888   0.377E-11    0.108E-10
DAV:   8    -0.109138908302E+04   -0.58208E-09   -0.14306E-09  9888   0.418E-11    0.102E-10
DAV:   9    -0.109138908302E+04    0.66939E-09   -0.14026E-09  9888   0.377E-11    0.926E-11
DAV:  10    -0.109138908302E+04    0.10914E-09   -0.14614E-09  9888   0.377E-11
  72 F= -.10913891E+04 E0= -.10912830E+04  d E =0.636913E+04
       N       E                     dE             d eps       ncg     rms          rms(c)
DAV:   1    -0.109138908302E+04   -0.10477E-08   -0.14309E-09  9888   0.334E-11    0.917E-11
DAV:   2    -0.109138908302E+04    0.60390E-09   -0.14000E-09  9888   0.970E-11    0.211E-10
DAV:   3    -0.109138908302E+04   -0.37835E-09   -0.14546E-09  9888   0.147E-10    0.225E-10
DAV:   4    -0.109138908302E+04    0.78580E-09   -0.13896E-09  9888   0.119E-10    0.112E-10
DAV:   5    -0.109138908302E+04   -0.78580E-09   -0.14562E-09  9888   0.625E-11    0.119E-10
DAV:   6    -0.109138908302E+04    0.50204E-09   -0.14382E-09  9888   0.719E-11    0.115E-10
DAV:   7    -0.109138908302E+04   -0.76398E-09   -0.14411E-09  9888   0.432E-11    0.999E-11
DAV:   8    -0.109138908302E+04    0.53114E-09   -0.14257E-09  9888   0.359E-11    0.103E-10
DAV:   9    -0.109138908301E+04    0.68394E-09   -0.14392E-09  9888   0.335E-11    0.114E-10
DAV:  10    -0.109138908301E+04    0.13824E-09   -0.14216E-09  9888   0.381E-11
  73 F= -.10913891E+04 E0= -.10912830E+04  d E =0.636913E+04
       N       E                     dE             d eps       ncg     rms          rms(c)
DAV:   1    -0.109138908302E+04   -0.48021E-09   -0.14191E-09  9888   0.376E-11    0.788E-11
DAV:   2    -0.109138908302E+04   -0.23283E-09   -0.14289E-09  9888   0.117E-10    0.258E-10
DAV:   3    -0.109138908301E+04    0.13533E-08   -0.14790E-09  9888   0.153E-10    0.174E-10
DAV:   4    -0.109138908302E+04   -0.10114E-08   -0.14436E-09  9888   0.885E-11    0.101E-10
DAV:   5    -0.109138908302E+04   -0.43656E-10   -0.14160E-09  9888   0.687E-11    0.144E-10
DAV:   6    -0.109138908302E+04   -0.29104E-09   -0.14302E-09  9888   0.702E-11    0.972E-11
DAV:   7    -0.109138908302E+04    0.42928E-09   -0.14132E-09  9888   0.380E-11    0.934E-11
DAV:   8    -0.109138908302E+04    0.94587E-10   -0.14394E-09  9888   0.377E-11    0.997E-11
DAV:   9    -0.109138908302E+04   -0.94587E-10   -0.14075E-09  9888   0.345E-11    0.909E-11
DAV:  10    -0.109138908302E+04   -0.61118E-09   -0.13913E-09  9888   0.306E-11
  74 F= -.10913891E+04 E0= -.10912830E+04  d E =0.636913E+04
       N       E                     dE             d eps       ncg     rms          rms(c)
DAV:   1    -0.109138908302E+04   -0.61846E-09   -0.14105E-09  9888   0.341E-11    0.108E-10
DAV:   2    -0.109138908302E+04   -0.31287E-09   -0.14341E-09  9888   0.123E-10    0.283E-10
DAV:   3    -0.109138908301E+04    0.14479E-08   -0.14642E-09  9888   0.179E-10    0.241E-10
DAV:   4    -0.109138908301E+04   -0.14552E-10   -0.14518E-09  9888   0.137E-10    0.122E-10
DAV:   5    -0.109138908302E+04   -0.58208E-09   -0.14109E-09  9888   0.995E-11    0.180E-10
DAV:   6    -0.109138908302E+04   -0.11642E-09   -0.14557E-09  9888   0.854E-11    0.107E-10
DAV:   7    -0.109138908302E+04    0.21828E-09   -0.14564E-09  9888   0.483E-11    0.105E-10
DAV:   8    -0.109138908302E+04   -0.38563E-09   -0.14189E-09  9888   0.412E-11    0.966E-11
DAV:   9    -0.109138908302E+04    0.47294E-09   -0.14227E-09  9888   0.372E-11    0.964E-11
DAV:  10    -0.109138908302E+04   -0.72760E-09   -0.14306E-09  9888   0.343E-11
  75 F= -.10913891E+04 E0= -.10912830E+04  d E =0.636913E+04
       N       E                     dE             d eps       ncg     rms          rms(c)
DAV:   1    -0.109138908302E+04   -0.73487E-09   -0.14305E-09  9888   0.353E-11    0.822E-11
DAV:   2    -0.109138908302E+04    0.35652E-09   -0.14359E-09  9888   0.122E-10    0.277E-10
DAV:   3    -0.109138908302E+04   -0.65484E-10   -0.14509E-09  9888   0.158E-10    0.159E-10
DAV:   4    -0.109138908302E+04    0.18917E-09   -0.14455E-09  9888   0.103E-10    0.189E-10
DAV:   5    -0.109138908302E+04   -0.12224E-08   -0.14167E-09  9888   0.982E-11    0.114E-10
DAV:   6    -0.109138908302E+04    0.85129E-09   -0.14526E-09  9888   0.505E-11    0.111E-10
DAV:   7    -0.109138908302E+04   -0.21828E-10   -0.14118E-09  9888   0.408E-11    0.995E-11
DAV:   8    -0.109138908302E+04    0.36380E-09   -0.14184E-09  9888   0.365E-11    0.925E-11
DAV:   9    -0.109138908302E+04   -0.17462E-09   -0.14034E-09  9888   0.390E-11    0.998E-11
DAV:  10    -0.109138908302E+04   -0.38563E-09   -0.13907E-09  9888   0.341E-11
  76 F= -.10913891E+04 E0= -.10912830E+04  d E =0.636913E+04
       N       E                     dE             d eps       ncg     rms          rms(c)
DAV:   1    -0.109138908301E+04    0.64028E-09   -0.14573E-09  9888   0.335E-11    0.907E-11
DAV:   2    -0.109138908301E+04    0.58208E-10   -0.14719E-09  9888   0.127E-10    0.264E-10
DAV:   3    -0.109138908302E+04   -0.49477E-09   -0.13928E-09  9888   0.166E-10    0.183E-10
DAV:   4    -0.109138908302E+04    0.11642E-09   -0.14467E-09  9888   0.102E-10    0.121E-10
DAV:   5    -0.109138908301E+04    0.48021E-09   -0.14604E-09  9888   0.701E-11    0.148E-10
DAV:   6    -0.109138908302E+04   -0.12078E-08   -0.14428E-09  9888   0.664E-11    0.105E-10
DAV:   7    -0.109138908302E+04    0.26193E-09   -0.14400E-09  9888   0.439E-11    0.922E-11
DAV:   8    -0.109138908302E+04    0.29831E-09   -0.14494E-09  9888   0.395E-11    0.869E-11
DAV:   9    -0.109138908302E+04    0.45839E-09   -0.14553E-09  9888   0.374E-11    0.967E-11
DAV:  10    -0.109138908302E+04   -0.42201E-09   -0.14241E-09  9888   0.373E-11
  77 F= -.10913891E+04 E0= -.10912830E+04  d E =0.636913E+04
       N       E                     dE             d eps       ncg     rms          rms(c)
DAV:   1    -0.109138908302E+04   -0.61846E-09   -0.14434E-09  9888   0.345E-11    0.985E-11
DAV:   2    -0.109138908302E+04    0.28376E-09   -0.14416E-09  9888   0.124E-10    0.288E-10
DAV:   3    -0.109138908301E+04    0.73487E-09   -0.14185E-09  9888   0.175E-10    0.235E-10
DAV:   4    -0.109138908302E+04   -0.10186E-08   -0.14708E-09  9888   0.127E-10    0.109E-10
DAV:   5    -0.109138908302E+04    0.35652E-09   -0.14351E-09  9888   0.610E-11    0.101E-10
DAV:   6    -0.109138908302E+04   -0.69849E-09   -0.14489E-09  9888   0.593E-11    0.104E-10
DAV:   7    -0.109138908302E+04   -0.32014E-09   -0.14430E-09  9888   0.540E-11    0.928E-11
DAV:   8    -0.109138908302E+04    0.34197E-09   -0.14428E-09  9888   0.398E-11    0.101E-10
DAV:   9    -0.109138908302E+04   -0.36380E-10   -0.14326E-09  9888   0.385E-11    0.103E-10
DAV:  10    -0.109138908302E+04    0.24738E-09   -0.14236E-09  9888   0.359E-11
  78 F= -.10913891E+04 E0= -.10912830E+04  d E =0.636913E+04
       N       E                     dE             d eps       ncg     rms          rms(c)
DAV:   1    -0.109138908302E+04    0.18190E-09   -0.14209E-09  9888   0.355E-11    0.937E-11
DAV:   2    -0.109138908302E+04   -0.32014E-09   -0.14474E-09  9888   0.102E-10    0.246E-10
DAV:   3    -0.109138908302E+04    0.86584E-09   -0.14714E-09  9888   0.158E-10    0.227E-10
DAV:   4    -0.109138908302E+04   -0.11496E-08   -0.14102E-09  9888   0.120E-10    0.103E-10
DAV:   5    -0.109138908301E+04    0.17972E-08   -0.14477E-09  9888   0.538E-11    0.116E-10
DAV:   6    -0.109138908301E+04   -0.30559E-09   -0.14472E-09  9888   0.618E-11    0.106E-10
DAV:   7    -0.109138908302E+04   -0.16589E-08   -0.14102E-09  9888   0.547E-11    0.912E-11
DAV:   8    -0.109138908302E+04    0.14843E-08   -0.14523E-09  9888   0.411E-11    0.931E-11
DAV:   9    -0.109138908302E+04   -0.47294E-09   -0.14316E-09  9888   0.350E-11    0.974E-11
DAV:  10    -0.109138908302E+04    0.16735E-09   -0.14197E-09  9888   0.393E-11
  79 F= -.10913891E+04 E0= -.10912830E+04  d E =0.636913E+04
       N       E                     dE             d eps       ncg     rms          rms(c)
DAV:   1    -0.109138908302E+04   -0.26921E-09   -0.14374E-09  9888   0.344E-11    0.773E-11
DAV:   2    -0.109138908302E+04   -0.64756E-09   -0.14438E-09  9888   0.111E-10    0.247E-10
DAV:   3    -0.109138908302E+04    0.85856E-09   -0.14814E-09  9888   0.148E-10    0.162E-10
DAV:   4    -0.109138908302E+04   -0.32742E-09   -0.13998E-09  9888   0.889E-11    0.100E-10
DAV:   5    -0.109138908302E+04    0.58208E-09   -0.14383E-09  9888   0.531E-11    0.103E-10
DAV:   6    -0.109138908302E+04   -0.72032E-09   -0.14377E-09  9888   0.582E-11    0.109E-10
DAV:   7    -0.109138908302E+04   -0.65484E-10   -0.14355E-09  9888   0.433E-11    0.839E-11
DAV:   8    -0.109138908302E+04    0.40018E-09   -0.14887E-09  9888   0.339E-11    0.933E-11
DAV:   9    -0.109138908302E+04    0.46566E-09   -0.14242E-09  9888   0.339E-11    0.897E-11
DAV:  10    -0.109138908302E+04    0.72760E-10   -0.14318E-09  9888   0.336E-11
  80 F= -.10913891E+04 E0= -.10912830E+04  d E =0.636913E+04
       N       E                     dE             d eps       ncg     rms          rms(c)
DAV:   1    -0.109138908302E+04   -0.24738E-09   -0.14261E-09  9888   0.378E-11    0.917E-11
DAV:   2    -0.109138908302E+04    0.27649E-09   -0.14223E-09  9888   0.908E-11    0.199E-10
DAV:   3    -0.109138908302E+04   -0.45111E-09   -0.14250E-09  9888   0.114E-10    0.154E-10
DAV:   4    -0.109138908302E+04   -0.37835E-09   -0.14397E-09  9888   0.893E-11    0.130E-10
DAV:   5    -0.109138908302E+04    0.20373E-09   -0.14749E-09  9888   0.595E-11    0.115E-10
DAV:   6    -0.109138908302E+04   -0.15280E-09   -0.14754E-09  9888   0.581E-11    0.110E-10
DAV:   7    -0.109138908302E+04    0.88039E-09   -0.14258E-09  9888   0.507E-11    0.112E-10
DAV:   8    -0.109138908302E+04   -0.62573E-09   -0.14621E-09  9888   0.347E-11    0.980E-11
DAV:   9    -0.109138908302E+04    0.56025E-09   -0.14397E-09  9888   0.367E-11    0.872E-11
DAV:  10    -0.109138908302E+04    0.19645E-09   -0.14480E-09  9888   0.389E-11
  81 F= -.10913891E+04 E0= -.10912830E+04  d E =0.636913E+04
       N       E                     dE             d eps       ncg     rms          rms(c)
DAV:   1    -0.109138908302E+04   -0.74942E-09   -0.14404E-09  9888   0.356E-11    0.937E-11
DAV:   2    -0.109138908302E+04    0.80036E-10   -0.14168E-09  9888   0.995E-11    0.227E-10
DAV:   3    -0.109138908302E+04   -0.72760E-11   -0.14518E-09  9888   0.159E-10    0.246E-10
DAV:   4    -0.109138908302E+04   -0.21100E-09   -0.14665E-09  9888   0.118E-10    0.107E-10
DAV:   5    -0.109138908302E+04    0.10186E-08   -0.14147E-09  9888   0.694E-11    0.152E-10
DAV:   6    -0.109138908302E+04   -0.66939E-09   -0.14554E-09  9888   0.715E-11    0.102E-10
DAV:   7    -0.109138908301E+04    0.91677E-09   -0.14825E-09  9888   0.455E-11    0.102E-10
DAV:   8    -0.109138908302E+04   -0.25466E-09   -0.14371E-09  9888   0.374E-11    0.876E-11
DAV:   9    -0.109138908302E+04   -0.12369E-09   -0.14475E-09  9888   0.367E-11    0.849E-11
DAV:  10    -0.109138908302E+04   -0.21828E-10   -0.14274E-09  9888   0.363E-11
  82 F= -.10913891E+04 E0= -.10912830E+04  d E =0.636913E+04
       N       E                     dE             d eps       ncg     rms          rms(c)
DAV:   1    -0.109138908301E+04    0.69122E-09   -0.14390E-09  9888   0.385E-11    0.940E-11
DAV:   2    -0.109138908302E+04   -0.15061E-08   -0.14375E-09  9888   0.190E-10    0.466E-10
DAV:   3    -0.109138908302E+04    0.12369E-09   -0.14457E-09  9888   0.226E-10    0.164E-10
DAV:   4    -0.109138908302E+04    0.18190E-09   -0.14283E-09  9888   0.869E-11    0.127E-10
DAV:   5    -0.109138908301E+04    0.82946E-09   -0.14779E-09  9888   0.804E-11    0.148E-10
DAV:   6    -0.109138908302E+04   -0.56752E-09   -0.14485E-09  9888   0.776E-11    0.993E-11
DAV:   7    -0.109138908302E+04   -0.17462E-09   -0.14450E-09  9888   0.407E-11    0.984E-11
DAV:   8    -0.109138908302E+04    0.26921E-09   -0.14540E-09  9888   0.365E-11    0.103E-10
DAV:   9    -0.109138908302E+04   -0.66939E-09   -0.14405E-09  9888   0.360E-11    0.885E-11
DAV:  10    -0.109138908302E+04    0.26193E-09   -0.14250E-09  9888   0.347E-11
  83 F= -.10913891E+04 E0= -.10912830E+04  d E =0.636913E+04
       N       E                     dE             d eps       ncg     rms          rms(c)
DAV:   1    -0.109138908302E+04    0.78580E-09   -0.14112E-09  9888   0.357E-11    0.912E-11
DAV:   2    -0.109138908302E+04   -0.80036E-09   -0.14489E-09  9888   0.137E-10    0.293E-10
DAV:   3    -0.109138908302E+04   -0.43656E-10   -0.14850E-09  9888   0.178E-10    0.180E-10
DAV:   4    -0.109138908302E+04    0.71304E-09   -0.13807E-09  9888   0.985E-11    0.131E-10
DAV:   5    -0.109138908302E+04    0.18917E-09   -0.14125E-09  9888   0.863E-11    0.131E-10
DAV:   6    -0.109138908302E+04   -0.97498E-09   -0.14283E-09  9888   0.721E-11    0.102E-10
DAV:   7    -0.109138908302E+04    0.32742E-09   -0.14601E-09  9888   0.374E-11    0.917E-11
DAV:   8    -0.109138908302E+04    0.13097E-09   -0.14844E-09  9888   0.371E-11    0.917E-11
DAV:   9    -0.109138908301E+04    0.74215E-09   -0.14613E-09  9888   0.388E-11    0.103E-10
DAV:  10    -0.109138908302E+04   -0.72760E-09   -0.14222E-09  9888   0.396E-11
  84 F= -.10913891E+04 E0= -.10912830E+04  d E =0.636913E+04
       N       E                     dE             d eps       ncg     rms          rms(c)
DAV:   1    -0.109138908302E+04   -0.68394E-09   -0.14137E-09  9888   0.362E-11    0.912E-11
DAV:   2    -0.109138908301E+04    0.77853E-09   -0.14502E-09  9888   0.129E-10    0.264E-10
DAV:   3    -0.109138908302E+04   -0.72032E-09   -0.14416E-09  9888   0.172E-10    0.188E-10
DAV:   4    -0.109138908302E+04   -0.21100E-09   -0.14463E-09  9888   0.969E-11    0.105E-10
DAV:   5    -0.109138908301E+04    0.88767E-09   -0.14311E-09  9888   0.724E-11    0.151E-10
DAV:   6    -0.109138908302E+04   -0.72760E-09   -0.14190E-09  9888   0.750E-11    0.113E-10
DAV:   7    -0.109138908302E+04    0.33469E-09   -0.14077E-09  9888   0.371E-11    0.984E-11
DAV:   8    -0.109138908302E+04   -0.26193E-09   -0.14231E-09  9888   0.384E-11    0.878E-11
DAV:   9    -0.109138908301E+04    0.71304E-09   -0.14308E-09  9888   0.312E-11    0.107E-10
DAV:  10    -0.109138908302E+04   -0.14770E-08   -0.14501E-09  9888   0.352E-11
  85 F= -.10913891E+04 E0= -.10912830E+04  d E =0.636913E+04
       N       E                     dE             d eps       ncg     rms          rms(c)
DAV:   1    -0.109138908301E+04    0.13097E-09   -0.14390E-09  9888   0.357E-11    0.984E-11
DAV:   2    -0.109138908302E+04   -0.11933E-08   -0.14294E-09  9888   0.102E-10    0.241E-10
DAV:   3    -0.109138908302E+04    0.61118E-09   -0.13583E-09  9888   0.159E-10    0.249E-10
DAV:   4    -0.109138908302E+04   -0.26193E-09   -0.14841E-09  9888   0.125E-10    0.111E-10
DAV:   5    -0.109138908301E+04    0.72760E-09   -0.14226E-09  9888   0.766E-11    0.135E-10
DAV:   6    -0.109138908301E+04    0.43656E-10   -0.14665E-09  9888   0.746E-11    0.106E-10
DAV:   7    -0.109138908302E+04   -0.13679E-08   -0.14223E-09  9888   0.476E-11    0.102E-10
DAV:   8    -0.109138908302E+04    0.29831E-09   -0.14622E-09  9888   0.405E-11    0.955E-11
DAV:   9    -0.109138908301E+04    0.89494E-09   -0.14719E-09  9888   0.361E-11    0.924E-11
DAV:  10    -0.109138908302E+04   -0.31287E-09   -0.14214E-09  9888   0.313E-11
  86 F= -.10913891E+04 E0= -.10912830E+04  d E =0.636913E+04
       N       E                     dE             d eps       ncg     rms          rms(c)
DAV:   1    -0.109138908302E+04   -0.45839E-09   -0.14222E-09  9888   0.322E-11    0.872E-11
DAV:   2    -0.109138908302E+04    0.87311E-10   -0.14333E-09  9888   0.136E-10    0.320E-10
DAV:   3    -0.109138908302E+04    0.13097E-09   -0.14416E-09  9888   0.176E-10    0.168E-10
DAV:   4    -0.109138908302E+04   -0.61846E-09   -0.14248E-09  9888   0.993E-11    0.143E-10
DAV:   5    -0.109138908302E+04    0.50932E-10   -0.13945E-09  9888   0.835E-11    0.114E-10
DAV:   6    -0.109138908302E+04    0.36380E-10   -0.14202E-09  9888   0.579E-11    0.109E-10
DAV:   7    -0.109138908302E+04    0.11642E-09   -0.14241E-09  9888   0.368E-11    0.972E-11
DAV:   8    -0.109138908302E+04   -0.12369E-09   -0.14084E-09  9888   0.376E-11    0.976E-11
DAV:   9    -0.109138908302E+04   -0.13097E-09   -0.14460E-09  9888   0.333E-11    0.974E-11
DAV:  10    -0.109138908301E+04    0.10987E-08   -0.14354E-09  9888   0.319E-11
  87 F= -.10913891E+04 E0= -.10912830E+04  d E =0.636913E+04
       N       E                     dE             d eps       ncg     rms          rms(c)
DAV:   1    -0.109138908302E+04    0.72760E-09   -0.14734E-09  9888   0.358E-11    0.968E-11
DAV:   2    -0.109138908302E+04   -0.40018E-09   -0.14402E-09  9888   0.136E-10    0.292E-10
DAV:   3    -0.109138908302E+04    0.16735E-09   -0.14450E-09  9888   0.183E-10    0.195E-10
DAV:   4    -0.109138908302E+04    0.37835E-09   -0.14399E-09  9888   0.110E-10    0.109E-10
DAV:   5    -0.109138908302E+04   -0.32014E-09   -0.14245E-09  9888   0.576E-11    0.142E-10
DAV:   6    -0.109138908302E+04   -0.55297E-09   -0.14284E-09  9888   0.707E-11    0.125E-10
DAV:   7    -0.109138908302E+04    0.76398E-09   -0.14496E-09  9888   0.523E-11    0.989E-11
DAV:   8    -0.109138908302E+04   -0.96043E-09   -0.14329E-09  9888   0.336E-11    0.956E-11
DAV:   9    -0.109138908302E+04    0.10114E-08   -0.14104E-09  9888   0.387E-11    0.108E-10
DAV:  10    -0.109138908301E+04    0.32742E-09   -0.14261E-09  9888   0.371E-11
  88 F= -.10913891E+04 E0= -.10912830E+04  d E =0.636913E+04
       N       E                     dE             d eps       ncg     rms          rms(c)
DAV:   1    -0.109138908302E+04   -0.30559E-09   -0.14501E-09  9888   0.342E-11    0.939E-11
DAV:   2    -0.109138908302E+04    0.21828E-10   -0.14281E-09  9888   0.140E-10    0.309E-10
DAV:   3    -0.109138908302E+04   -0.41473E-09   -0.14731E-09  9888   0.186E-10    0.189E-10
DAV:   4    -0.109138908302E+04    0.54570E-09   -0.14977E-09  9888   0.102E-10    0.124E-10
DAV:   5    -0.109138908302E+04    0.14552E-09   -0.14133E-09  9888   0.812E-11    0.138E-10
DAV:   6    -0.109138908302E+04   -0.93132E-09   -0.14409E-09  9888   0.727E-11    0.987E-11
DAV:   7    -0.109138908302E+04    0.38563E-09   -0.14375E-09  9888   0.392E-11    0.937E-11
DAV:   8    -0.109138908302E+04    0.58935E-09   -0.14656E-09  9888   0.322E-11    0.957E-11
DAV:   9    -0.109138908302E+04   -0.36380E-10   -0.14499E-09  9888   0.363E-11    0.936E-11
DAV:  10    -0.109138908302E+04   -0.49477E-09   -0.14176E-09  9888   0.362E-11
  89 F= -.10913891E+04 E0= -.10912830E+04  d E =0.636913E+04
       N       E                     dE             d eps       ncg     rms          rms(c)
DAV:   1    -0.109138908302E+04   -0.69849E-09   -0.14580E-09  9888   0.358E-11    0.861E-11
DAV:   2    -0.109138908302E+04    0.43656E-10   -0.14533E-09  9888   0.221E-10    0.516E-10
DAV:   3    -0.109138908302E+04    0.48749E-09   -0.14182E-09  9888   0.243E-10    0.132E-10
DAV:   4    -0.109138908302E+04   -0.64028E-09   -0.14202E-09  9888   0.764E-11    0.122E-10
DAV:   5    -0.109138908302E+04   -0.19645E-09   -0.14458E-09  9888   0.772E-11    0.118E-10
DAV:   6    -0.109138908302E+04    0.13097E-09   -0.14195E-09  9888   0.648E-11    0.895E-11
DAV:   7    -0.109138908301E+04    0.96043E-09   -0.14589E-09  9888   0.375E-11    0.107E-10
DAV:   8    -0.109138908301E+04    0.25466E-09   -0.14313E-09  9888   0.425E-11    0.887E-11
DAV:   9    -0.109138908302E+04   -0.61118E-09   -0.14452E-09  9888   0.398E-11    0.100E-10
DAV:  10    -0.109138908302E+04   -0.62573E-09   -0.14204E-09  9888   0.362E-11
  90 F= -.10913891E+04 E0= -.10912830E+04  d E =0.636913E+04
       N       E                     dE             d eps       ncg     rms          rms(c)
DAV:   1    -0.109138908302E+04    0.18190E-09   -0.14183E-09  9888   0.372E-11    0.959E-11
DAV:   2    -0.109138908301E+04    0.35652E-09   -0.14098E-09  9888   0.876E-11    0.189E-10
DAV:   3    -0.109138908302E+04   -0.84401E-09   -0.14320E-09  9888   0.150E-10    0.242E-10
DAV:   4    -0.109138908302E+04   -0.22555E-09   -0.14555E-09  9888   0.129E-10    0.114E-10
DAV:   5    -0.109138908301E+04    0.89494E-09   -0.14439E-09  9888   0.667E-11    0.129E-10
DAV:   6    -0.109138908301E+04    0.26193E-09   -0.14320E-09  9888   0.661E-11    0.105E-10
DAV:   7    -0.109138908302E+04   -0.45839E-09   -0.14366E-09  9888   0.406E-11    0.848E-11
DAV:   8    -0.109138908301E+04    0.38563E-09   -0.14228E-09  9888   0.352E-11    0.938E-11
DAV:   9    -0.109138908302E+04   -0.71304E-09   -0.14364E-09  9888   0.319E-11    0.968E-11
DAV:  10    -0.109138908302E+04    0.29104E-09   -0.14201E-09  9888   0.329E-11
  91 F= -.10913891E+04 E0= -.10912830E+04  d E =0.636913E+04
       N       E                     dE             d eps       ncg     rms          rms(c)
DAV:   1    -0.109138908301E+04    0.50932E-09   -0.14379E-09  9888   0.358E-11    0.104E-10
DAV:   2    -0.109138908302E+04   -0.58208E-10   -0.14235E-09  9888   0.114E-10    0.237E-10
DAV:   3    -0.109138908302E+04   -0.15207E-08   -0.14110E-09  9888   0.177E-10    0.260E-10
DAV:   4    -0.109138908302E+04    0.15498E-08   -0.14336E-09  9888   0.141E-10    0.115E-10
DAV:   5    -0.109138908302E+04   -0.82218E-09   -0.13922E-09  9888   0.804E-11    0.150E-10
DAV:   6    -0.109138908301E+04    0.11714E-08   -0.14498E-09  9888   0.850E-11    0.114E-10
DAV:   7    -0.109138908302E+04   -0.89494E-09   -0.14261E-09  9888   0.500E-11    0.105E-10
DAV:   8    -0.109138908302E+04   -0.48021E-09   -0.14032E-09  9888   0.401E-11    0.961E-11
DAV:   9    -0.109138908302E+04   -0.80036E-10   -0.14534E-09  9888   0.393E-11    0.881E-11
DAV:  10    -0.109138908302E+04    0.94587E-10   -0.14355E-09  9888   0.378E-11
  92 F= -.10913891E+04 E0= -.10912830E+04  d E =0.636913E+04
       N       E                     dE             d eps       ncg     rms          rms(c)
DAV:   1    -0.109138908302E+04   -0.29831E-09   -0.14119E-09  9888   0.374E-11    0.890E-11
DAV:   2    -0.109138908302E+04    0.92405E-09   -0.14215E-09  9888   0.170E-10    0.357E-10
DAV:   3    -0.109138908302E+04   -0.30559E-09   -0.14333E-09  9888   0.205E-10    0.167E-10
DAV:   4    -0.109138908302E+04    0.18917E-09   -0.14462E-09  9888   0.103E-10    0.156E-10
DAV:   5    -0.109138908302E+04   -0.32014E-09   -0.14397E-09  9888   0.945E-11    0.124E-10
DAV:   6    -0.109138908301E+04    0.10041E-08   -0.14227E-09  9888   0.601E-11    0.105E-10
DAV:   7    -0.109138908302E+04   -0.69849E-09   -0.14310E-09  9888   0.421E-11    0.947E-11
DAV:   8    -0.109138908302E+04   -0.13824E-09   -0.14117E-09  9888   0.416E-11    0.919E-11
DAV:   9    -0.109138908302E+04    0.21828E-10   -0.14235E-09  9888   0.352E-11    0.918E-11
DAV:  10    -0.109138908302E+04   -0.27649E-09   -0.14535E-09  9888   0.317E-11
  93 F= -.10913891E+04 E0= -.10912830E+04  d E =0.636913E+04
       N       E                     dE             d eps       ncg     rms          rms(c)
DAV:   1    -0.109138908302E+04    0.36380E-09   -0.14548E-09  9888   0.361E-11    0.963E-11
DAV:   2    -0.109138908302E+04    0.27649E-09   -0.14731E-09  9888   0.166E-10    0.390E-10
DAV:   3    -0.109138908302E+04   -0.12369E-09   -0.14445E-09  9888   0.202E-10    0.188E-10
DAV:   4    -0.109138908302E+04   -0.56025E-09   -0.14828E-09  9888   0.103E-10    0.127E-10
DAV:   5    -0.109138908301E+04    0.11350E-08   -0.14303E-09  9888   0.912E-11    0.137E-10
DAV:   6    -0.109138908301E+04   -0.32014E-09   -0.14655E-09  9888   0.758E-11    0.100E-10
DAV:   7    -0.109138908301E+04    0.47294E-09   -0.14381E-09  9888   0.365E-11    0.928E-11
DAV:   8    -0.109138908302E+04   -0.56752E-09   -0.14107E-09  9888   0.349E-11    0.104E-10
DAV:   9    -0.109138908302E+04   -0.22555E-09   -0.13920E-09  9888   0.340E-11    0.919E-11
DAV:  10    -0.109138908302E+04   -0.98225E-09   -0.14116E-09  9888   0.337E-11
  94 F= -.10913891E+04 E0= -.10912830E+04  d E =0.636913E+04
       N       E                     dE             d eps       ncg     rms          rms(c)
DAV:   1    -0.109138908302E+04    0.72760E-11   -0.14047E-09  9888   0.346E-11    0.924E-11
DAV:   2    -0.109138908301E+04    0.52387E-09   -0.14248E-09  9888   0.221E-10    0.521E-10
DAV:   3    -0.109138908302E+04   -0.12660E-08   -0.14781E-09  9888   0.254E-10    0.160E-10
DAV:   4    -0.109138908302E+04    0.18190E-09   -0.14251E-09  9888   0.882E-11    0.133E-10
DAV:   5    -0.109138908301E+04    0.88039E-09   -0.14393E-09  9888   0.840E-11    0.129E-10
DAV:   6    -0.109138908302E+04   -0.10186E-09   -0.14100E-09  9888   0.651E-11    0.102E-10
DAV:   7    -0.109138908302E+04   -0.19645E-09   -0.14215E-09  9888   0.387E-11    0.904E-11
DAV:   8    -0.109138908302E+04   -0.63301E-09   -0.14552E-09  9888   0.378E-11    0.860E-11
DAV:   9    -0.109138908302E+04   -0.23283E-09   -0.14477E-09  9888   0.362E-11    0.843E-11
DAV:  10    -0.109138908302E+04    0.53114E-09   -0.14751E-09  9888   0.350E-11
  95 F= -.10913891E+04 E0= -.10912830E+04  d E =0.636913E+04
       N       E                     dE             d eps       ncg     rms          rms(c)
DAV:   1    -0.109138908302E+04    0.65484E-10   -0.14050E-09  9888   0.342E-11    0.962E-11
DAV:   2    -0.109138908301E+04    0.11787E-08   -0.14241E-09  9888   0.212E-10    0.473E-10
DAV:   3    -0.109138908302E+04   -0.70577E-09   -0.14680E-09  9888   0.245E-10    0.142E-10
DAV:   4    -0.109138908301E+04    0.81491E-09   -0.14104E-09  9888   0.909E-11    0.134E-10
DAV:   5    -0.109138908302E+04   -0.10186E-08   -0.13918E-09  9888   0.914E-11    0.150E-10
DAV:   6    -0.109138908302E+04    0.22555E-09   -0.14459E-09  9888   0.703E-11    0.107E-10
DAV:   7    -0.109138908302E+04    0.36380E-10   -0.14550E-09  9888   0.429E-11    0.869E-11
DAV:   8    -0.109138908302E+04   -0.97498E-09   -0.14589E-09  9888   0.360E-11    0.108E-10
DAV:   9    -0.109138908302E+04    0.12442E-08   -0.14529E-09  9888   0.340E-11    0.100E-10
DAV:  10    -0.109138908301E+04    0.46566E-09   -0.14604E-09  9888   0.362E-11
  96 F= -.10913891E+04 E0= -.10912830E+04  d E =0.636913E+04
       N       E                     dE             d eps       ncg     rms          rms(c)
DAV:   1    -0.109138908302E+04   -0.66211E-09   -0.14418E-09  9888   0.356E-11    0.988E-11
DAV:   2    -0.109138908301E+04    0.10696E-08   -0.14269E-09  9888   0.300E-10    0.734E-10
DAV:   3    -0.109138908302E+04   -0.61118E-09   -0.14679E-09  9888   0.329E-10    0.140E-10
DAV:   4    -0.109138908302E+04   -0.27649E-09   -0.14544E-09  9888   0.888E-11    0.123E-10
DAV:   5    -0.109138908302E+04   -0.72760E-10   -0.14479E-09  9888   0.861E-11    0.121E-10
DAV:   6    -0.109138908301E+04    0.85129E-09   -0.14451E-09  9888   0.665E-11    0.106E-10
DAV:   7    -0.109138908302E+04   -0.27649E-09   -0.14598E-09  9888   0.409E-11    0.945E-11
DAV:   8    -0.109138908302E+04   -0.90949E-09   -0.14486E-09  9888   0.351E-11    0.105E-10
DAV:   9    -0.109138908302E+04   -0.50932E-10   -0.14174E-09  9888   0.346E-11    0.852E-11
DAV:  10    -0.109138908302E+04    0.12005E-08   -0.14424E-09  9888   0.345E-11
  97 F= -.10913891E+04 E0= -.10912830E+04  d E =0.636913E+04
       N       E                     dE             d eps       ncg     rms          rms(c)
DAV:   1    -0.109138908302E+04    0.10696E-08   -0.14754E-09  9888   0.361E-11    0.912E-11
DAV:   2    -0.109138908301E+04    0.31287E-09   -0.14368E-09  9888   0.177E-10    0.429E-10
DAV:   3    -0.109138908302E+04   -0.80036E-09   -0.15019E-09  9888   0.213E-10    0.174E-10
DAV:   4    -0.109138908302E+04    0.31287E-09   -0.14375E-09  9888   0.903E-11    0.124E-10
DAV:   5    -0.109138908302E+04    0.26921E-09   -0.14289E-09  9888   0.593E-11    0.110E-10
DAV:   6    -0.109138908302E+04   -0.77125E-09   -0.14389E-09  9888   0.480E-11    0.102E-10
DAV:   7    -0.109138908301E+04    0.82946E-09   -0.14486E-09  9888   0.395E-11    0.970E-11
DAV:   8    -0.109138908302E+04   -0.26193E-09   -0.14424E-09  9888   0.430E-11    0.973E-11
DAV:   9    -0.109138908302E+04   -0.65484E-09   -0.14241E-09  9888   0.442E-11    0.893E-11
DAV:  10    -0.109138908302E+04    0.77125E-09   -0.14563E-09  9888   0.370E-11
  98 F= -.10913891E+04 E0= -.10912830E+04  d E =0.636913E+04
       N       E                     dE             d eps       ncg     rms          rms(c)
DAV:   1    -0.109138908301E+04    0.11350E-08   -0.14208E-09  9888   0.328E-11    0.909E-11
DAV:   2    -0.109138908302E+04   -0.12878E-08   -0.14539E-09  9888   0.182E-10    0.399E-10
DAV:   3    -0.109138908302E+04    0.74215E-09   -0.14296E-09  9888   0.212E-10    0.167E-10
DAV:   4    -0.109138908302E+04   -0.13824E-09   -0.14031E-09  9888   0.983E-11    0.179E-10
DAV:   5    -0.109138908302E+04   -0.17462E-09   -0.13921E-09  9888   0.956E-11    0.111E-10
DAV:   6    -0.109138908302E+04   -0.25466E-09   -0.14177E-09  9888   0.525E-11    0.105E-10
DAV:   7    -0.109138908302E+04   -0.21100E-09   -0.14442E-09  9888   0.416E-11    0.981E-11
DAV:   8    -0.109138908302E+04    0.64028E-09   -0.14402E-09  9888   0.335E-11    0.973E-11
DAV:   9    -0.109138908302E+04   -0.12369E-09   -0.14151E-09  9888   0.352E-11    0.886E-11
DAV:  10    -0.109138908302E+04    0.12369E-09   -0.14235E-09  9888   0.344E-11
  99 F= -.10913891E+04 E0= -.10912830E+04  d E =0.636913E+04
       N       E                     dE             d eps       ncg     rms          rms(c)
DAV:   1    -0.109138908302E+04   -0.53114E-09   -0.14278E-09  9888   0.360E-11    0.928E-11
DAV:   2    -0.109138908302E+04    0.42201E-09   -0.14094E-09  9888   0.123E-10    0.289E-10
DAV:   3    -0.109138908302E+04   -0.29831E-09   -0.14307E-09  9888   0.171E-10    0.187E-10
DAV:   4    -0.109138908302E+04    0.34197E-09   -0.14372E-09  9888   0.110E-10    0.125E-10
DAV:   5    -0.109138908302E+04   -0.53114E-09   -0.14534E-09  9888   0.788E-11    0.139E-10
DAV:   6    -0.109138908302E+04   -0.14552E-10   -0.14561E-09  9888   0.644E-11    0.100E-10
DAV:   7    -0.109138908302E+04    0.97498E-09   -0.14688E-09  9888   0.375E-11    0.892E-11
DAV:   8    -0.109138908302E+04   -0.60390E-09   -0.14589E-09  9792   0.407E-11    0.941E-11
DAV:   9    -0.109138908302E+04   -0.27649E-09   -0.13927E-09  9744   0.375E-11    0.913E-11
DAV:  10    -0.109138908302E+04    0.96770E-09   -0.14025E-09  9744   0.360E-11
 100 F= -.10913891E+04 E0= -.10912830E+04  d E =0.636913E+04
