Ta32 Ti34 Nb32 W10
1.0
   9.1216997255111210    0.0000000000000000    0.0000000000000000
   0.0000000000000000    8.3788097184575001    0.0000000000000000
   0.0000000000000000   -2.7929387392984522   23.6988662189480195
Ta Ti Nb W
32 34 32 10
Selective dynamics
direct
   0.4994571676000188    0.2963339554170765    0.2221844125832531 F F T Ta
   0.0007011838891362    0.2961535522629544    0.2222969547399315 F F T Ta
   0.2495600548973154    0.2403881107193032    0.0552218671863136 F F T Ta
   0.4999658814041453    0.8144655901783521    0.1106250486140423 F F T Ta
   0.0000479543384657    0.4816042774611404    0.1107595639448087 F F T Ta
   0.0014814358292294    0.5929241247642660    0.4441870424789326 F F T Ta
   0.2504715557544857    0.9810517181707382    0.6108685672411065 F F T Ta
   0.0006088878015314    0.6666139272475825    0.0000564157924039 F F T Ta
   0.7506980600066611    0.6850446592846046    0.7223370811846667 F F T Ta
   0.4998717066019089    0.7778585209756600    0.3332488289665618 F F T Ta
   0.2497759176542704    1.0181509914120059    0.7219820401393814 F F T Ta
  -0.0001538777245262    0.4821324703708748    0.7776772436159906 F F T Ta
   0.0005745086022187    0.5559424224562670    0.6665706801487550 F F T Ta
   0.2495106240223294    0.6113610405052042    0.8333599043358833 F F T Ta
   0.7497640967820619    0.3147984396434762    0.6113127594073537 F F T Ta
   0.0012324422402965    0.8886298797003145    0.6667589202653421 F F T Ta
   0.2498146343417189    0.8705049393370642    0.2778721876399691 F F T Ta
   0.4992161048643542    0.8891820161995448    0.6663259174694899 F F T Ta
   0.5003964755988403    0.8151206114186699    0.7779960255058993 F F T Ta
   0.4996118710759145   -0.0011201039088614    0.0002092495871261 F F T Ta
   0.5001801896752340    0.1480895516450356    0.7777102048961968 F F T Ta
   0.4999855333282915    0.4442394939645237    0.3335002845253261 F F T Ta
   0.0003203214657926    0.9630505371468074    0.2222758329792449 F F T Ta
   0.2491167970940612    0.6854977995427716    0.3892463970274340 F F T Ta
   0.4995821383535909    0.6670130384474091    0.0000962085192487 F F T Ta
   0.7502763096117065    0.6489276306976622    0.6108467221356220 F F T Ta
   0.7504420632422223    0.9811963137546312    0.6109905865278420 F F T Ta
   0.0002089534286128    0.1479573905423619    0.1106420942708451 F F T Ta
   0.2497824446881278   -0.0558693282235618    0.8332720978506815 F F T Ta
   0.5009183035403245    0.5190258679808880    0.8896547066660992 F F T Ta
  -0.0002256248757224    0.8531478866702423    0.8894052059858858 F F T Ta
   0.2499611531302305    0.5366450232920235    0.2777786518139822 F F T Ta
   0.4993217237138038    0.7410759879118113    0.5558412334762918 F F T Ti
   0.0006181661184688    1.0741892620469020    0.5556698044370203 F F T Ti
   0.5000270802090673    0.5550720174849240    0.6666470210034284 F F T Ti
   0.7503350559090847    0.2404469966637110    0.0554064020510288 F F T Ti
   0.5001069796275747    0.2594222763908107    0.4442993439930025 F F T Ti
   0.7500853215986627    0.8703364250193726    0.2778550345578690 F F T Ti
   0.7501204241673179    0.2036876804315111    0.2779134634888824 F F T Ti
   0.7498964864102219    0.0553775249754164    0.1665200910555622 F F T Ti
  -0.0000511899232333    0.5187278190894338    0.8887023250580404 F F T Ti
   0.7485847158406278    1.0195361303542665    0.3890418402806057 F F T Ti
   0.5000746504558943    0.8513939909854824    0.8896041809652653 F F T Ti
   0.4998462243517314    0.3339840239898215   -0.0000119449792834 F F T Ti
   0.5002779828903824    0.1853173501062261    0.8889666155683655 F F T Ti
   0.0004289236194867    0.7781305323519301    0.3334865845305007 F F T Ti
   0.7492359320902069    0.3516772376831174    0.3892039890393464 F F T Ti
   0.4990507496593882    0.9270869356533006    0.4445007074576243 F F T Ti
   0.7504724678271103    0.0926285032375179    0.9444180717995363 F F T Ti
   0.7502944376332240    1.0190834446763410    0.7222225599458375 F F T Ti
   0.2495517935165419    0.6849846585551869    0.7218703431924005 F F T Ti
   0.2492706110137771    1.0190322536417142    0.3894639861429106 F F T Ti
   0.0004841176504550    0.4074943532228215    0.5558272347654557 F F T Ti
   0.4998581739266997    0.1477667172330276    0.1107399222769636 F F T Ti
   0.7495056616346191    0.6850888115326392    0.3890133779922089 F F T Ti
   0.7498974037428945    0.7591984685848850    0.9442398911268398 F F T Ti
   0.7502289433568059    0.8335392775001113    0.4998680576375514 F F T Ti
   0.2498951653222598    0.2776886221501145    0.8333550674743501 F F T Ti
   0.0007319690377400    0.1108678190761025    0.3333241389969969 F F T Ti
   0.5005552856449084    0.6294007104358189    0.2219207200823024 F F T Ti
   0.7498102399859732    0.4997526498020957    0.4999738191343905 F F T Ti
   0.5003063270432624    0.4813342021394417    0.7778945817211680 F F T Ti
   0.0003011545578601    0.4443109776683164    0.3333297782578192 F F T Ti
   0.2500659537346776    0.3889246304119793    0.1666646156521340 F F T Ti
   0.0004593157159999    0.7407276527814286    0.5556994616071530 F F T Ti
   0.7499589664007379    0.5372290332766686    0.2778279007604584 F F T Ti
   0.0034042081272116    0.9261668275055223    0.4443379516513961 F F T Nb
  -0.0007955497985423    0.1829543116271290    0.8889021362158046 F F T Nb
   0.4998168687279926    0.4819857159258463    0.1108445805938887 F F T Nb
   0.2529331584649590    0.1647168025687931    0.4991768249129459 F F T Nb
   0.4975832870308235    0.4060733292063449    0.5556765570889036 F F T Nb
   0.2514682671844912    0.3521084343831121    0.7228563909179352 F F T Nb
   0.7498894854668198    0.1664824173500737    0.4999650255851756 F F T Nb
  -0.0000199308522110    0.0000509534776071   -0.0001746784517552 F F T Nb
   0.7503600807643558    0.6115088869677775    0.8337254542792184 F F T Nb
   0.7513694862986319    0.3506210232401470    0.7229465459648501 F F T Nb
   0.2501330520519929    0.8345364137811951    0.4998775633385416 F F T Nb
   0.2504580636488039    0.7585554181408830    0.9442539053911181 F F T Nb
   0.2492790023416740    0.4984525881095668    0.4994514799096101 F F T Nb
   0.0009289644364851    0.3332877714754747   -0.0000259359246489 F F T Nb
  -0.0000702346542182    0.8146359456249597    0.1113915522971861 F F T Nb
   0.7487214725870281    0.9085137896187724    0.0557467007561002 F F T Nb
   0.5005938200933709    0.1112181006453722    0.3337247156851078 F F T Nb
   0.5008810097877678    0.5941933848555012    0.4439628845172769 F F T Nb
   0.7495892499498003    0.2773138149833452    0.8331660554124600 F F T Nb
   0.7500503501359642   -0.0582652167630835    0.8334601901535476 F F T Nb
   0.0003188102599387    0.6295835746258009    0.2220188481800910 F F T Nb
  -0.0013161395295951    0.2214063211430094    0.6670689401932420 F F T Nb
   0.7498685242076365    0.5742869276092885    0.0555269802144306 F F T Nb
   0.4996707942471540    0.9626561509222687    0.2222487277888263 F F T Nb
   0.7498829497651244    0.3891606930294873    0.1665311362689704 F F T Nb
   0.4957225303476437    1.0751066790780448    0.5552737998694196 F F T Nb
   0.2511062279074470    0.9074611947719456    0.0552915934497340 F F T Nb
   0.0012608868751333    0.2589141319932352    0.4442796182522069 F F T Nb
   0.2500160050277864    0.0555491159780807    0.1666748385297163 F F T Nb
   0.2483608885329880    0.6510571379936310    0.6106357076716401 F F T Nb
   0.2507630857270932    0.3141984130510688    0.6104611992979506 F F T Nb
   0.7475495221513716    0.4263324350243808    0.9445207599043237 F F T Nb
   0.2500587314067091    0.5740539773686936    0.0553548956246068 F F T W
   0.2494184020951366    0.0925856277890465    0.9448121444358643 F F T W
   0.2502745500970799    0.7222056179457896    0.1666768861842307 F F T W
   0.2494411266852071    0.2046124881747453    0.2777928376900672 F F T W
  -0.0000370588735282    0.8139895819083477    0.7778233066028649 F F T W
   0.2493584891262904    0.3512416656210347    0.3895648227731496 F F T W
  -0.0004602528333926    0.1483869711147026    0.7776907264989419 F F T W
   0.2498069767961148    0.4263283928624023    0.9448492218075097 F F T W
   0.7499436562060972    0.7220114388365448    0.1665267452015047 F F T W
   0.4996546992342818    0.2231895890905080    0.6665379891809190 F F T W
