Generated by pymatgen.io.lammps.data.LammpsData

16000  atoms

    2  atom types

0.000000 57.106232  xlo xhi
0.000000 57.106232  ylo yhi
0.000000 57.106232  zlo zhi
0.000000 0.000000 0.000000  xy xz yz

Masses

1  55.847
2   4.001

Atoms

421    0  1  2.855269  2.855292  0.000009
422    0  1  2.855253  2.855296  2.855256
8001   0  1  1.427628  1.427627  1.427638
8002   0  1  1.427610  1.427633  4.282888
822    0  1  5.710536  2.855292  2.855241
8401   0  1  4.282904  1.427623  1.427623
8402   0  1  4.282885  1.427630  4.282869
8801   0  1  7.138192  1.427623  1.427613
8802   0  1  7.138174  1.427630  4.282853
1222   0  1  8.565832  2.855290  2.855230
1622   0  1 11.421142  2.855291  2.855225
9201   0  1  9.993493  1.427625  1.427607
9202   0  1  9.993477  1.427634  4.282842
2022   0  1 14.276465  2.855293  2.855226
9601   0  1 12.848807  1.427629  1.427606
9602   0  1 12.848795  1.427639  4.282838
10001  0  1 15.704133  1.427634  1.427610
10002  0  1 15.704124  1.427645  4.282839
2421   0  1 17.131800  2.855289  0.000003
2422   0  1 17.131797  2.855296  2.855232
10401  0  1 18.559468  1.427639  1.427618
10402  0  1 18.559462  1.427652  4.282846
2821   0  1 19.987137  2.855292  0.000012
2822   0  1 19.987136  2.855300  2.855241
3221   0  1 22.842478  2.855295  0.000023
3222   0  1 22.842479  2.855305  2.855253
10801  0  1 21.414808  1.427645  1.427628
10802  0  1 21.414805  1.427658  4.282856
11201  0  1 24.270151  1.427650  1.427640
11202  0  1 24.270150  1.427664  4.282868
3602   0  1 25.697822  0.000006  2.855254
3621   0  1 25.697822  2.855299  0.000035
3622   0  1 25.697824  2.855310  2.855266
11601  0  1 27.125495  1.427656  1.427652
11602  0  1 27.125496  1.427670  4.282881
441    0  1  2.855268  5.710629  0.000012
442    0  1  2.855251  5.710632  2.855261
8021   0  1  1.427623  4.282967  1.427643
8022   0  1  1.427604  4.282969  4.282894
8041   0  1  1.427623  7.138303  1.427646
8042   0  1  1.427602  7.138303  4.282900
841    0  1  5.710550  5.710621  0.000001
842    0  1  5.710536  5.710622  2.855244
8421   0  1  4.282900  4.282960  1.427627
8422   0  1  4.282881  4.282961  4.282873
8441   0  1  4.282903  7.138294  1.427630
8442   0  1  4.282883  7.138289  4.282877
8821   0  1  7.138189  4.282954  1.427617
8822   0  1  7.138172  4.282954  4.282857
8841   0  1  7.138194  7.138283  1.427619
8842   0  1  7.138175  7.138276  4.282861
1242   0  1  8.565834  5.710614  2.855234
1642   0  1 11.421145  5.710608  2.855230
9221   0  1  9.993492  4.282950  1.427612
9222   0  1  9.993477  4.282950  4.282848
9241   0  1  9.993498  7.138273  1.427614
9242   0  1  9.993482  7.138265  4.282852
2042   0  1 14.276469  5.710604  2.855232
9621   0  1 12.848807  4.282947  1.427612
9622   0  1 12.848796  4.282948  4.282845
9641   0  1 12.848813  7.138264  1.427615
9642   0  1 12.848803  7.138257  4.282850
10021  0  1 15.704134  4.282946  1.427617
10022  0  1 15.704127  4.282949  4.282848
10041  0  1 15.704139  7.138258  1.427621
10042  0  1 15.704133  7.138252  4.282855
2441   0  1 17.131802  5.710597  0.000007
2442   0  1 17.131801  5.710602  2.855239
10421  0  1 18.559468  4.282947  1.427625
10422  0  1 18.559465  4.282952  4.282857
10441  0  1 18.559473  7.138254  1.427630
10442  0  1 18.559471  7.138251  4.282865
2841   0  1 19.987138  5.710595  0.000017
2842   0  1 19.987140  5.710603  2.855250
3241   0  1 22.842479  5.710595  0.000029
3242   0  1 22.842482  5.710606  2.855263
10821  0  1 21.414808  4.282950  1.427636
10822  0  1 21.414808  4.282956  4.282868
10841  0  1 21.414811  7.138253  1.427642
10842  0  1 21.414813  7.138253  4.282879
11221  0  1 24.270151  4.282953  1.427649
11222  0  1 24.270153  4.282961  4.282882
11241  0  1 24.270153  7.138254  1.427656
11242  0  1 24.270156  7.138257  4.282894
3641   0  1 25.697822  5.710597  0.000042
3642   0  1 25.697825  5.710610  2.855277
11621  0  1 27.125495  4.282957  1.427662
11622  0  1 27.125498  4.282967  4.282897
11641  0  1 27.125494  7.138257  1.427670
11642  0  1 27.125498  7.138264  4.282911
81     0  1  0.000002 11.421301  0.000028
461    0  1  2.855273  8.565964  0.000011
462    0  1  2.855254  8.565964  2.855264
481    0  1  2.855283 11.421295  0.000008
482    0  1  2.855263 11.421293  2.855267
8061   0  1  1.427628  9.993636  1.427648
8062   0  1  1.427604  9.993633  4.282906
862    0  1  5.710542  8.565951  2.855247
882    0  1  5.710554 11.421278  2.855248
8461   0  1  4.282912  9.993625  1.427630
8462   0  1  4.282889  9.993616  4.282881
8861   0  1  7.138206  9.993611  1.427618
8862   0  1  7.138184  9.993598  4.282864
1262   0  1  8.565842  8.565937  2.855236
1282   0  1  8.565857 11.421262  2.855237
1662   0  1 11.421154  8.565925  2.855233
1682   0  1 11.421170 11.421246  2.855234
9261   0  1  9.993511  9.993597  1.427613
9262   0  1  9.993493  9.993582  4.282855
2062   0  1 14.276478  8.565916  2.855236
2082   0  1 14.276492 11.421233  2.855239
9661   0  1 12.848826  9.993584  1.427615
9662   0  1 12.848813  9.993569  4.282855
10061  0  1 15.704151  9.993573  1.427621
10062  0  1 15.704144  9.993560  4.282861
2461   0  1 17.131808  8.565907  0.000008
2462   0  1 17.131809  8.565910  2.855244
2481   0  1 17.131820 11.421224  0.000003
2482   0  1 17.131822 11.421224  2.855248
10461  0  1 18.559481  9.993565  1.427632
10462  0  1 18.559480  9.993555  4.282873
2861   0  1 19.987142  8.565900  0.000018
2862   0  1 19.987146  8.565908  2.855256
2881   0  1 19.987150 11.421213  0.000014
2882   0  1 19.987155 11.421218  2.855260
3261   0  1 22.842480  8.565897  0.000031
3262   0  1 22.842486  8.565908  2.855270
3281   0  1 22.842484 11.421207  0.000027
3282   0  1 22.842491 11.421217  2.855275
10861  0  1 21.414817  9.993561  1.427644
10862  0  1 21.414820  9.993555  4.282887
11261  0  1 24.270154  9.993559  1.427659
11262  0  1 24.270160  9.993559  4.282904
3661   0  1 25.697821  8.565896  0.000045
3662   0  1 25.697826  8.565911  2.855286
3681   0  1 25.697820 11.421204  0.000042
3682   0  1 25.697826 11.421219  2.855291
11661  0  1 27.125492  9.993561  1.427674
11662  0  1 27.125498  9.993566  4.282921
8081   0  1  1.427636 12.848963  1.427648
8082   0  1  1.427611 12.848958  4.282912
101    0  1  0.000010 14.276625  0.000024
501    0  1  2.855298 14.276621  0.000003
502    0  1  2.855275 14.276617  2.855269
8101   0  1  1.427648 15.704284  1.427647
8102   0  1  1.427621 15.704277  4.282918
8481   0  1  4.282926 12.848953  1.427628
8482   0  1  4.282900 12.848941  4.282886
8881   0  1  7.138224 12.848939  1.427616
8882   0  1  7.138199 12.848922  4.282868
902    0  1  5.710572 14.276603  2.855249
8501   0  1  4.282944 15.704275  1.427626
8502   0  1  4.282916 15.704262  4.282891
8901   0  1  7.138247 15.704263  1.427612
8902   0  1  7.138220 15.704244  4.282873
9281   0  1  9.993531 12.848923  1.427611
9282   0  1  9.993509 12.848903  4.282859
1302   0  1  8.565878 14.276586  2.855238
1702   0  1 11.421192 14.276569  2.855236
9301   0  1  9.993557 15.704247  1.427607
9302   0  1  9.993532 15.704225  4.282866
9681   0  1 12.848846 12.848907  1.427613
9682   0  1 12.848830 12.848886  4.282860
10081  0  1 15.704168 12.848893  1.427619
10082  0  1 15.704159 12.848874  4.282868
2102   0  1 14.276513 14.276554  2.855241
9701   0  1 12.848873 15.704231  1.427609
9702   0  1 12.848853 15.704208  4.282868
10101  0  1 15.704192 15.704216  1.427616
10102  0  1 15.704179 15.704194  4.282878
10481  0  1 18.559495 12.848882  1.427630
10482  0  1 18.559492 12.848867  4.282881
2502   0  1 17.131839 14.276542  2.855251
10502  0  1 18.559508 15.704184  4.282892
10501  0  1 18.559514 15.704204  1.427625
2901   0  1 19.987164 14.276534  0.000003
2902   0  1 19.987168 14.276535  2.855264
10881  0  1 21.414825 12.848875  1.427642
10882  0  1 21.414828 12.848865  4.282896
11281  0  1 24.270157 12.848872  1.427656
11282  0  1 24.270162 12.848867  4.282913
3301   0  1 22.842491 14.276525  0.000016
3302   0  1 22.842497 14.276532  2.855278
10901  0  1 21.414838 15.704195  1.427637
10902  0  1 21.414837 15.704180  4.282908
11301  0  1 24.270162 15.704190  1.427650
11302  0  1 24.270165 15.704182  4.282925
11681  0  1 27.125489 12.848873  1.427672
11682  0  1 27.125495 12.848874  4.282930
3702   0  1 25.697826 14.276533  2.855294
11701  0  1 27.125486 15.704190  1.427665
11702  0  1 27.125490 15.704189  4.282941
3701   0  1 25.697820 14.276520  0.000030
121    0  1  0.000020 17.131940  0.000018
141    0  1  0.000030 19.987246  0.000012
142    0  1  0.000002 19.987246  2.855299
522    0  1  2.855290 17.131934  2.855271
542    0  1  2.855306 19.987241  2.855271
8121   0  1  1.427661 18.559594  1.427644
8122   0  1  1.427633 18.559588  4.282924
922    0  1  5.710594 17.131922  2.855251
942    0  1  5.710616 19.987232  2.855252
8521   0  1  4.282964 18.559589  1.427622
8522   0  1  4.282935 18.559577  4.282897
8921   0  1  7.138273 18.559579  1.427609
8922   0  1  7.138244 18.559562  4.282879
1322   0  1  8.565904 17.131907  2.855240
1342   0  1  8.565932 19.987221  2.855242
1722   0  1 11.421220 17.131891  2.855239
1742   0  1 11.421252 19.987208  2.855243
9321   0  1  9.993588 18.559566  1.427604
9322   0  1  9.993560 18.559545  4.282874
2122   0  1 14.276541 17.131876  2.855245
2142   0  1 14.276573 19.987194  2.855250
9721   0  1 12.848905 18.559552  1.427605
9722   0  1 12.848882 18.559529  4.282879
10121  0  1 15.704223 18.559537  1.427611
10122  0  1 15.704206 18.559514  4.282891
10522  0  1 18.559529 18.559504  4.282907
10521  0  1 18.559540 18.559524  1.427620
2522   0  1 17.131863 17.131863  2.855256
2542   0  1 17.131891 19.987181  2.855261
2922   0  1 19.987185 17.131854  2.855269
2942   0  1 19.987207 19.987171  2.855274
3322   0  1 22.842506 17.131849  2.855282
3342   0  1 22.842519 19.987166  2.855287
10921  0  1 21.414856 18.559514  1.427631
10922  0  1 21.414850 18.559499  4.282923
11321  0  1 24.270170 18.559508  1.427643
11322  0  1 24.270169 18.559499  4.282939
3721   0  1 25.697824 17.131840  0.000012
3722   0  1 25.697827 17.131850  2.855297
3742   0  1 25.697829 19.987166  2.855300
11721  0  1 27.125485 18.559508  1.427656
11722  0  1 27.125484 18.559506  4.282954
161    0  1  0.000039 22.842540  0.000005
162    0  1  0.000012 22.842540  2.855299
562    0  1  2.855322 22.842538  2.855272
8141   0  1  1.427674 21.414895  1.427641
8142   0  1  1.427645 21.414890  4.282928
8161   0  1  1.427685 24.270185  1.427637
8162   0  1  1.427657 24.270182  4.282930
962    0  1  5.710637 22.842533  2.855253
8541   0  1  4.282984 21.414892  1.427619
8542   0  1  4.282953 21.414882  4.282901
8561   0  1  4.283001 24.270184  1.427615
8562   0  1  4.282970 24.270177  4.282905
8941   0  1  7.138299 21.414885  1.427605
8942   0  1  7.138268 21.414871  4.282886
8961   0  1  7.138323 24.270180  1.427602
8962   0  1  7.138291 24.270170  4.282890
1362   0  1  8.565959 22.842525  2.855244
1762   0  1 11.421284 22.842515  2.855246
9341   0  1  9.993619 21.414876  1.427600
9342   0  1  9.993590 21.414858  4.282882
9361   0  1  9.993648 24.270174  1.427597
9362   0  1  9.993618 24.270162  4.282889
2162   0  1 14.276606 22.842504  2.855254
10162  0  1 15.704269 24.270141  4.282917
10161  0  1 15.704290 24.270156  1.427604
9741   0  1 12.848940 21.414864  1.427602
9742   0  1 12.848914 21.414845  4.282890
9761   0  1 12.848972 24.270166  1.427598
9762   0  1 12.848946 24.270152  4.282900
10141  0  1 15.704257 21.414851  1.427607
10142  0  1 15.704237 21.414831  4.282905
10562  0  1 18.559583 24.270132  4.282937
10561  0  1 18.559600 24.270146  1.427611
10542  0  1 18.559555 21.414821  4.282923
10541  0  1 18.559570 21.414839  1.427616
2562   0  1 17.131923 22.842492  2.855266
2962   0  1 19.987232 22.842483  2.855279
3362   0  1 22.842535 22.842477  2.855292
10941  0  1 21.414878 21.414829  1.427625
10942  0  1 21.414867 21.414815  4.282940
10961  0  1 21.414902 24.270137  1.427620
10962  0  1 21.414887 24.270127  4.282955
11341  0  1 24.270183 21.414823  1.427636
11342  0  1 24.270175 21.414815  4.282955
11361  0  1 24.270198 24.270132  1.427629
11362  0  1 24.270183 24.270126  4.282970
3762   0  1 25.697834 22.842477  2.855304
11741  0  1 27.125487 21.414822  1.427647
11742  0  1 27.125478 21.414821  4.282968
11761  0  1 27.125490 24.270131  1.427640
11762  0  1 27.125475 24.270132  4.282982
202    0  1  0.000027 28.553105  2.855295
602    0  1  2.855344 28.553106  2.855269
182    0  1  0.000020 25.697826  2.855297
582    0  1  2.855334 25.697825  2.855271
8181   0  1  1.427695 27.125467  1.427633
8182   0  1  1.427666 27.125465  4.282931
1002   0  1  5.710668 28.553105  2.855251
982    0  1  5.710655 25.697822  2.855252
8581   0  1  4.283014 27.125467  1.427611
8582   0  1  4.282983 27.125464  4.282906
8981   0  1  7.138340 27.125465  1.427598
8982   0  1  7.138308 27.125460  4.282892
1802   0  1 11.421330 28.553099  2.855246
1402   0  1  8.565998 28.553102  2.855243
1382   0  1  8.565982 25.697818  2.855245
1782   0  1 11.421311 25.697811  2.855247
9381   0  1  9.993670 27.125461  1.427593
9382   0  1  9.993639 27.125455  4.282893
2202   0  1 14.276657 28.553095  2.855257
10182  0  1 15.704295 27.125442  4.282925
10181  0  1 15.704318 27.125450  1.427600
2182   0  1 14.276636 25.697804  2.855257
9781   0  1 12.848998 27.125456  1.427594
9782   0  1 12.848971 27.125448  4.282905
3002   0  1 19.987277 28.553088  2.855285
2602   0  1 17.131974 28.553091  2.855271
10582  0  1 18.559607 27.125437  4.282946
10581  0  1 18.559627 27.125444  1.427607
2582   0  1 17.131952 25.697795  2.855270
2982   0  1 19.987257 25.697789  2.855283
3402   0  1 22.842567 28.553088  2.855297
3382   0  1 22.842552 25.697785  2.855296
10981  0  1 21.414924 27.125439  1.427616
10982  0  1 21.414906 27.125434  4.282965
11381  0  1 24.270212 27.125436  1.427624
11382  0  1 24.270194 27.125435  4.282980
3802   0  1 25.697849 28.553089  2.855308
3782   0  1 25.697841 25.697785  2.855307
11781  0  1 27.125496 27.125436  1.427634
11782  0  1 27.125476 27.125439  4.282992
423    0  1  2.855232  2.855300  5.710507
424    0  1  2.855209  2.855302  8.565768
8003   0  1  1.427589  1.427640  7.138146
823    0  1  5.710514  2.855295  5.710486
824    0  1  5.710488  2.855297  8.565744
8403   0  1  4.282861  1.427638  7.138122
8803   0  1  7.138148  1.427640  7.138101
1223   0  1  8.565811  2.855294  5.710471
1224   0  1  8.565784  2.855296  8.565725
1604   0  1 11.421094  0.000013  8.565703
1623   0  1 11.421124  2.855295  5.710462
1624   0  1 11.421099  2.855298  8.565713
9203   0  1  9.993452  1.427646  7.138086
2004   0  1 14.276422  0.000027  8.565695
2023   0  1 14.276451  2.855299  5.710460
2024   0  1 14.276429  2.855303  8.565709
9603   0  1 12.848773  1.427653  7.138078
10003  0  1 15.704107  1.427661  7.138077
2403   0  1 17.131784  0.000008  5.710453
2404   0  1 17.131763  0.000038  8.565696
2423   0  1 17.131788  2.855303  5.710465
2424   0  1 17.131771  2.855308  8.565713
10403  0  1 18.559449  1.427669  7.138083
2803   0  1 19.987127  0.000016  5.710460
2804   0  1 19.987112  0.000047  8.565702
2823   0  1 19.987131  2.855309  5.710474
2824   0  1 19.987120  2.855314  8.565722
3203   0  1 22.842474  0.000023  5.710471
3204   0  1 22.842465  0.000055  8.565713
3223   0  1 22.842477  2.855315  5.710486
3224   0  1 22.842472  2.855321  8.565735
10803  0  1 21.414798  1.427676  7.138093
11203  0  1 24.270147  1.427682  7.138105
3603   0  1 25.697821  0.000029  5.710483
3604   0  1 25.697818  0.000060  8.565726
3623   0  1 25.697825  2.855321  5.710501
3624   0  1 25.697823  2.855328  8.565751
11603  0  1 27.125496  1.427689  7.138120
443    0  1  2.855229  5.710628  5.710512
444    0  1  2.855204  5.710620  8.565773
8023   0  1  1.427582  4.282969  7.138151
8043   0  1  1.427578  7.138296  7.138158
843    0  1  5.710513  5.710616  5.710490
844    0  1  5.710485  5.710603  8.565747
8423   0  1  4.282857  4.282958  7.138126
8443   0  1  4.282856  7.138276  7.138131
8823   0  1  7.138147  4.282950  7.138106
8843   0  1  7.138148  7.138258  7.138109
1243   0  1  8.565813  5.710606  5.710475
1244   0  1  8.565784  5.710590  8.565728
1643   0  1 11.421127  5.710599  5.710468
1644   0  1 11.421101  5.710581  8.565717
9223   0  1  9.993454  4.282945  7.138092
9243   0  1  9.993456  7.138244  7.138095
2043   0  1 14.276456  5.710596  5.710468
2044   0  1 14.276434  5.710577  8.565716
9623   0  1 12.848777  4.282944  7.138087
9643   0  1 12.848781  7.138234  7.138091
10023  0  1 15.704112  4.282945  7.138089
10043  0  1 15.704118  7.138230  7.138096
2443   0  1 17.131793  5.710596  5.710475
2444   0  1 17.131778  5.710577  8.565723
10423  0  1 18.559456  4.282949  7.138097
10443  0  1 18.559463  7.138231  7.138107
2843   0  1 19.987137  5.710598  5.710487
2844   0  1 19.987128  5.710581  8.565736
3243   0  1 22.842483  5.710604  5.710501
3244   0  1 22.842480  5.710588  8.565752
10823  0  1 21.414804  4.282954  7.138110
10843  0  1 21.414811  7.138235  7.138123
11223  0  1 24.270153  4.282961  7.138125
11243  0  1 24.270158  7.138243  7.138141
3643   0  1 25.697828  5.710610  5.710517
3644   0  1 25.697829  5.710597  8.565771
11623  0  1 27.125500  4.282969  7.138141
11643  0  1 27.125503  7.138253  7.138160
463    0  1  2.855229  8.565955  5.710518
464    0  1  2.855202  8.565937  8.565780
483    0  1  2.855235 11.421280  5.710525
484    0  1  2.855204 11.421256  8.565789
8063   0  1  1.427578  9.993620  7.138167
863    0  1  5.710517  8.565936  5.710494
864    0  1  5.710484  8.565910  8.565750
883    0  1  5.710525 11.421257  5.710499
884    0  1  5.710486 11.421223  8.565755
8463   0  1  4.282858  9.993595  7.138136
8863   0  1  7.138151  9.993569  7.138112
1263   0  1  8.565818  8.565918  5.710478
1264   0  1  8.565783  8.565885  8.565728
1283   0  1  8.565828 11.421235  5.710482
1284   0  1  8.565784 11.421189  8.565729
1663   0  1 11.421134  8.565904  5.710472
1664   0  1 11.421102  8.565867  8.565717
1683   0  1 11.421144 11.421216  5.710476
1684   0  1 11.421102 11.421162  8.565717
9263   0  1  9.993461  9.993547  7.138097
2063   0  1 14.276463  8.565895  5.710474
2064   0  1 14.276437  8.565856  8.565717
2083   0  1 14.276473 11.421202  5.710480
2084   0  1 14.276439 11.421145  8.565719
9663   0  1 12.848786  9.993531  7.138094
10063  0  1 15.704124  9.993522  7.138101
2463   0  1 17.131801  8.565891  5.710483
2464   0  1 17.131783  8.565852  8.565727
2483   0  1 17.131811 11.421194  5.710491
2484   0  1 17.131787 11.421138  8.565732
10463  0  1 18.559470  9.993520  7.138115
2863   0  1 19.987144  8.565892  5.710497
2864   0  1 19.987135  8.565855  8.565744
2883   0  1 19.987152 11.421193  5.710507
2884   0  1 19.987140 11.421139  8.565752
3263   0  1 22.842488  8.565896  5.710513
3264   0  1 22.842486  8.565863  8.565764
3283   0  1 22.842493 11.421196  5.710525
3284   0  1 22.842492 11.421148  8.565776
10863  0  1 21.414817  9.993524  7.138134
11263  0  1 24.270163  9.993532  7.138154
3663   0  1 25.697831  8.565904  5.710532
3664   0  1 25.697835  8.565875  8.565786
3683   0  1 25.697832 11.421204  5.710544
3684   0  1 25.697838 11.421163  8.565801
11663  0  1 27.125505  9.993545  7.138176
8083   0  1  1.427583 12.848943  7.138178
503    0  1  2.855245 14.276602  5.710533
504    0  1  2.855212 14.276577  8.565802
8103   0  1  1.427591 15.704262  7.138191
8483   0  1  4.282866 12.848916  7.138144
8883   0  1  7.138160 12.848887  7.138118
903    0  1  5.710539 14.276580  5.710506
904    0  1  5.710495 14.276542  8.565764
8503   0  1  4.282879 15.704238  7.138155
8903   0  1  7.138176 15.704209  7.138128
9283   0  1  9.993470 12.848859  7.138103
1303   0  1  8.565844 14.276556  5.710490
1304   0  1  8.565792 14.276505  8.565736
1703   0  1 11.421161 14.276534  5.710485
1704   0  1 11.421109 14.276472  8.565723
9303   0  1  9.993486 15.704180  7.138114
9683   0  1 12.848795 12.848838  7.138101
10083  0  1 15.704133 12.848825  7.138110
2103   0  1 14.276489 14.276517  5.710491
2104   0  1 14.276444 14.276449  8.565728
9703   0  1 12.848811 15.704156  7.138115
10103  0  1 15.704147 15.704140  7.138128
10483  0  1 18.559477 12.848820  7.138127
2503   0  1 17.131824 14.276507  5.710504
2504   0  1 17.131792 14.276438  8.565745
10503  0  1 18.559488 15.704132  7.138148
2903   0  1 19.987161 14.276503  5.710522
2904   0  1 19.987144 14.276437  8.565769
10883  0  1 21.414823 12.848822  7.138148
11283  0  1 24.270166 12.848831  7.138170
3303   0  1 22.842498 14.276505  5.710540
3304   0  1 22.842494 14.276446  8.565795
10903  0  1 21.414828 15.704133  7.138171
11303  0  1 24.270165 15.704141  7.138193
11683  0  1 27.125503 12.848845  7.138192
3703   0  1 25.697831 14.276513  5.710560
3704   0  1 25.697837 14.276462  8.565822
11703  0  1 27.125496 15.704156  7.138215
523    0  1  2.855259 17.131920  5.710542
524    0  1  2.855225 17.131897  8.565817
543    0  1  2.855274 19.987229  5.710551
544    0  1  2.855240 19.987211  8.565833
8123   0  1  1.427603 18.559576  7.138204
923    0  1  5.710558 17.131900  5.710515
924    0  1  5.710511 17.131865  8.565778
943    0  1  5.710579 19.987214  5.710525
944    0  1  5.710532 19.987187  8.565795
8523   0  1  4.282897 18.559556  7.138168
8923   0  1  7.138198 18.559531  7.138142
1323   0  1  8.565866 17.131878  5.710500
1324   0  1  8.565810 17.131830  8.565750
1343   0  1  8.565893 19.987197  5.710512
1344   0  1  8.565834 19.987158  8.565770
1723   0  1 11.421185 17.131857  5.710498
1724   0  1 11.421125 17.131796  8.565741
1743   0  1 11.421215 19.987178  5.710514
1744   0  1 11.421153 19.987129  8.565766
9323   0  1  9.993511 18.559506  7.138131
2123   0  1 14.276512 17.131839  5.710507
2124   0  1 14.276458 17.131770  8.565750
2143   0  1 14.276541 19.987162  5.710528
2144   0  1 14.276485 19.987104  8.565783
9723   0  1 12.848836 18.559482  7.138137
10123  0  1 15.704169 18.559464  7.138155
10523  0  1 18.559503 18.559454  7.138180
2523   0  1 17.131843 17.131826  5.710524
2524   0  1 17.131802 17.131755  8.565772
2543   0  1 17.131868 19.987148  5.710548
2544   0  1 17.131823 19.987086  8.565813
2923   0  1 19.987174 17.131820  5.710543
2924   0  1 19.987149 17.131752  8.565800
2943   0  1 19.987191 19.987141  5.710570
2944   0  1 19.987161 19.987079  8.565846
3323   0  1 22.842503 17.131821  5.710563
3324   0  1 22.842493 17.131759  8.565828
3343   0  1 22.842510 19.987141  5.710590
3344   0  1 22.842493 19.987084  8.565876
10923  0  1 21.414836 18.559453  7.138204
11323  0  1 24.270163 18.559460  7.138227
3723   0  1 25.697828 17.131829  5.710581
3724   0  1 25.697830 17.131775  8.565855
3743   0  1 25.697824 19.987148  5.710607
3744   0  1 25.697818 19.987100  8.565901
11723  0  1 27.125484 18.559475  7.138247
563    0  1  2.855289 22.842529  5.710559
564    0  1  2.855256 22.842517  8.565848
8143   0  1  1.427615 21.414880  7.138215
8163   0  1  1.427627 24.270175  7.138224
963    0  1  5.710600 22.842519  5.710534
964    0  1  5.710553 22.842500  8.565811
8543   0  1  4.282915 21.414866  7.138181
8563   0  1  4.282932 24.270167  7.138191
8943   0  1  7.138222 21.414848  7.138156
8963   0  1  7.138244 24.270155  7.138169
1363   0  1  8.565920 22.842507  5.710524
1364   0  1  8.565862 22.842480  8.565790
1763   0  1 11.421246 22.842493  5.710530
1764   0  1 11.421186 22.842458  8.565793
9343   0  1  9.993540 21.414828  7.138150
9363   0  1  9.993569 24.270141  7.138167
2163   0  1 14.276575 22.842479  5.710548
2164   0  1 14.276521 22.842438  8.565819
10163  0  1 15.704233 24.270114  7.138215
9743   0  1 12.848868 21.414809  7.138162
9763   0  1 12.848902 24.270127  7.138184
10143  0  1 15.704199 21.414792  7.138187
10563  0  1 18.559555 24.270104  7.138250
10543  0  1 18.559526 21.414780  7.138216
2563   0  1 17.131898 22.842467  5.710572
2564   0  1 17.131855 22.842422  8.565857
2963   0  1 19.987213 22.842460  5.710596
2964   0  1 19.987181 22.842413  8.565897
3363   0  1 22.842520 22.842458  5.710617
3364   0  1 22.842498 22.842415  8.565930
10943  0  1 21.414848 21.414777  7.138244
10963  0  1 21.414866 24.270100  7.138281
11343  0  1 24.270162 21.414783  7.138267
11363  0  1 24.270165 24.270105  7.138305
4164   0  1 28.553106 22.842452  8.565971
3763   0  1 25.697821 22.842464  5.710634
3764   0  1 25.697806 22.842429  8.565954
11743  0  1 27.125470 21.414798  7.138284
11763  0  1 27.125458 24.270118  7.138321
604    0  1  2.855280 28.553102  8.565865
603    0  1  2.855312 28.553104  5.710565
583    0  1  2.855302 25.697820  5.710563
584    0  1  2.855270 25.697813  8.565859
8183   0  1  1.427637 27.125463  7.138230
1004   0  1  5.710586 28.553098  8.565832
1003   0  1  5.710630 28.553102  5.710543
983    0  1  5.710617 25.697815  5.710540
984    0  1  5.710572 25.697804  8.565824
8583   0  1  4.282945 27.125459  7.138198
8983   0  1  7.138262 27.125452  7.138177
1804   0  1 11.421239 28.553083  8.565827
1803   0  1 11.421294 28.553093  5.710547
1404   0  1  8.565904 28.553091  8.565816
1403   0  1  8.565959 28.553098  5.710536
1383   0  1  8.565942 25.697807  5.710532
1384   0  1  8.565886 25.697791  8.565806
1783   0  1 11.421274 25.697798  5.710541
1784   0  1 11.421217 25.697777  8.565814
9383   0  1  9.993592 27.125444  7.138178
2204   0  1 14.276584 28.553076  8.565865
2203   0  1 14.276628 28.553088  5.710571
10183  0  1 15.704263 27.125427  7.138235
2183   0  1 14.276605 25.697788  5.710563
2184   0  1 14.276557 25.697763  8.565848
9783   0  1 12.848929 27.125435  7.138200
2604   0  1 17.131921 28.553070  8.565917
3004   0  1 19.987237 28.553068  8.565968
3003   0  1 19.987258 28.553082  5.710630
2603   0  1 17.131951 28.553084  5.710601
10583  0  1 18.559584 27.125421  7.138274
2583   0  1 17.131928 25.697780  5.710591
2584   0  1 17.131891 25.697751  8.565894
2983   0  1 19.987237 25.697774  5.710618
2984   0  1 19.987210 25.697744  8.565940
3404   0  1 22.842530 28.553071  8.566009
3403   0  1 22.842549 28.553084  5.710654
3383   0  1 22.842534 25.697773  5.710640
3384   0  1 22.842512 25.697745  8.565978
10983  0  1 21.414886 27.125419  7.138309
11383  0  1 24.270174 27.125424  7.138334
4183   0  1 28.553108 25.697788  5.710668
4184   0  1 28.553084 25.697775  8.566017
3804   0  1 25.697805 28.553080  8.566037
3803   0  1 25.697828 28.553089  5.710672
4203   0  1 28.553104 28.553095  5.710683
4204   0  1 28.553075 28.553092  8.566052
3783   0  1 25.697823 25.697778  5.710656
3784   0  1 25.697801 25.697757  8.566003
11783  0  1 27.125453 27.125434  7.138351
425    0  1  2.855188  2.855303 11.421048
8004   0  1  1.427570  1.427647  9.993417
8005   0  1  1.427555  1.427653 12.848706
406    0  1  2.855179  0.000004 14.276346
426    0  1  2.855173  2.855302 14.276347
805    0  1  5.710463  0.000005 11.421018
825    0  1  5.710462  2.855298 11.421021
8404   0  1  4.282836  1.427646  9.993391
8405   0  1  4.282815  1.427653 12.848680
8804   0  1  7.138120  1.427651  9.993366
8805   0  1  7.138093  1.427660 12.848654
826    0  1  5.710441  2.855296 14.276321
806    0  1  5.710441  0.000019 14.276318
1205   0  1  8.565751  0.000021 11.420992
1225   0  1  8.565755  2.855297 11.420999
1605   0  1 11.421061  0.000039 11.420972
1625   0  1 11.421070  2.855299 11.420985
9204   0  1  9.993423  1.427659  9.993347
9205   0  1  9.993394  1.427670 12.848633
1206   0  1  8.565723  0.000040 14.276290
1226   0  1  8.565731  2.855295 14.276298
1606   0  1 11.421031  0.000061 14.276269
1626   0  1 11.421044  2.855297 14.276283
2005   0  1 14.276392  0.000055 11.420963
2025   0  1 14.276404  2.855303 11.420980
9604   0  1 12.848745  1.427668  9.993337
9605   0  1 12.848717  1.427680 12.848621
10004  0  1 15.704083  1.427677  9.993335
10005  0  1 15.704059  1.427690 12.848618
2006   0  1 14.276363  0.000078 14.276258
2026   0  1 14.276380  2.855301 14.276277
2405   0  1 17.131738  0.000068 11.420962
2425   0  1 17.131751  2.855309 11.420984
10404  0  1 18.559432  1.427685  9.993340
10405  0  1 18.559413  1.427697 12.848624
2426   0  1 17.131731  2.855305 14.276282
2805   0  1 19.987094  0.000077 11.420969
2825   0  1 19.987106  2.855314 11.420994
2806   0  1 19.987074  0.000097 14.276266
2826   0  1 19.987090  2.855309 14.276294
2406   0  1 17.131713  0.000090 14.276258
3205   0  1 22.842453  0.000084 11.420980
3225   0  1 22.842463  2.855321 11.421009
10804  0  1 21.414786  1.427693  9.993350
10805  0  1 21.414772  1.427703 12.848636
11204  0  1 24.270142  1.427699  9.993364
11205  0  1 24.270133  1.427708 12.848651
3206   0  1 22.842440  0.000101 14.276279
3226   0  1 22.842452  2.855314 14.276310
3605   0  1 25.697813  0.000089 11.420994
3625   0  1 25.697819  2.855327 11.421025
11604  0  1 27.125495  1.427705  9.993379
11605  0  1 27.125492  1.427713 12.848666
3626   0  1 25.697812  2.855319 14.276328
3606   0  1 25.697806  0.000104 14.276294
445    0  1  2.855182  5.710608 11.421052
8024   0  1  1.427562  4.282966  9.993421
8025   0  1  1.427546  4.282961 12.848710
8044   0  1  1.427556  7.138283  9.993429
8045   0  1  1.427539  7.138267 12.848717
446    0  1  2.855166  5.710595 14.276350
845    0  1  5.710457  5.710586 11.421023
8424   0  1  4.282832  4.282952  9.993394
8425   0  1  4.282810  4.282944 12.848683
8444   0  1  4.282828  7.138257  9.993397
8445   0  1  4.282803  7.138235 12.848684
8824   0  1  7.138119  4.282942  9.993370
8825   0  1  7.138092  4.282932 12.848657
8844   0  1  7.138115  7.138232  9.993370
8845   0  1  7.138083  7.138203 12.848652
846    0  1  5.710434  5.710569 14.276321
1245   0  1  8.565753  5.710569 11.420999
1645   0  1 11.421070  5.710557 11.420985
9224   0  1  9.993425  4.282936  9.993353
9225   0  1  9.993397  4.282924 12.848637
9244   0  1  9.993423  7.138213  9.993352
9245   0  1  9.993387  7.138177 12.848629
1246   0  1  8.565724  5.710547 14.276295
1646   0  1 11.421040  5.710532 14.276278
2045   0  1 14.276407  5.710551 11.420983
9624   0  1 12.848751  4.282933  9.993345
9625   0  1 12.848724  4.282920 12.848628
9644   0  1 12.848751  7.138200  9.993345
9645   0  1 12.848716  7.138161 12.848618
10024  0  1 15.704092  4.282935  9.993347
10025  0  1 15.704068  4.282920 12.848629
10044  0  1 15.704094  7.138195  9.993349
10045  0  1 15.704065  7.138154 12.848621
2046   0  1 14.276379  5.710524 14.276274
2445   0  1 17.131757  5.710551 11.420990
10424  0  1 18.559441  4.282939  9.993356
10425  0  1 18.559423  4.282924 12.848639
10444  0  1 18.559447  7.138196  9.993361
10445  0  1 18.559425  7.138155 12.848635
2446   0  1 17.131734  5.710523 14.276281
2845   0  1 19.987114  5.710555 11.421004
2846   0  1 19.987096  5.710527 14.276297
3245   0  1 22.842472  5.710563 11.421023
10824  0  1 21.414795  4.282945  9.993370
10825  0  1 21.414783  4.282929 12.848655
10844  0  1 21.414803  7.138202  9.993380
10845  0  1 21.414789  7.138162 12.848655
11224  0  1 24.270149  4.282952  9.993387
11225  0  1 24.270142  4.282936 12.848673
11244  0  1 24.270157  7.138213  9.993401
11245  0  1 24.270150  7.138173 12.848679
3246   0  1 22.842460  5.710534 14.276317
3645   0  1 25.697827  5.710573 11.421044
11624  0  1 27.125500  4.282961  9.993405
11625  0  1 27.125497  4.282945 12.848692
11644  0  1 27.125506  7.138226  9.993423
11645  0  1 27.125504  7.138188 12.848704
3646   0  1 25.697820  5.710544 14.276340
465    0  1  2.855177  8.565915 11.421057
485    0  1  2.855176 11.421227 11.421067
8064   0  1  1.427554  9.993601  9.993439
8065   0  1  1.427536  9.993577 12.848727
466    0  1  2.855159  8.565891 14.276354
486    0  1  2.855156 11.421195 14.276363
865    0  1  5.710450  8.565878 11.421022
885    0  1  5.710445 11.421179 11.421023
8464   0  1  4.282825  9.993565  9.993402
8465   0  1  4.282796  9.993532 12.848686
8864   0  1  7.138110  9.993529  9.993369
8865   0  1  7.138069  9.993482 12.848644
866    0  1  5.710422  8.565845 14.276316
886    0  1  5.710410 11.421134 14.276313
1265   0  1  8.565743  8.565844 11.420993
1285   0  1  8.565732 11.421130 11.420984
1665   0  1 11.421061  8.565818 11.420976
1685   0  1 11.421046 11.421091 11.420962
9264   0  1  9.993417  9.993497  9.993346
9265   0  1  9.993367  9.993437 12.848612
1266   0  1  8.565705  8.565801 14.276281
1286   0  1  8.565679 11.421067 14.276262
1666   0  1 11.421018  8.565768 14.276257
1686   0  1 11.420982 11.421011 14.276223
2065   0  1 14.276401  8.565804 11.420973
2085   0  1 14.276388 11.421067 11.420959
9664   0  1 12.848746  9.993475  9.993339
9665   0  1 12.848696  9.993407 12.848596
10064  0  1 15.704093  9.993464  9.993345
10065  0  1 15.704050  9.993392 12.848599
2066   0  1 14.276360  8.565748 14.276249
2086   0  1 14.276325 11.420977 14.276210
2465   0  1 17.131756  8.565800 11.420983
2485   0  1 17.131749 11.421059 11.420973
10464  0  1 18.559450  9.993463  9.993362
10465  0  1 18.559419  9.993392 12.848617
2466   0  1 17.131722  8.565743 14.276258
2486   0  1 17.131698 11.420967 14.276221
2865   0  1 19.987118  8.565804 11.421003
2885   0  1 19.987118 11.421064 11.420998
2866   0  1 19.987094  8.565748 14.276279
2886   0  1 19.987084 11.420974 14.276250
3265   0  1 22.842479  8.565814 11.421027
3285   0  1 22.842484 11.421078 11.421030
10864  0  1 21.414808  9.993470  9.993385
10865  0  1 21.414791  9.993402 12.848645
11264  0  1 24.270164  9.993484  9.993411
11265  0  1 24.270158  9.993420 12.848677
3266   0  1 22.842465  8.565760 14.276306
3286   0  1 22.842468 11.420994 14.276288
3665   0  1 25.697835  8.565830 11.421053
3685   0  1 25.697842 11.421100 11.421063
11664  0  1 27.125511  9.993502  9.993438
11665  0  1 27.125514  9.993444 12.848710
3666   0  1 25.697829  8.565777 14.276336
3686   0  1 25.697840 11.421023 14.276330
8084   0  1  1.427557 12.848920  9.993454
8085   0  1  1.427539 12.848893 12.848743
505    0  1  2.855183 14.276546 11.421081
506    0  1  2.855163 14.276511 14.276378
8104   0  1  1.427565 15.704240  9.993471
8105   0  1  1.427548 15.704214 12.848764
8484   0  1  4.282829 12.848881  9.993411
8485   0  1  4.282796 12.848841 12.848693
8884   0  1  7.138110 12.848836  9.993371
8885   0  1  7.138058 12.848777 12.848639
905    0  1  5.710449 14.276494 11.421030
906    0  1  5.710408 14.276442 14.276316
8504   0  1  4.282839 15.704203  9.993425
8505   0  1  4.282805 15.704162 12.848708
8904   0  1  7.138120 15.704158  9.993381
8905   0  1  7.138060 15.704095 12.848645
9284   0  1  9.993413 12.848794  9.993344
9285   0  1  9.993344 12.848714 12.848593
1305   0  1  8.565727 14.276436 11.420983
1705   0  1 11.421034 14.276384 11.420954
1706   0  1 11.420941 14.276275 14.276190
1306   0  1  8.565659 14.276358 14.276247
9304   0  1  9.993418 15.704111  9.993352
9305   0  1  9.993332 15.704020 12.848586
9684   0  1 12.848741 12.848763  9.993335
9685   0  1 12.848668 12.848667 12.848570
10084  0  1 15.704090 12.848746  9.993344
10085  0  1 15.704028 12.848644 12.848575
2105   0  1 14.276375 14.276349 11.420951
2106   0  1 14.276282 14.276223 14.276169
9704   0  1 12.848743 15.704073  9.993344
9705   0  1 12.848644 15.703955 12.848555
10104  0  1 15.704090 15.704050  9.993357
10105  0  1 15.704005 15.703920 12.848562
10484  0  1 18.559450 12.848743  9.993366
10485  0  1 18.559407 12.848642 12.848600
2505   0  1 17.131740 14.276335 11.420970
2506   0  1 17.131666 14.276205 14.276185
10505  0  1 18.559391 15.703913 12.848595
10504  0  1 18.559450 15.704042  9.993384
2905   0  1 19.987114 14.276339 11.421002
2906   0  1 19.987069 14.276215 14.276225
10884  0  1 21.414811 12.848751  9.993394
10885  0  1 21.414790 12.848656 12.848637
11284  0  1 24.270167 12.848767  9.993425
11285  0  1 24.270164 12.848682 12.848679
3305   0  1 22.842485 14.276357 11.421040
3306   0  1 22.842468 14.276244 14.276278
10904  0  1 21.414810 15.704049  9.993416
10905  0  1 21.414782 15.703928 12.848642
11304  0  1 24.270164 15.704066  9.993450
11305  0  1 24.270163 15.703959 12.848693
11684  0  1 27.125513 12.848791  9.993455
11685  0  1 27.125523 12.848717 12.848721
3705   0  1 25.697844 14.276384 11.421079
3706   0  1 25.697850 14.276286 14.276335
11704  0  1 27.125506 15.704093  9.993482
11705  0  1 27.125523 15.704002 12.848742
525    0  1  2.855196 17.131868 11.421101
545    0  1  2.855213 19.987188 11.421124
8124   0  1  1.427578 18.559557  9.993491
8125   0  1  1.427563 18.559534 12.848789
526    0  1  2.855178 17.131836 14.276401
546    0  1  2.855200 19.987163 14.276429
925    0  1  5.710462 17.131820 11.421046
945    0  1  5.710484 19.987151 11.421069
8524   0  1  4.282856 18.559526  9.993443
8525   0  1  4.282824 18.559491 12.848731
8924   0  1  7.138139 18.559487  9.993400
8925   0  1  7.138078 18.559431 12.848664
926    0  1  5.710422 17.131770 14.276332
946    0  1  5.710448 19.987110 14.276359
1325   0  1  8.565737 17.131763 11.420995
1345   0  1  8.565760 19.987104 11.421018
1725   0  1 11.421036 17.131706 11.420963
1745   0  1 11.421060 19.987053 11.420991
9324   0  1  9.993438 18.559444  9.993372
9325   0  1  9.993343 18.559360 12.848601
1326   0  1  8.565660 17.131684 14.276251
1346   0  1  8.565685 19.987037 14.276275
1726   0  1 11.420920 17.131586 14.276176
1746   0  1 11.420934 19.986948 14.276196
2125   0  1 14.276371 17.131662 11.420963
2145   0  1 14.276391 19.987009 11.421000
9724   0  1 12.848760 18.559405  9.993369
9725   0  1 12.848644 18.559289 12.848568
10124  0  1 15.704103 18.559377  9.993390
10125  0  1 15.703993 18.559238 12.848579
2126   0  1 14.276239 17.131505 14.276142
2146   0  1 14.276238 19.986859 14.276163
10525  0  1 18.559377 18.559220 12.848622
10524  0  1 18.559456 18.559365  9.993423
2525   0  1 17.131734 17.131640 11.420988
2545   0  1 17.131744 19.986979 11.421036
2526   0  1 17.131631 17.131473 14.276167
2546   0  1 17.131608 19.986798 14.276193
2925   0  1 19.987108 17.131639 11.421027
2945   0  1 19.987108 19.986970 11.421084
2926   0  1 19.987045 17.131477 14.276220
2946   0  1 19.987020 19.986787 14.276259
3325   0  1 22.842478 17.131655 11.421070
3345   0  1 22.842467 19.986982 11.421130
10924  0  1 21.414809 18.559368  9.993460
10925  0  1 21.414768 18.559228 12.848676
11324  0  1 24.270155 18.559384  9.993494
11325  0  1 24.270147 18.559258 12.848730
3326   0  1 22.842457 17.131509 14.276286
3346   0  1 22.842430 19.986810 14.276331
3725   0  1 25.697835 17.131685 11.421111
3745   0  1 25.697813 19.987010 11.421169
11724  0  1 27.125489 18.559411  9.993524
11725  0  1 27.125503 18.559305 12.848780
3726   0  1 25.697847 17.131560 14.276353
3746   0  1 25.697817 19.986860 14.276398
565    0  1  2.855231 22.842501 11.421146
8144   0  1  1.427591 21.414866  9.993509
8145   0  1  1.427579 21.414850 12.848815
8164   0  1  1.427604 24.270167  9.993525
8165   0  1  1.427595 24.270156 12.848838
566    0  1  2.855222 22.842484 14.276458
966    0  1  5.710478 22.842448 14.276391
965    0  1  5.710508 22.842476 11.421093
8544   0  1  4.282876 21.414844  9.993463
8545   0  1  4.282847 21.414818 12.848758
8564   0  1  4.282894 24.270153  9.993481
8565   0  1  4.282869 24.270137 12.848784
8944   0  1  7.138163 21.414815  9.993421
8945   0  1  7.138106 21.414773 12.848692
8964   0  1  7.138188 24.270134  9.993442
8965   0  1  7.138135 24.270108 12.848721
1766   0  1 11.420976 22.842331 14.276238
1366   0  1  8.565721 22.842396 14.276311
9365   0  1  9.993410 24.270071 12.848668
9364   0  1  9.993499 24.270112  9.993425
9345   0  1  9.993373 21.414718 12.848632
9344   0  1  9.993467 21.414782  9.993399
1765   0  1 11.421096 22.842405 11.421028
1365   0  1  8.565790 22.842442 11.421046
9744   0  1 12.848793 21.414750  9.993405
10164  0  1 15.704174 24.270069  9.993485
10165  0  1 15.704072 24.269994 12.848705
2165   0  1 14.276431 22.842370 11.421051
2166   0  1 14.276283 22.842263 14.276222
10145  0  1 15.704018 21.414607 12.848635
10144  0  1 15.704133 21.414723  9.993437
9765   0  1 12.848721 24.270031 12.848657
9764   0  1 12.848831 24.270089  9.993441
9745   0  1 12.848674 21.414659 12.848608
2966   0  1 19.987023 22.842166 14.276364
2965   0  1 19.987126 22.842327 11.421164
2566   0  1 17.131645 22.842203 14.276278
2565   0  1 17.131780 22.842342 11.421103
10544  0  1 18.559476 21.414706  9.993481
10545  0  1 18.559385 21.414575 12.848692
10564  0  1 18.559511 24.270053  9.993541
10565  0  1 18.559431 24.269964 12.848786
11344  0  1 24.270145 21.414718  9.993559
10965  0  1 21.414774 24.269950 12.848865
10964  0  1 21.414832 24.270048  9.993591
10945  0  1 21.414758 21.414573 12.848755
10944  0  1 21.414815 21.414704  9.993524
3365   0  1 22.842463 22.842332 11.421215
3366   0  1 22.842404 22.842173 14.276441
11365  0  1 24.270103 24.269966 12.848923
11364  0  1 24.270141 24.270058  9.993628
11345  0  1 24.270121 21.414597 12.848810
4166   0  1 28.553096 22.842286 14.276548
4165   0  1 28.553096 22.842397 11.421278
3766   0  1 25.697767 22.842216 14.276503
11765  0  1 27.125415 24.270008 12.848960
11764  0  1 27.125438 24.270082  9.993652
11745  0  1 27.125463 21.414642 12.848853
11744  0  1 27.125463 21.414744  9.993585
3765   0  1 25.697787 22.842357 11.421253
606    0  1  2.855257 28.553097 14.276501
605    0  1  2.855259 28.553100 11.421176
586    0  1  2.855242 25.697795 14.276484
8185   0  1  1.427608 27.125454 12.848855
8184   0  1  1.427616 27.125459  9.993536
585    0  1  2.855247 25.697805 11.421164
1006   0  1  5.710527 28.553088 14.276443
1005   0  1  5.710546 28.553093 11.421128
986    0  1  5.710506 25.697774 14.276421
8985   0  1  7.138160 27.125430 12.848745
8984   0  1  7.138208 27.125442  9.993457
8585   0  1  4.282888 27.125445 12.848804
8584   0  1  4.282909 27.125452  9.993494
985    0  1  5.710529 25.697790 11.421114
1805   0  1 11.421161 28.553071 11.421082
1806   0  1 11.421061 28.553055 14.276318
1406   0  1  8.565787 28.553074 14.276373
1405   0  1  8.565839 28.553083 11.421088
1786   0  1 11.421023 25.697705 14.276284
1386   0  1  8.565758 25.697744 14.276346
9385   0  1  9.993443 27.125409 12.848697
9384   0  1  9.993525 27.125429  9.993444
1785   0  1 11.421133 25.697746 11.421060
1385   0  1  8.565818 25.697770 11.421071
2206   0  1 14.276397 28.553032 14.276334
2205   0  1 14.276514 28.553057 11.421125
9785   0  1 12.848765 27.125386 12.848697
9784   0  1 12.848865 27.125415  9.993467
2185   0  1 14.276478 25.697724 11.421096
10184  0  1 15.704214 27.125402  9.993521
10185  0  1 15.704129 27.125363 12.848761
2186   0  1 14.276345 25.697663 14.276288
3005   0  1 19.987209 28.553041 11.421291
2606   0  1 17.131790 28.553009 14.276441
2605   0  1 17.131874 28.553046 11.421205
10585  0  1 18.559493 27.125344 12.848863
10584  0  1 18.559550 27.125393  9.993585
2585   0  1 17.131831 25.697703 11.421165
2586   0  1 17.131720 25.697623 14.276375
2985   0  1 19.987166 25.697690 11.421240
2986   0  1 19.987086 25.697590 14.276494
3405   0  1 22.842507 28.553045 11.421361
11385  0  1 24.270113 27.125343 12.849030
11384  0  1 24.270149 27.125397  9.993686
3385   0  1 22.842478 25.697690 11.421301
10984  0  1 21.414861 27.125390  9.993644
10985  0  1 21.414822 27.125334 12.848961
3805   0  1 25.697776 28.553060 11.421407
11785  0  1 27.125385 27.125376 12.849067
11784  0  1 27.125425 27.125416  9.993710
4185   0  1 28.553056 25.697744 11.421361
3785   0  1 25.697771 25.697710 11.421340
4205   0  1 28.553037 28.553081 11.421427
407    0  1  2.855170  0.000012 17.131666
427    0  1  2.855164  2.855300 17.131667
8006   0  1  1.427546  1.427656 15.704016
8007   0  1  1.427543  1.427658 18.559342
807    0  1  5.710426  0.000030 17.131641
827    0  1  5.710427  2.855294 17.131643
8406   0  1  4.282800  1.427658 15.703991
8407   0  1  4.282792  1.427660 18.559322
8806   0  1  7.138073  1.427666 15.703966
8807   0  1  7.138061  1.427670 18.559300
1207   0  1  8.565704  0.000054 17.131615
1227   0  1  8.565713  2.855293 17.131622
1607   0  1 11.421009  0.000076 17.131594
1627   0  1 11.421025  2.855294 17.131607
9206   0  1  9.993370  1.427677 15.703945
9207   0  1  9.993356  1.427681 18.559281
2027   0  1 14.276361  2.855296 17.131601
9606   0  1 12.848693  1.427688 15.703932
9607   0  1 12.848678  1.427690 18.559269
10006  0  1 15.704037  1.427696 15.703930
10007  0  1 15.704022  1.427695 18.559267
2007   0  1 14.276341  0.000092 17.131583
2407   0  1 17.131693  0.000100 17.131583
2427   0  1 17.131713  2.855298 17.131606
10406  0  1 18.559394  1.427700 15.703937
10407  0  1 18.559381  1.427697 18.559275
2807   0  1 19.987058  0.000103 17.131593
2827   0  1 19.987075  2.855300 17.131619
3207   0  1 22.842428  0.000104 17.131608
3227   0  1 22.842440  2.855302 17.131637
10806  0  1 21.414758  1.427703 15.703951
10807  0  1 21.414746  1.427696 18.559290
11206  0  1 24.270123  1.427706 15.703967
11207  0  1 24.270113  1.427696 18.559307
3607   0  1 25.697798  0.000104 17.131624
3627   0  1 25.697803  2.855306 17.131655
11606  0  1 27.125486  1.427710 15.703983
11607  0  1 27.125478  1.427698 18.559323
447    0  1  2.855156  5.710582 17.131668
8026   0  1  1.427537  4.282954 15.704018
8027   0  1  1.427535  4.282947 18.559344
8046   0  1  1.427530  7.138251 15.704024
8047   0  1  1.427527  7.138236 18.559348
847    0  1  5.710419  5.710553 17.131641
8426   0  1  4.282795  4.282936 15.703993
8427   0  1  4.282787  4.282928 18.559322
8446   0  1  4.282785  7.138214 15.703992
8447   0  1  4.282776  7.138196 18.559321
8826   0  1  7.138071  4.282921 15.703967
8827   0  1  7.138059  4.282912 18.559300
8846   0  1  7.138057  7.138176 15.703960
8847   0  1  7.138042  7.138154 18.559292
1247   0  1  8.565704  5.710528 17.131616
1647   0  1 11.421017  5.710510 17.131599
9226   0  1  9.993373  4.282911 15.703948
9227   0  1  9.993358  4.282901 18.559282
9246   0  1  9.993356  7.138144 15.703933
9247   0  1  9.993335  7.138118 18.559266
2047   0  1 14.276355  5.710501 17.131592
9626   0  1 12.848699  4.282906 15.703937
9627   0  1 12.848683  4.282895 18.559271
9646   0  1 12.848683  7.138124 15.703919
9647   0  1 12.848658  7.138096 18.559249
10026  0  1 15.704046  4.282905 15.703938
10027  0  1 15.704029  4.282893 18.559272
10046  0  1 15.704034  7.138115 15.703919
10047  0  1 15.704007  7.138086 18.559246
2447   0  1 17.131711  5.710499 17.131599
10426  0  1 18.559404  4.282907 15.703949
10427  0  1 18.559388  4.282893 18.559282
10446  0  1 18.559399  7.138116 15.703932
10447  0  1 18.559374  7.138087 18.559257
2847   0  1 19.987077  5.710503 17.131615
3247   0  1 22.842444  5.710509 17.131637
10826  0  1 21.414768  4.282911 15.703966
10827  0  1 21.414753  4.282896 18.559299
10846  0  1 21.414769  7.138123 15.703954
10847  0  1 21.414747  7.138095 18.559279
11226  0  1 24.270131  4.282917 15.703986
11227  0  1 24.270118  4.282900 18.559320
11246  0  1 24.270137  7.138134 15.703980
11247  0  1 24.270119  7.138105 18.559307
3647   0  1 25.697808  5.710518 17.131660
11626  0  1 27.125489  4.282925 15.704005
11627  0  1 27.125479  4.282907 18.559340
11646  0  1 27.125497  7.138148 15.704007
11647  0  1 27.125483  7.138118 18.559334
467    0  1  2.855149  8.565869 17.131672
487    0  1  2.855146 11.421166 17.131679
8066   0  1  1.427526  9.993554 15.704034
8067   0  1  1.427525  9.993532 18.559357
867    0  1  5.710402  8.565816 17.131635
887    0  1  5.710387 11.421093 17.131629
8466   0  1  4.282775  9.993500 15.703992
8467   0  1  4.282765  9.993473 18.559321
8866   0  1  7.138035  9.993438 15.703947
8867   0  1  7.138014  9.993402 18.559277
1267   0  1  8.565677  8.565764 17.131598
1287   0  1  8.565639 11.421011 17.131572
1667   0  1 11.420983  8.565724 17.131569
1687   0  1 11.420925 11.420938 17.131520
9266   0  1  9.993321  9.993380 15.703905
9267   0  1  9.993288  9.993335 18.559233
2067   0  1 14.276321  8.565701 17.131556
2087   0  1 14.276259 11.420893 17.131491
9666   0  1 12.848643  9.993340 15.703879
9667   0  1 12.848601  9.993288 18.559199
10066  0  1 15.704001  9.993321 15.703875
10067  0  1 15.703954  9.993266 18.559187
2467   0  1 17.131686  8.565695 17.131561
2487   0  1 17.131638 11.420880 17.131493
10466  0  1 18.559379  9.993321 15.703892
10467  0  1 18.559336  9.993266 18.559198
2867   0  1 19.987064  8.565701 17.131581
2887   0  1 19.987038 11.420888 17.131521
3267   0  1 22.842443  8.565713 17.131611
3287   0  1 22.842438 11.420911 17.131563
10866  0  1 21.414764  9.993333 15.703922
10867  0  1 21.414729  9.993280 18.559228
11266  0  1 24.270143  9.993353 15.703958
11267  0  1 24.270118  9.993300 18.559267
3667   0  1 25.697814  8.565730 17.131643
3687   0  1 25.697825 11.420942 17.131610
11666  0  1 27.125509  9.993379 15.703995
11667  0  1 27.125492  9.993324 18.559306
507    0  1  2.855155 14.276480 17.131694
8086   0  1  1.427530 12.848865 15.704049
8087   0  1  1.427531 12.848841 18.559372
8106   0  1  1.427542 15.704186 15.704071
8107   0  1  1.427547 15.704160 18.559393
907    0  1  5.710383 14.276395 17.131629
8486   0  1  4.282773 12.848801 15.703997
8487   0  1  4.282763 12.848768 18.559325
8886   0  1  7.138015 12.848719 15.703934
8887   0  1  7.137989 12.848671 18.559262
8506   0  1  4.282783 15.704121 15.704012
8507   0  1  4.282778 15.704086 18.559337
8906   0  1  7.138012 15.704030 15.703933
8907   0  1  7.137985 15.703975 18.559256
1707   0  1 11.420853 14.276168 17.131461
1307   0  1  8.565607 14.276285 17.131547
9286   0  1  9.993276 12.848631 15.703869
9287   0  1  9.993228 12.848562 18.559189
9306   0  1  9.993243 15.703918 15.703842
9307   0  1  9.993179 15.703827 18.559148
2107   0  1 14.276168 14.276084 17.131402
9686   0  1 12.848584 12.848562 15.703822
9687   0  1 12.848512 12.848472 18.559124
10086  0  1 15.703949 12.848529 15.703814
10087  0  1 15.703864 12.848425 18.559090
10107  0  1 15.703728 15.703569 18.558953
10106  0  1 15.703885 15.703756 15.703752
9706   0  1 12.848517 15.703810 15.703766
9707   0  1 12.848400 15.703669 18.559030
2507   0  1 17.131567 14.276059 17.131404
10487  0  1 18.559272 12.848422 18.559102
10486  0  1 18.559347 12.848527 15.703837
10507  0  1 18.559183 15.703563 18.558978
10506  0  1 18.559305 15.703749 15.703788
2907   0  1 19.986999 14.276072 17.131446
3307   0  1 22.842433 14.276111 17.131511
10886  0  1 21.414754 12.848547 15.703881
10887  0  1 21.414699 12.848444 18.559146
11286  0  1 24.270151 12.848581 15.703933
11287  0  1 24.270118 12.848480 18.559204
10906  0  1 21.414739 15.703778 15.703852
10907  0  1 21.414662 15.703599 18.559049
11306  0  1 24.270158 15.703829 15.703928
11307  0  1 24.270128 15.703665 18.559145
3707   0  1 25.697843 14.276165 17.131583
11686  0  1 27.125526 12.848625 15.703988
11687  0  1 27.125512 12.848525 18.559266
11706  0  1 27.125543 15.703895 15.704004
11707  0  1 27.125547 15.703748 18.559245
527    0  1  2.855175 17.131806 17.131717
547    0  1  2.855202 19.987137 17.131748
8126   0  1  1.427560 18.559510 15.704100
8127   0  1  1.427569 18.559486 18.559422
927    0  1  5.710400 17.131723 17.131643
947    0  1  5.710435 19.987069 17.131672
8526   0  1  4.282807 18.559454 15.704037
8527   0  1  4.282809 18.559421 18.559362
8926   0  1  7.138031 18.559372 15.703950
8927   0  1  7.138012 18.559317 18.559270
1327   0  1  8.565602 17.131604 17.131540
1347   0  1  8.565633 19.986966 17.131562
1727   0  1 11.420801 17.131451 17.131416
1747   0  1 11.420806 19.986819 17.131417
9326   0  1  9.993244 18.559259 15.703843
9327   0  1  9.993176 18.559160 18.559135
10127  0  1 15.703548 18.558735 18.558800
10126  0  1 15.703815 18.559025 15.703709
2127   0  1 14.276060 17.131304 17.131310
2147   0  1 14.276006 19.986639 17.131273
9726   0  1 12.848482 18.559128 15.703742
9727   0  1 12.848319 18.558947 18.558957
10527  0  1 18.559088 18.558735 18.558872
10526  0  1 18.559256 18.559005 15.703765
2527   0  1 17.131482 17.131260 17.131319
2547   0  1 17.131365 19.986499 17.131247
2927   0  1 19.986953 17.131276 17.131387
2947   0  1 19.986891 19.986509 17.131359
3327   0  1 22.842426 17.131334 17.131487
3347   0  1 22.842385 19.986557 17.131478
10926  0  1 21.414707 18.559026 15.703846
10927  0  1 21.414623 18.558785 18.558991
11326  0  1 24.270143 18.559084 15.703938
11327  0  1 24.270143 18.558893 18.559146
3727   0  1 25.697863 17.131419 17.131595
3747   0  1 25.697844 19.986654 17.131605
11726  0  1 27.125536 18.559166 15.704027
11727  0  1 27.125587 18.559032 18.559302
567    0  1  2.855231 22.842464 17.131782
8146   0  1  1.427581 21.414831 15.704131
8147   0  1  1.427594 21.414811 18.559454
8166   0  1  1.427600 24.270144 15.704160
8167   0  1  1.427617 24.270130 18.559486
967    0  1  5.710476 22.842418 17.131711
8546   0  1  4.282837 21.414790 15.704070
8547   0  1  4.282848 21.414762 18.559397
8566   0  1  4.282866 24.270119 15.704103
8567   0  1  4.282886 24.270099 18.559435
8946   0  1  7.138068 21.414728 15.703984
8947   0  1  7.138063 21.414683 18.559306
8966   0  1  7.138108 24.270079 15.704024
8967   0  1  7.138120 24.270049 18.559354
1367   0  1  8.565685 22.842346 17.131606
1767   0  1 11.420861 22.842239 17.131465
9346   0  1  9.993280 21.414639 15.703876
9347   0  1  9.993226 21.414556 18.559165
9366   0  1  9.993330 24.270022 15.703923
9367   0  1  9.993301 24.269968 18.559226
10147  0  1 15.703470 21.414102 18.558748
10146  0  1 15.703816 21.414414 15.703745
2167   0  1 14.276050 22.842097 17.131325
9767   0  1 12.848425 24.269843 18.559038
10167  0  1 15.703557 24.269662 18.558841
10166  0  1 15.703887 24.269868 15.703836
9766   0  1 12.848566 24.269948 15.703834
9746   0  1 12.848506 21.414526 15.703773
9747   0  1 12.848336 21.414361 18.558963
10567  0  1 18.558933 24.269466 18.558887
10566  0  1 18.559277 24.269797 15.703941
10547  0  1 18.558878 21.413898 18.558743
10546  0  1 18.559216 21.414338 15.703807
2567   0  1 17.131379 22.841950 17.131317
2967   0  1 19.986818 22.841848 17.131429
3367   0  1 22.842304 22.841864 17.131551
10946  0  1 21.414663 21.414338 15.703902
10947  0  1 21.414548 21.413973 18.558954
10966  0  1 21.414660 24.269754 15.704061
10967  0  1 21.414414 24.269315 18.559077
11346  0  1 24.270094 21.414382 15.703994
11347  0  1 24.270088 21.414061 18.559119
11366  0  1 24.270038 24.269775 15.704146
11367  0  1 24.269925 24.269352 18.559198
3767   0  1 25.697756 22.841944 17.131663
11746  0  1 27.125482 21.414463 15.704074
11747  0  1 27.125557 21.414223 18.559293
11766  0  1 27.125392 24.269849 15.704209
11767  0  1 27.125397 24.269500 18.559333
587    0  1  2.855256 25.697783 17.131813
8186   0  1  1.427615 27.125449 15.704182
8187   0  1  1.427635 27.125441 18.559511
607    0  1  2.855274 28.553092 17.131835
987    0  1  5.710514 25.697757 17.131750
8586   0  1  4.282891 27.125436 15.704131
8587   0  1  4.282917 27.125425 18.559468
8986   0  1  7.138142 27.125415 15.704058
8987   0  1  7.138167 27.125399 18.559399
1007   0  1  5.710542 28.553081 17.131779
1387   0  1  8.565738 25.697716 17.131656
1787   0  1 11.420930 25.697655 17.131529
9386   0  1  9.993376 27.125386 15.703967
9387   0  1  9.993370 27.125359 18.559289
1807   0  1 11.420986 28.553036 17.131582
1407   0  1  8.565778 28.553063 17.131695
9787   0  1 12.848521 27.125298 18.559126
9786   0  1 12.848627 27.125346 15.703892
10187  0  1 15.703692 27.125210 18.558969
10186  0  1 15.703973 27.125302 15.703922
2187   0  1 14.276140 25.697572 17.131413
2207   0  1 14.276219 28.552998 17.131486
10587  0  1 18.559129 27.125107 18.559105
10586  0  1 18.559385 27.125260 15.704072
2587   0  1 17.131495 25.697481 17.131457
2987   0  1 19.986925 25.697395 17.131644
2607   0  1 17.131612 28.552952 17.131567
3007   0  1 19.987079 28.552907 17.131815
3006   0  1 19.987164 28.552993 14.276585
3387   0  1 22.842288 25.697341 17.131799
10986  0  1 21.414750 27.125227 15.704239
10987  0  1 21.414608 27.125003 18.559424
11386  0  1 24.270046 27.125227 15.704352
11387  0  1 24.269892 27.124941 18.559603
3407   0  1 22.842422 28.552881 17.132037
3406   0  1 22.842475 28.552991 14.276707
3386   0  1 22.842417 25.697581 14.276591
3787   0  1 25.697645 25.697389 17.131875
11786  0  1 27.125321 27.125285 15.704403
11787  0  1 27.125195 27.125042 18.559630
4187   0  1 28.552978 25.697512 17.131931
4207   0  1 28.552883 28.552988 17.132185
3807   0  1 25.697651 28.552904 17.132159
3786   0  1 25.697726 25.697614 14.276651
3806   0  1 25.697732 28.553014 14.276783
4186   0  1 28.553019 25.697675 14.276682
4206   0  1 28.552979 28.553053 14.276811
408    0  1  2.855168  0.000017 19.987003
409    0  1  2.855171  0.000018 22.842351
428    0  1  2.855162  2.855297 19.987003
429    0  1  2.855166  2.855293 22.842351
8008   0  1  1.427546  1.427657 21.414683
808    0  1  5.710419  0.000036 19.986982
809    0  1  5.710420  0.000039 22.842336
828    0  1  5.710421  2.855291 19.986984
829    0  1  5.710421  2.855288 22.842338
8408   0  1  4.282791  1.427660 21.414668
8808   0  1  7.138057  1.427670 21.414650
1208   0  1  8.565694  0.000062 19.986960
1209   0  1  8.565693  0.000064 22.842320
1228   0  1  8.565704  2.855289 19.986966
1229   0  1  8.565703  2.855286 22.842324
1608   0  1 11.420997  0.000084 19.986942
1609   0  1 11.420995  0.000085 22.842306
1628   0  1 11.421015  2.855290 19.986953
1629   0  1 11.421013  2.855285 22.842313
9208   0  1  9.993351  1.427682 21.414635
2008   0  1 14.276329  0.000097 19.986932
2009   0  1 14.276327  0.000095 22.842298
2028   0  1 14.276350  2.855290 19.986947
2029   0  1 14.276347  2.855284 22.842309
9608   0  1 12.848672  1.427689 21.414625
10008  0  1 15.704015  1.427691 21.414623
2408   0  1 17.131682  0.000100 19.986933
2409   0  1 17.131679  0.000093 22.842298
2428   0  1 17.131702  2.855290 19.986952
2429   0  1 17.131698  2.855283 22.842312
10408  0  1 18.559373  1.427689 21.414630
2808   0  1 19.987048  0.000098 19.986943
2809   0  1 19.987044  0.000085 22.842307
2828   0  1 19.987064  2.855290 19.986964
2829   0  1 19.987058  2.855281 22.842323
3208   0  1 22.842419  0.000093 19.986958
3209   0  1 22.842414  0.000077 22.842321
3228   0  1 22.842429  2.855290 19.986982
3229   0  1 22.842421  2.855279 22.842339
10808  0  1 21.414739  1.427685 21.414644
11208  0  1 24.270105  1.427682 21.414661
3608   0  1 25.697790  0.000091 19.986975
3609   0  1 25.697785  0.000072 22.842337
3628   0  1 25.697793  2.855292 19.987001
3629   0  1 25.697785  2.855280 22.842356
11608  0  1 27.125471  1.427683 21.414677
448    0  1  2.855154  5.710571 19.987004
449    0  1  2.855158  5.710563 22.842352
8028   0  1  1.427538  4.282941 21.414683
8048   0  1  1.427531  7.138224 21.414687
848    0  1  5.710412  5.710541 19.986982
849    0  1  5.710412  5.710531 22.842336
8428   0  1  4.282786  4.282921 21.414668
8448   0  1  4.282775  7.138182 21.414667
8828   0  1  7.138055  4.282905 21.414650
8848   0  1  7.138036  7.138137 21.414643
1248   0  1  8.565693  5.710514 19.986960
1249   0  1  8.565691  5.710503 22.842319
1648   0  1 11.421003  5.710495 19.986943
1649   0  1 11.420999  5.710484 22.842306
9228   0  1  9.993352  4.282893 21.414635
9248   0  1  9.993325  7.138100 21.414621
2048   0  1 14.276339  5.710485 19.986936
2049   0  1 14.276333  5.710475 22.842298
9628   0  1 12.848675  4.282886 21.414626
9648   0  1 12.848645  7.138078 21.414604
10028  0  1 15.704020  4.282883 21.414625
10048  0  1 15.703991  7.138070 21.414599
2448   0  1 17.131694  5.710484 19.986940
2449   0  1 17.131685  5.710475 22.842300
10428  0  1 18.559378  4.282884 21.414633
10448  0  1 18.559355  7.138073 21.414607
2848   0  1 19.987060  5.710487 19.986955
2849   0  1 19.987048  5.710479 22.842313
3248   0  1 22.842428  5.710493 19.986977
3249   0  1 22.842414  5.710485 22.842333
10828  0  1 21.414742  4.282886 21.414650
10848  0  1 21.414727  7.138081 21.414628
11228  0  1 24.270106  4.282889 21.414670
11248  0  1 24.270099  7.138091 21.414655
3648   0  1 25.697793  5.710500 19.987001
3649   0  1 25.697779  5.710491 22.842356
11628  0  1 27.125468  4.282893 21.414690
11648  0  1 27.125466  7.138101 21.414681
468    0  1  2.855147  8.565851 19.987007
469    0  1  2.855152  8.565837 22.842355
488    0  1  2.855146 11.421143 19.987013
489    0  1  2.855153 11.421127 22.842361
8068   0  1  1.427531  9.993515 21.414695
868    0  1  5.710394  8.565794 19.986976
869    0  1  5.710394  8.565779 22.842332
888    0  1  5.710377 11.421063 19.986970
889    0  1  5.710378 11.421043 22.842329
8468   0  1  4.282765  9.993453 21.414667
8868   0  1  7.138006  9.993377 21.414631
1268   0  1  8.565661  8.565737 19.986942
1269   0  1  8.565657  8.565720 22.842306
1288   0  1  8.565616 11.420969 19.986916
1289   0  1  8.565610 11.420944 22.842286
1668   0  1 11.420960  8.565693 19.986913
1669   0  1 11.420952  8.565675 22.842281
1688   0  1 11.420888 11.420886 19.986862
1689   0  1 11.420873 11.420855 22.842240
9268   0  1  9.993273  9.993305 21.414592
2068   0  1 14.276294  8.565670 19.986896
2069   0  1 14.276282  8.565653 22.842264
2088   0  1 14.276209 11.420834 19.986822
2089   0  1 14.276186 11.420802 22.842201
9668   0  1 12.848578  9.993255 21.414558
10068  0  1 15.703923  9.993234 21.414540
2468   0  1 17.131656  8.565665 19.986896
2469   0  1 17.131638  8.565651 22.842261
2488   0  1 17.131580 11.420818 19.986811
2489   0  1 17.131546 11.420790 22.842182
10468  0  1 18.559300  9.993237 21.414544
2868   0  1 19.987034  8.565672 19.986914
2869   0  1 19.987012  8.565661 22.842274
2888   0  1 19.986984 11.420828 19.986832
2889   0  1 19.986940 11.420805 22.842193
3268   0  1 22.842417  8.565685 19.986943
3269   0  1 22.842392  8.565676 22.842301
3288   0  1 22.842396 11.420852 19.986875
3289   0  1 22.842350 11.420831 22.842232
10868  0  1 21.414693  9.993253 21.414571
11268  0  1 24.270085  9.993273 21.414610
3668   0  1 25.697793  8.565700 19.986977
3669   0  1 25.697769  8.565690 22.842334
3688   0  1 25.697795 11.420880 19.986925
3689   0  1 25.697755 11.420856 22.842283
11668  0  1 27.125467  9.993293 21.414650
509    0  1  2.855170 14.276436 22.842372
508    0  1  2.855158 14.276454 19.987026
8088   0  1  1.427539 12.848821 21.414707
8108   0  1  1.427559 15.704140 21.414726
909    0  1  5.710382 14.276336 22.842329
908    0  1  5.710375 14.276358 19.986969
8488   0  1  4.282765 12.848745 21.414671
8888   0  1  7.137981 12.848638 21.414618
8508   0  1  4.282786 15.704060 21.414681
8908   0  1  7.137982 15.703936 21.414612
1709   0  1 11.420774 14.276037 22.842185
1708   0  1 11.420795 14.276086 19.986795
1309   0  1  8.565575 14.276196 22.842266
1308   0  1  8.565579 14.276229 19.986890
9288   0  1  9.993204 12.848516 21.414552
9308   0  1  9.993152 15.703765 21.414512
2109   0  1 14.276034 14.275914 22.842102
2108   0  1 14.276077 14.275975 19.986710
9688   0  1 12.848471 12.848414 21.414485
10088  0  1 15.703804 12.848361 21.414437
10108  0  1 15.703612 15.703436 21.414274
9708   0  1 12.848332 15.703572 21.414388
2509   0  1 17.131385 14.275865 22.842044
2508   0  1 17.131454 14.275931 19.986671
10488  0  1 18.559199 12.848356 21.414428
10508  0  1 18.559028 15.703403 21.414228
2909   0  1 19.986812 14.275877 22.842040
2908   0  1 19.986905 14.275944 19.986701
3309   0  1 22.842281 14.275916 22.842099
3308   0  1 22.842368 14.275984 19.986767
10888  0  1 21.414632 12.848379 21.414464
11288  0  1 24.270066 12.848415 21.414525
10908  0  1 21.414540 15.703438 21.414288
11308  0  1 24.270049 15.703503 21.414389
3709   0  1 25.697741 14.275964 22.842184
3708   0  1 25.697808 14.276039 19.986849
11688  0  1 27.125476 12.848453 21.414590
11708  0  1 27.125508 15.703582 21.414502
528    0  1  2.855184 17.131780 19.987048
529    0  1  2.855201 17.131761 22.842389
548    0  1  2.855218 19.987113 19.987077
549    0  1  2.855240 19.987094 22.842412
8128   0  1  1.427586 18.559466 21.414751
928    0  1  5.710400 17.131685 19.986980
929    0  1  5.710415 17.131661 22.842337
948    0  1  5.710446 19.987034 19.987007
949    0  1  5.710473 19.987008 22.842357
8528   0  1  4.282825 18.559395 21.414702
8928   0  1  7.138021 18.559277 21.414622
1328   0  1  8.565577 17.131540 19.986877
1329   0  1  8.565583 17.131501 22.842254
1348   0  1  8.565622 19.986904 19.986893
1349   0  1  8.565646 19.986862 22.842263
1728   0  1 11.420724 17.131339 19.986732
1729   0  1 11.420702 17.131271 22.842129
1748   0  1 11.420727 19.986695 19.986712
1749   0  1 11.420724 19.986614 22.842102
9328   0  1  9.993157 18.559087 21.414492
10128  0  1 15.703326 18.558478 21.414047
2128   0  1 14.275900 17.131116 19.986564
2129   0  1 14.275826 17.131004 22.841965
2148   0  1 14.275776 19.986385 19.986449
2149   0  1 14.275680 19.986211 22.841834
9728   0  1 12.848229 18.558807 21.414295
10528  0  1 18.558727 18.558345 21.413893
2528   0  1 17.131252 17.130998 19.986460
2529   0  1 17.131109 17.130842 22.841812
2548   0  1 17.130936 19.986052 19.986193
2549   0  1 17.130629 19.985696 22.841454
2928   0  1 19.986806 17.131034 19.986533
2929   0  1 19.986583 17.130830 22.841756
2948   0  1 19.986752 19.986196 19.986440
2949   0  1 19.986133 19.985565 22.841200
3328   0  1 22.842345 17.131103 19.986648
3329   0  1 22.842179 17.130891 22.841865
3348   0  1 22.842337 19.986289 19.986624
3349   0  1 22.842148 19.985820 22.841578
10928  0  1 21.414453 18.558462 21.414068
11328  0  1 24.270063 18.558578 21.414248
3728   0  1 25.697845 17.131211 19.986789
3729   0  1 25.697746 17.130987 22.842018
3748   0  1 25.697907 19.986482 19.986867
3749   0  1 25.697836 19.986006 22.841859
11728  0  1 27.125589 18.558749 21.414457
568    0  1  2.855253 22.842445 19.987111
569    0  1  2.855281 22.842426 22.842439
8148   0  1  1.427615 21.414793 21.414780
8168   0  1  1.427640 24.270115 21.414810
968    0  1  5.710500 22.842389 19.987047
969    0  1  5.710540 22.842364 22.842388
8548   0  1  4.282873 21.414738 21.414732
8568   0  1  4.282920 24.270079 21.414768
8948   0  1  7.138089 21.414644 21.414652
8968   0  1  7.138164 24.270017 21.414699
1368   0  1  8.565697 22.842297 19.986940
1369   0  1  8.565745 22.842255 22.842299
1768   0  1 11.420812 22.842142 19.986760
1769   0  1 11.420848 22.842059 22.842133
9348   0  1  9.993231 21.414484 21.414513
9368   0  1  9.993341 24.269914 21.414577
10148  0  1 15.703135 21.413731 21.413862
9768   0  1 12.848398 24.269730 21.414351
2168   0  1 14.275826 22.841883 19.986473
2169   0  1 14.275753 22.841680 22.841805
10168  0  1 15.703264 24.269387 21.413934
9748   0  1 12.848253 21.414204 21.414269
10568  0  1 18.558025 24.268778 21.413336
10548  0  1 18.558126 21.413146 21.413392
2568   0  1 17.130834 22.841493 19.986126
2569   0  1 17.130335 22.840927 22.841151
2968   0  1 19.986341 22.841160 19.986185
2969   0  1 19.984871 22.839752 22.840161
3368   0  1 22.842243 22.841368 19.986550
3369   0  1 22.843148 22.841587 22.842255
10948  0  1 21.414623 21.413719 21.414123
10968  0  1 21.413746 24.268164 21.413566
11348  0  1 24.270126 21.413818 21.414345
11368  0  1 24.269952 24.268599 21.414100
3768   0  1 25.697822 22.841520 19.986770
3769   0  1 25.698013 22.841476 22.842307
11748  0  1 27.125727 21.414173 21.414742
11768  0  1 27.125579 24.268905 21.414423
189    0  1  0.000009 25.697778 22.842494
588    0  1  2.855283 25.697769 19.987143
589    0  1  2.855314 25.697754 22.842466
8188   0  1  1.427660 27.125431 21.414834
208    0  1  0.000000 28.553094 19.987196
209    0  1  0.000019 28.553089 22.842510
608    0  1  2.855304 28.553085 19.987167
609    0  1  2.855338 28.553076 22.842488
988    0  1  5.710550 25.697736 19.987090
989    0  1  5.710600 25.697715 22.842425
8588   0  1  4.282957 27.125411 21.414801
8988   0  1  7.138226 27.125378 21.414748
1008   0  1  5.710586 28.553070 19.987124
1009   0  1  5.710642 28.553056 22.842458
1388   0  1  8.565772 25.697684 19.987000
1389   0  1  8.565845 25.697650 22.842356
1788   0  1 11.420921 25.697599 19.986847
1789   0  1 11.421009 25.697538 22.842224
9388   0  1  9.993441 27.125327 21.414655
1408   0  1  8.565829 28.553048 19.987052
1808   0  1 11.421009 28.553013 19.986926
1809   0  1 11.421135 28.552980 22.842322
1409   0  1  8.565918 28.553026 22.842411
9788   0  1 12.848555 27.125243 21.414476
10188  0  1 15.703505 27.125092 21.414136
2188   0  1 14.275972 25.697456 19.986594
2189   0  1 14.276002 25.697328 22.841948
2208   0  1 14.276104 28.552959 19.986714
2209   0  1 14.276223 28.552906 22.842128
10588  0  1 18.558379 27.124823 21.413672
2588   0  1 17.131010 25.697230 19.986301
2589   0  1 17.130649 25.696885 22.841345
2988   0  1 19.986512 25.696968 19.986492
2989   0  1 19.984906 25.695921 22.840240
3009   0  1 19.985609 28.552496 22.840883
2608   0  1 17.131212 28.552871 19.986487
2609   0  1 17.131040 28.552770 22.841677
3008   0  1 19.986835 28.552754 19.986822
3388   0  1 22.841995 25.696723 19.986790
3389   0  1 22.841118 25.694650 22.840946
10988  0  1 21.414212 27.124474 21.414242
11388  0  1 24.269520 27.124077 21.414652
3408   0  1 22.842354 28.552635 19.987341
3409   0  1 22.842309 28.552034 22.842430
3788   0  1 25.697469 25.696782 19.986815
3789   0  1 25.697376 25.695308 22.841342
11788  0  1 27.124785 27.124146 21.414334
3809   0  1 25.696984 28.551390 22.842805
3808   0  1 25.697447 28.552592 19.987501
4188   0  1 28.552964 25.697086 19.986984
4208   0  1 28.552704 28.552800 19.987366
4209   0  1 28.552323 28.552088 22.840327
410    0  1  2.855179  0.000017 25.697708
430    0  1  2.855173  2.855289 25.697708
8009   0  1  1.427553  1.427655 24.270033
8010   0  1  1.427563  1.427652 27.125390
431    0  1  2.855184  2.855286 28.553068
411    0  1  2.855190  0.000014 28.553068
810    0  1  5.710426  0.000038 25.697699
830    0  1  5.710427  2.855284 25.697700
8409   0  1  4.282795  1.427659 24.270023
8410   0  1  4.282804  1.427656 27.125385
8809   0  1  7.138060  1.427669 24.270012
8810   0  1  7.138067  1.427666 27.125379
831    0  1  5.710437  2.855281 28.553065
811    0  1  5.710436  0.000035 28.553065
1210   0  1  8.565698  0.000063 25.697688
1230   0  1  8.565708  2.855282 25.697691
1610   0  1 11.421001  0.000083 25.697679
1630   0  1 11.421017  2.855281 25.697683
9209   0  1  9.993353  1.427680 24.270001
9210   0  1  9.993360  1.427676 27.125372
1211   0  1  8.565707  0.000060 28.553060
1231   0  1  8.565717  2.855278 28.553061
1611   0  1 11.421010  0.000078 28.553055
1631   0  1 11.421026  2.855277 28.553056
2010   0  1 14.276332  0.000089 25.697673
2030   0  1 14.276351  2.855279 25.697679
9609   0  1 12.848674  1.427685 24.269993
9610   0  1 12.848681  1.427681 27.125366
10009  0  1 15.704017  1.427685 24.269991
10010  0  1 15.704023  1.427678 27.125364
2011   0  1 14.276341  0.000083 28.553050
2031   0  1 14.276358  2.855274 28.553053
2410   0  1 17.131684  0.000084 25.697672
2430   0  1 17.131700  2.855276 25.697680
10409  0  1 18.559373  1.427679 24.269996
10410  0  1 18.559378  1.427671 27.125367
2810   0  1 19.987047  0.000072 25.697678
2830   0  1 19.987058  2.855273 25.697688
2411   0  1 17.131693  0.000075 28.553049
2431   0  1 17.131707  2.855271 28.553053
2811   0  1 19.987055  0.000062 28.553051
2831   0  1 19.987063  2.855267 28.553057
3210   0  1 22.842415  0.000060 25.697689
3230   0  1 22.842419  2.855271 25.697701
10809  0  1 21.414736  1.427673 24.270007
10810  0  1 21.414739  1.427663 27.125374
11209  0  1 24.270101  1.427668 24.270022
11210  0  1 24.270102  1.427657 27.125385
3211   0  1 22.842421  0.000049 28.553057
3231   0  1 22.842422  2.855265 28.553065
3610   0  1 25.697784  0.000054 25.697702
3630   0  1 25.697781  2.855271 25.697715
11609  0  1 27.125466  1.427668 24.270036
11610  0  1 27.125466  1.427656 27.125396
3631   0  1 25.697783  2.855265 28.553075
3611   0  1 25.697787  0.000041 28.553066
450    0  1  2.855166  5.710556 25.697709
8029   0  1  1.427545  4.282935 24.270034
8030   0  1  1.427556  4.282930 27.125390
8049   0  1  1.427540  7.138214 24.270037
8050   0  1  1.427551  7.138208 27.125392
451    0  1  2.855178  5.710552 28.553070
850    0  1  5.710418  5.710525 25.697699
8429   0  1  4.282790  4.282916 24.270024
8430   0  1  4.282799  4.282912 27.125386
8449   0  1  4.282780  7.138172 24.270024
8450   0  1  4.282790  7.138167 27.125387
8829   0  1  7.138058  4.282899 24.270012
8830   0  1  7.138065  4.282895 27.125379
8849   0  1  7.138039  7.138127 24.270008
8850   0  1  7.138047  7.138122 27.125378
851    0  1  5.710428  5.710522 28.553067
1250   0  1  8.565696  5.710497 25.697689
1650   0  1 11.421003  5.710478 25.697678
9229   0  1  9.993353  4.282887 24.270000
9230   0  1  9.993360  4.282882 27.125372
9249   0  1  9.993325  7.138090 24.269991
9250   0  1  9.993332  7.138085 27.125368
1251   0  1  8.565705  5.710494 28.553061
1651   0  1 11.421011  5.710474 28.553055
2050   0  1 14.276335  5.710469 25.697672
9629   0  1 12.848676  4.282879 24.269993
9630   0  1 12.848682  4.282875 27.125366
9649   0  1 12.848643  7.138068 24.269977
9650   0  1 12.848648  7.138063 27.125359
10029  0  1 15.704018  4.282877 24.269991
10030  0  1 15.704023  4.282872 27.125364
10049  0  1 15.703986  7.138062 24.269971
10050  0  1 15.703989  7.138058 27.125353
2051   0  1 14.276342  5.710466 28.553051
2450   0  1 17.131684  5.710470 25.697672
10429  0  1 18.559374  4.282877 24.269997
10430  0  1 18.559376  4.282872 27.125368
10449  0  1 18.559345  7.138067 24.269976
10450  0  1 18.559345  7.138065 27.125355
2850   0  1 19.987044  5.710476 25.697681
2451   0  1 17.131690  5.710467 28.553050
2851   0  1 19.987047  5.710473 28.553055
3250   0  1 22.842407  5.710483 25.697697
10829  0  1 21.414735  4.282879 24.270011
10830  0  1 21.414735  4.282874 27.125377
10849  0  1 21.414713  7.138078 24.269992
10850  0  1 21.414710  7.138078 27.125367
11229  0  1 24.270098  4.282881 24.270029
11230  0  1 24.270096  4.282877 27.125391
11249  0  1 24.270083  7.138088 24.270017
11250  0  1 24.270077  7.138090 27.125386
3251   0  1 22.842408  5.710481 28.553065
3650   0  1 25.697771  5.710489 25.697717
11629  0  1 27.125459  4.282885 24.270046
11630  0  1 27.125457  4.282880 27.125405
11649  0  1 27.125451  7.138097 24.270041
11650  0  1 27.125445  7.138098 27.125406
3651   0  1 25.697771  5.710488 28.553079
470    0  1  2.855161  8.565829 25.697712
490    0  1  2.855166 11.421118 25.697716
8069   0  1  1.427541  9.993503 24.270043
8070   0  1  1.427554  9.993496 27.125396
471    0  1  2.855174  8.565825 28.553072
491    0  1  2.855180 11.421114 28.553076
870    0  1  5.710401  8.565771 25.697699
890    0  1  5.710388 11.421033 25.697698
8469   0  1  4.282771  9.993441 24.270025
8470   0  1  4.282783  9.993435 27.125389
8869   0  1  7.138009  9.993363 24.270000
8870   0  1  7.138019  9.993357 27.125377
871    0  1  5.710413  8.565768 28.553069
891    0  1  5.710403 11.421032 28.553071
1270   0  1  8.565662  8.565711 25.697682
1290   0  1  8.565617 11.420932 25.697671
1670   0  1 11.420955  8.565666 25.697664
1690   0  1 11.420876 11.420843 25.697640
9269   0  1  9.993271  9.993289 24.269971
9270   0  1  9.993280  9.993283 27.125360
1271   0  1  8.565672  8.565709 28.553061
1291   0  1  8.565631 11.420932 28.553061
1671   0  1 11.420964  8.565664 28.553052
1691   0  1 11.420889 11.420842 28.553047
2070   0  1 14.276282  8.565645 25.697650
2090   0  1 14.276184 11.420791 25.697611
9669   0  1 12.848572  9.993239 24.269944
9670   0  1 12.848579  9.993233 27.125343
10069  0  1 15.703912  9.993221 24.269926
10070  0  1 15.703915  9.993218 27.125329
2071   0  1 14.276290  8.565643 28.553043
2091   0  1 14.276196 11.420791 28.553031
10470  0  1 18.559279  9.993230 27.125326
2470   0  1 17.131634  8.565647 25.697646
10469  0  1 18.559281  9.993229 24.269925
2490   0  1 17.131537 11.420783 25.697592
2870   0  1 19.987002  8.565661 25.697654
2890   0  1 19.986920 11.420805 25.697595
2491   0  1 17.131545 11.420784 28.553018
2871   0  1 19.987004  8.565662 28.553044
2891   0  1 19.986922 11.420809 28.553019
2471   0  1 17.131639  8.565645 28.553039
3270   0  1 22.842376  8.565679 25.697676
3290   0  1 22.842319 11.420836 25.697624
10869  0  1 21.414666  9.993250 24.269945
10870  0  1 21.414656  9.993255 27.125339
11269  0  1 24.270056  9.993271 24.269980
11270  0  1 24.270040  9.993278 27.125367
3271   0  1 22.842375  8.565681 28.553058
3291   0  1 22.842312 11.420845 28.553037
3670   0  1 25.697752  8.565692 25.697704
3690   0  1 25.697721 11.420861 25.697671
11669  0  1 27.125440  9.993287 24.270019
11670  0  1 27.125425  9.993293 27.125398
3691   0  1 25.697711 11.420873 28.553071
3671   0  1 25.697749  8.565697 28.553079
4091   0  1 28.553114 11.420885 28.553099
510    0  1  2.855185 14.276426 25.697724
8089   0  1  1.427552 12.848807 24.270052
8090   0  1  1.427568 12.848800 27.125403
8109   0  1  1.427575 15.704125 24.270066
8110   0  1  1.427592 15.704118 27.125410
511    0  1  2.855202 14.276424 28.553079
910    0  1  5.710397 14.276326 25.697699
8489   0  1  4.282776 12.848731 24.270029
8490   0  1  4.282790 12.848725 27.125393
8889   0  1  7.137987 12.848620 24.269992
8890   0  1  7.138001 12.848616 27.125375
8509   0  1  4.282802 15.704046 24.270037
8510   0  1  4.282822 15.704042 27.125397
8909   0  1  7.137996 15.703917 24.269989
8910   0  1  7.138018 15.703914 27.125374
911    0  1  5.710416 14.276327 28.553072
1710   0  1 11.420780 14.276019 25.697608
1310   0  1  8.565587 14.276183 25.697660
9289   0  1  9.993203 12.848493 24.269944
9290   0  1  9.993215 12.848487 27.125349
9309   0  1  9.993156 15.703734 24.269916
9310   0  1  9.993178 15.703730 27.125337
1311   0  1  8.565608 14.276187 28.553060
1711   0  1 11.420801 14.276023 28.553039
2110   0  1 14.276031 14.275893 25.697548
9689   0  1 12.848460 12.848386 24.269891
9690   0  1 12.848470 12.848380 27.125318
10089  0  1 15.703783 12.848335 24.269846
10090  0  1 15.703788 12.848330 27.125287
10110  0  1 15.703584 15.703369 27.125222
10109  0  1 15.703572 15.703378 24.269717
9709   0  1 12.848317 15.703525 24.269819
9710   0  1 12.848336 15.703516 27.125284
2111   0  1 14.276051 14.275896 28.553012
2510   0  1 17.131369 14.275849 25.697498
10490  0  1 18.559157 12.848337 27.125270
10489  0  1 18.559161 12.848336 24.269827
10510  0  1 18.558948 15.703342 27.125168
10509  0  1 18.558951 15.703343 24.269647
2910   0  1 19.986771 14.275870 25.697480
2511   0  1 17.131385 14.275853 28.552983
2911   0  1 19.986776 14.275879 28.552969
3310   0  1 22.842212 14.275918 25.697517
10889  0  1 21.414577 12.848366 24.269847
10890  0  1 21.414557 12.848375 27.125279
11289  0  1 24.270009 12.848401 24.269904
11290  0  1 24.269974 12.848417 27.125322
10909  0  1 21.414416 15.703377 24.269653
10910  0  1 21.414376 15.703389 27.125156
11309  0  1 24.269932 15.703429 24.269748
11310  0  1 24.269848 15.703453 27.125219
3311   0  1 22.842198 14.275935 28.552990
3710   0  1 25.697670 14.275958 25.697597
11689  0  1 27.125428 12.848431 24.269968
11690  0  1 27.125395 12.848441 27.125377
11709  0  1 27.125423 15.703489 24.269866
11710  0  1 27.125343 15.703492 27.125326
4110   0  1 28.553109 14.275989 25.697673
3711   0  1 25.697641 14.275983 28.553047
4111   0  1 28.553096 14.276003 28.553100
530    0  1  2.855220 17.131751 25.697735
550    0  1  2.855264 19.987083 25.697748
8129   0  1  1.427605 18.559451 24.270084
8130   0  1  1.427624 18.559443 27.125419
151    0  1  0.000009 19.987121 28.553093
531    0  1  2.855240 17.131750 28.553082
551    0  1  2.855286 19.987081 28.553083
930    0  1  5.710438 17.131651 25.697704
950    0  1  5.710506 19.986997 25.697713
8529   0  1  4.282848 18.559380 24.270051
8530   0  1  4.282873 18.559375 27.125402
8929   0  1  7.138048 18.559256 24.269994
8930   0  1  7.138081 18.559253 27.125374
931    0  1  5.710463 17.131654 28.553072
951    0  1  5.710536 19.987000 28.553069
1330   0  1  8.565607 17.131488 25.697653
1350   0  1  8.565689 19.986847 25.697654
1730   0  1 11.420720 17.131248 25.697573
1750   0  1 11.420770 19.986585 25.697551
9329   0  1  9.993177 18.559051 24.269899
9330   0  1  9.993217 18.559049 27.125326
1351   0  1  8.565733 19.986856 28.553048
1731   0  1 11.420757 17.131257 28.553029
1751   0  1 11.420831 19.986600 28.553014
1331   0  1  8.565638 17.131495 28.553056
10130  0  1 15.703285 18.558332 27.125131
10129  0  1 15.703255 18.558353 24.269531
2130   0  1 14.275826 17.130964 25.697462
2150   0  1 14.275705 19.986149 25.697373
9729   0  1 12.848222 18.558737 24.269746
9730   0  1 12.848263 18.558728 27.125248
2131   0  1 14.275865 17.130973 28.552988
2151   0  1 14.275783 19.986167 28.552957
10530  0  1 18.558568 18.558153 27.124992
10529  0  1 18.558559 18.558172 24.269322
2530   0  1 17.131082 17.130795 25.697340
2550   0  1 17.130586 19.985573 25.697098
2930   0  1 19.986502 17.130790 25.697256
2950   0  1 19.985967 19.985407 25.696810
2531   0  1 17.131120 17.130805 28.552930
2551   0  1 17.130673 19.985591 28.552860
2931   0  1 19.986522 17.130807 28.552876
2951   0  1 19.986047 19.985441 28.552715
3330   0  1 22.842009 17.130850 25.697282
3350   0  1 22.841608 19.985493 25.696709
10929  0  1 21.414114 18.558200 24.269247
10930  0  1 21.414042 18.558200 27.124893
11329  0  1 24.269818 18.558271 24.269435
11330  0  1 24.269587 18.558279 27.124962
3351   0  1 22.841576 19.985553 28.552614
3331   0  1 22.841980 17.130880 28.552880
3730   0  1 25.697583 17.130905 25.697431
3750   0  1 25.697426 19.985506 25.697016
11729  0  1 27.125459 18.558415 24.269672
11730  0  1 27.125243 18.558309 27.125189
3751   0  1 25.697162 19.985618 28.552779
4151   0  1 28.553026 19.985531 28.553077
4130   0  1 28.553114 17.130977 25.697585
3731   0  1 25.697499 17.130957 28.552982
4131   0  1 28.553068 17.130979 28.553097
170    0  1  0.000012 22.842449 25.697786
570    0  1  2.855308 22.842414 25.697763
8149   0  1  1.427636 21.414778 24.270105
8150   0  1  1.427656 21.414769 27.125429
8169   0  1  1.427664 24.270101 24.270127
8170   0  1  1.427684 24.270092 27.125438
171    0  1  0.000027 22.842442 28.553098
571    0  1  2.855330 22.842410 28.553083
970    0  1  5.710581 22.842349 25.697728
8549   0  1  4.282905 21.414721 24.270071
8550   0  1  4.282934 21.414714 27.125408
8569   0  1  4.282957 24.270061 24.270095
8570   0  1  4.282990 24.270051 27.125415
8949   0  1  7.138132 21.414620 24.270012
8950   0  1  7.138176 21.414615 27.125375
8969   0  1  7.138221 24.269991 24.270044
8970   0  1  7.138274 24.269979 27.125381
971    0  1  5.710616 22.842348 28.553063
1370   0  1  8.565808 22.842233 25.697668
1770   0  1 11.420934 22.842019 25.697557
9349   0  1  9.993280 21.414442 24.269907
9350   0  1  9.993344 21.414436 27.125320
9369   0  1  9.993423 24.269868 24.269950
9370   0  1  9.993508 24.269848 27.125324
1371   0  1  8.565863 22.842237 28.553035
1771   0  1 11.421022 22.842029 28.552992
10150  0  1 15.703143 21.413484 27.125033
10149  0  1 15.703055 21.413522 24.269347
9770   0  1 12.848626 24.269595 27.125215
9769   0  1 12.848489 24.269631 24.269758
2170   0  1 14.275845 22.841590 25.697331
10170  0  1 15.703443 24.269036 27.124976
10169  0  1 15.703241 24.269117 24.269323
9750   0  1 12.848366 21.414103 27.125220
9749   0  1 12.848283 21.414116 24.269712
2171   0  1 14.275983 22.841608 28.552916
10570  0  1 18.557508 24.267669 27.124398
10569  0  1 18.557283 24.267874 24.268245
10550  0  1 18.557764 21.412575 27.124707
10549  0  1 18.557719 21.412659 24.268753
2570   0  1 17.130332 22.840694 25.696851
2970   0  1 19.984424 22.839148 25.695921
2971   0  1 19.984683 22.839194 28.552480
2571   0  1 17.130535 22.840721 28.552769
3370   0  1 22.840663 22.839365 25.694925
10949  0  1 21.413444 21.412593 24.268276
10950  0  1 21.413371 21.412546 27.124318
10969  0  1 21.410522 24.265183 24.265880
10970  0  1 21.410417 24.264713 27.123044
11349  0  1 24.269890 21.413021 24.269026
11350  0  1 24.269021 21.412681 27.124204
11369  0  1 24.273647 24.270727 24.271890
11370  0  1 24.267884 24.265951 27.120899
3371   0  1 22.840915 22.839637 28.551974
3770   0  1 25.697443 22.839727 25.696205
11749  0  1 27.125680 21.413355 24.269499
11750  0  1 27.124918 21.412448 27.124665
11769  0  1 27.125991 24.269568 24.270917
11770  0  1 27.123016 24.265293 27.121980
3771   0  1 25.696354 22.839655 28.551918
4171   0  1 28.553027 22.837544 28.552942
8190   0  1  1.427705 27.125413 27.125446
190    0  1  0.000026 25.697768 25.697801
590    0  1  2.855343 25.697742 25.697779
8189   0  1  1.427685 27.125421 24.270146
610    0  1  2.855368 28.553067 25.697791
210    0  1  0.000036 28.553083 25.697812
211    0  1  0.000050 28.553079 28.553103
611    0  1  2.855391 28.553062 28.553082
591    0  1  2.855366 25.697737 28.553082
191    0  1  0.000041 25.697761 28.553102
990    0  1  5.710647 25.697697 25.697748
8589   0  1  4.282999 27.125396 24.270120
8590   0  1  4.283033 27.125385 27.125423
8989   0  1  7.138294 27.125355 24.270082
8990   0  1  7.138353 27.125338 27.125392
1010   0  1  5.710694 28.553042 25.697768
1011   0  1  5.710733 28.553033 28.553056
991    0  1  5.710684 25.697692 28.553058
1390   0  1  8.565923 25.697621 25.697698
1790   0  1 11.421135 25.697483 25.697605
9389   0  1  9.993551 27.125288 24.270018
9390   0  1  9.993653 27.125256 27.125346
1410   0  1  8.566008 28.553001 25.697736
1810   0  1 11.421294 28.552935 25.697683
1811   0  1 11.421417 28.552902 28.552971
1411   0  1  8.566075 28.552986 28.553022
1791   0  1 11.421245 25.697471 28.552972
1391   0  1  8.565986 25.697614 28.553024
2190   0  1 14.276185 25.697201 25.697397
10189  0  1 15.703665 27.124947 24.269577
9790   0  1 12.848902 27.125103 27.125258
9789   0  1 12.848720 27.125173 24.269888
10190  0  1 15.703994 27.124773 27.125051
2210   0  1 14.276505 28.552821 25.697576
2211   0  1 14.276749 28.552735 28.552883
2191   0  1 14.276384 25.697177 28.552875
3011   0  1 19.986745 28.551190 28.552101
3010   0  1 19.985554 28.552092 25.696247
2991   0  1 19.984645 25.694395 28.552116
10590  0  1 18.558490 27.123870 27.124412
10589  0  1 18.558022 27.124422 24.268733
2590   0  1 17.130769 25.696513 25.696844
2990   0  1 19.983882 25.694425 25.695069
2610   0  1 17.131476 28.552605 25.697287
2611   0  1 17.132010 28.552347 28.552690
2591   0  1 17.131145 25.696465 28.552664
3411   0  1 22.836281 28.546068 28.549198
3410   0  1 22.836474 28.550123 25.691942
3391   0  1 22.834998 25.688507 28.550675
3390   0  1 22.833304 25.687522 25.688817
10989  0  1 21.411225 27.122946 24.266568
10990  0  1 21.410292 27.120377 27.121630
11389  0  1 24.268613 27.120179 24.268686
11390  0  1 24.248983 27.100907 27.103644
4210   0  1 28.551325 28.549122 25.657784
3811   0  1 25.605783 28.505676 28.512316
3810   0  1 25.696464 28.544875 25.698132
3791   0  1 25.694890 25.693182 28.547002
11790  0  1 27.161728 27.151027 27.156327
11789  0  1 27.122606 27.119877 24.267802
3790   0  1 25.710073 25.704129 25.706349
412    0  1  2.855203  0.000009 31.408429
432    0  1  2.855196  2.855282 31.408430
8011   0  1  1.427575  1.427648 29.980749
8012   0  1  1.427588  1.427644 32.836108
812    0  1  5.710448  0.000029 31.408431
832    0  1  5.710448  2.855278 31.408431
8411   0  1  4.282815  1.427652 29.980749
8412   0  1  4.282828  1.427648 32.836111
8811   0  1  7.138078  1.427662 29.980747
8812   0  1  7.138090  1.427657 32.836114
1212   0  1  8.565719  0.000054 31.408431
1232   0  1  8.565728  2.855275 31.408431
1612   0  1 11.421021  0.000071 31.408430
1632   0  1 11.421035  2.855273 31.408429
9211   0  1  9.993370  1.427672 29.980744
9212   0  1  9.993381  1.427667 32.836115
2032   0  1 14.276367  2.855270 31.408426
9611   0  1 12.848690  1.427675 29.980741
9612   0  1 12.848700  1.427670 32.836113
10011  0  1 15.704032  1.427672 29.980739
10012  0  1 15.704041  1.427668 32.836111
2012   0  1 14.276352  0.000076 31.408427
2412   0  1 17.131703  0.000069 31.408425
2432   0  1 17.131715  2.855266 31.408424
10411  0  1 18.559386  1.427665 29.980738
10412  0  1 18.559395  1.427661 32.836108
2812   0  1 19.987064  0.000056 31.408423
2832   0  1 19.987071  2.855263 31.408425
3212   0  1 22.842429  0.000044 31.408425
3232   0  1 22.842430  2.855262 31.408428
10811  0  1 21.414746  1.427657 29.980741
10812  0  1 21.414755  1.427654 32.836107
11211  0  1 24.270108  1.427651 29.980747
11212  0  1 24.270118  1.427650 32.836109
3612   0  1 25.697795  0.000037 31.408429
3632   0  1 25.697791  2.855262 31.408434
11611  0  1 27.125471  1.427650 29.980755
11612  0  1 27.125481  1.427650 32.836113
452    0  1  2.855191  5.710551 31.408432
8031   0  1  1.427568  4.282926 29.980749
8032   0  1  1.427581  4.282924 32.836109
8051   0  1  1.427565  7.138205 29.980751
8052   0  1  1.427579  7.138205 32.836109
852    0  1  5.710440  5.710521 31.408434
8431   0  1  4.282810  4.282909 29.980750
8432   0  1  4.282823  4.282907 32.836113
8451   0  1  4.282802  7.138166 29.980752
8452   0  1  4.282816  7.138168 32.836116
8831   0  1  7.138075  4.282892 29.980748
8832   0  1  7.138088  4.282891 32.836116
8851   0  1  7.138058  7.138122 29.980751
8852   0  1  7.138072  7.138125 32.836121
1252   0  1  8.565716  5.710494 31.408434
1652   0  1 11.421021  5.710473 31.408432
9231   0  1  9.993369  4.282879 29.980745
9232   0  1  9.993380  4.282878 32.836116
9251   0  1  9.993343  7.138084 29.980747
9252   0  1  9.993356  7.138087 32.836124
2052   0  1 14.276351  5.710464 31.408429
9631   0  1 12.848690  4.282871 29.980742
9632   0  1 12.848700  4.282869 32.836115
9651   0  1 12.848658  7.138061 29.980742
9652   0  1 12.848669  7.138063 32.836123
10031  0  1 15.704031  4.282868 29.980739
10032  0  1 15.704040  4.282865 32.836112
10051  0  1 15.703997  7.138056 29.980739
10052  0  1 15.704008  7.138055 32.836121
2452   0  1 17.131698  5.710464 31.408427
10431  0  1 18.559383  4.282868 29.980740
10432  0  1 18.559392  4.282865 32.836110
10451  0  1 18.559352  7.138063 29.980739
10452  0  1 18.559362  7.138060 32.836120
2852   0  1 19.987055  5.710470 31.408428
3252   0  1 22.842416  5.710478 31.408433
10831  0  1 21.414741  4.282871 29.980745
10832  0  1 21.414750  4.282868 32.836111
10851  0  1 21.414715  7.138077 29.980745
10852  0  1 21.414726  7.138073 32.836121
11231  0  1 24.270101  4.282874 29.980753
11232  0  1 24.270112  4.282872 32.836114
11251  0  1 24.270082  7.138090 29.980757
11252  0  1 24.270096  7.138086 32.836125
3652   0  1 25.697781  5.710486 31.408441
11631  0  1 27.125463  4.282878 29.980762
11632  0  1 27.125475  4.282877 32.836118
11651  0  1 27.125451  7.138099 29.980769
11652  0  1 27.125468  7.138096 32.836131
472    0  1  2.855188  8.565826 31.408433
492    0  1  2.855196 11.421117 31.408434
8071   0  1  1.427568  9.993493 29.980753
8072   0  1  1.427583  9.993496 32.836108
872    0  1  5.710427  8.565771 31.408438
892    0  1  5.710420 11.421039 31.408442
8471   0  1  4.282797  9.993435 29.980755
8472   0  1  4.282813  9.993442 32.836118
8871   0  1  7.138033  9.993359 29.980755
8872   0  1  7.138050  9.993369 32.836128
1272   0  1  8.565686  8.565712 31.408440
1292   0  1  8.565650 11.420942 31.408448
1672   0  1 11.420977  8.565667 31.408439
1692   0  1 11.420908 11.420852 31.408450
9271   0  1  9.993293  9.993285 29.980751
9272   0  1  9.993311  9.993296 32.836136
2072   0  1 14.276301  8.565644 31.408436
2092   0  1 14.276213 11.420798 31.408448
9671   0  1 12.848591  9.993235 29.980744
9672   0  1 12.848608  9.993243 32.836140
10071  0  1 15.703926  9.993219 29.980737
10072  0  1 15.703941  9.993222 32.836140
2472   0  1 17.131650  8.565644 31.408433
2492   0  1 17.131561 11.420787 31.408444
10471  0  1 18.559287  9.993230 29.980734
10472  0  1 18.559302  9.993228 32.836138
2872   0  1 19.987014  8.565659 31.408434
2892   0  1 19.986936 11.420808 31.408444
3272   0  1 22.842385  8.565679 31.408441
3292   0  1 22.842329 11.420842 31.408453
10871  0  1 21.414662  9.993256 29.980741
10872  0  1 21.414679  9.993250 32.836140
11271  0  1 24.270045  9.993282 29.980758
11272  0  1 24.270066  9.993276 32.836146
3672   0  1 25.697762  8.565696 31.408452
3692   0  1 25.697731 11.420873 31.408469
11671  0  1 27.125433  9.993298 29.980778
11672  0  1 27.125459  9.993295 32.836153
8091   0  1  1.427583 12.848798 29.980754
8092   0  1  1.427599 12.848803 32.836105
512    0  1  2.855219 14.276429 31.408433
8111   0  1  1.427609 15.704117 29.980755
8112   0  1  1.427624 15.704123 32.836098
8491   0  1  4.282807 12.848728 29.980757
8492   0  1  4.282825 12.848739 32.836118
8891   0  1  7.138020 12.848622 29.980758
8892   0  1  7.138041 12.848638 32.836134
912    0  1  5.710436 14.276339 31.408442
8511   0  1  4.282841 15.704047 29.980757
8512   0  1  4.282860 15.704060 32.836111
8911   0  1  7.138042 15.703925 29.980757
8912   0  1  7.138067 15.703947 32.836132
9291   0  1  9.993236 12.848495 29.980755
9292   0  1  9.993261 12.848515 32.836152
1312   0  1  8.565633 14.276203 31.408453
1712   0  1 11.420831 14.276043 31.408464
9311   0  1  9.993208 15.703745 29.980757
9312   0  1  9.993242 15.703778 32.836162
9691   0  1 12.848491 12.848387 29.980747
9692   0  1 12.848517 12.848407 32.836165
10091  0  1 15.703807 12.848336 29.980735
10092  0  1 15.703831 12.848349 32.836172
2112   0  1 14.276082 14.275915 31.408469
9711   0  1 12.848371 15.703534 29.980751
9712   0  1 12.848415 15.703574 32.836198
10111  0  1 15.703620 15.703386 29.980735
10112  0  1 15.703666 15.703422 32.836224
10491  0  1 18.559173 12.848341 29.980726
10492  0  1 18.559196 12.848343 32.836172
2512   0  1 17.131414 14.275865 31.408465
10512  0  1 18.559022 15.703371 32.836234
10511  0  1 18.558979 15.703354 29.980712
2912   0  1 19.986802 14.275881 31.408461
10891  0  1 21.414567 12.848380 29.980731
10892  0  1 21.414594 12.848372 32.836174
11291  0  1 24.269979 12.848425 29.980756
11292  0  1 24.270015 12.848415 32.836182
3312   0  1 22.842226 14.275932 31.408472
10911  0  1 21.414398 15.703400 29.980707
10912  0  1 21.414445 15.703394 32.836237
11311  0  1 24.269855 15.703471 29.980743
11312  0  1 24.269922 15.703454 32.836251
11691  0  1 27.125403 12.848455 29.980789
11692  0  1 27.125449 12.848450 32.836191
3712   0  1 25.697676 14.275986 31.408498
11711  0  1 27.125349 15.703523 29.980806
11712  0  1 27.125442 15.703523 32.836261
132    0  1  0.000003 17.131798 31.408422
152    0  1  0.000022 19.987121 31.408416
532    0  1  2.855257 17.131756 31.408427
552    0  1  2.855303 19.987088 31.408415
8131   0  1  1.427641 18.559443 29.980754
8132   0  1  1.427655 18.559450 32.836086
932    0  1  5.710486 17.131669 31.408435
952    0  1  5.710560 19.987016 31.408418
8531   0  1  4.282895 18.559381 29.980751
8532   0  1  4.282913 18.559397 32.836095
8931   0  1  7.138111 18.559267 29.980750
8932   0  1  7.138138 18.559295 32.836115
1332   0  1  8.565670 17.131519 31.408450
1352   0  1  8.565769 19.986885 31.408430
1732   0  1 11.420801 17.131292 31.408473
1752   0  1 11.420888 19.986648 31.408458
9331   0  1  9.993261 18.559072 29.980749
9332   0  1  9.993301 18.559115 32.836153
2132   0  1 14.275921 17.131015 31.408498
2152   0  1 14.275872 19.986240 31.408511
9731   0  1 12.848322 18.558761 29.980749
9732   0  1 12.848385 18.558827 32.836217
10131  0  1 15.703357 18.558371 29.980740
10132  0  1 15.703446 18.558457 32.836300
10532  0  1 18.558734 18.558259 32.836350
10531  0  1 18.558644 18.558190 29.980703
2532   0  1 17.131178 17.130842 31.408506
2552   0  1 17.130797 19.985688 31.408582
2932   0  1 19.986576 17.130823 31.408497
2952   0  1 19.986176 19.985515 31.408589
3332   0  1 22.842038 17.130879 31.408505
3352   0  1 22.841712 19.985569 31.408571
10931  0  1 21.414102 18.558229 29.980659
10932  0  1 21.414196 18.558244 32.836360
11331  0  1 24.269603 18.558314 29.980696
11332  0  1 24.269740 18.558283 32.836394
3732   0  1 25.697569 17.130961 31.408558
3752   0  1 25.697305 19.985584 31.408726
11731  0  1 27.125227 18.558390 29.980848
11732  0  1 27.125457 18.558435 32.836394
172    0  1  0.000039 22.842442 31.408408
572    0  1  2.855346 22.842417 31.408399
8151   0  1  1.427673 21.414768 29.980750
8152   0  1  1.427686 21.414776 32.836069
8171   0  1  1.427700 24.270091 29.980744
8172   0  1  1.427712 24.270097 32.836049
972    0  1  5.710640 22.842364 31.408392
8551   0  1  4.282957 21.414720 29.980741
8552   0  1  4.282974 21.414737 32.836069
8571   0  1  4.283014 24.270054 29.980728
8572   0  1  4.283029 24.270070 32.836037
8951   0  1  7.138211 21.414629 29.980733
8952   0  1  7.138236 21.414659 32.836080
8971   0  1  7.138312 24.269988 29.980709
8972   0  1  7.138334 24.270017 32.836029
1372   0  1  8.565901 22.842266 31.408391
1772   0  1 11.421088 22.842082 31.408405
9351   0  1  9.993399 21.414462 29.980726
9352   0  1  9.993440 21.414513 32.836111
9371   0  1  9.993573 24.269868 29.980688
9372   0  1  9.993609 24.269921 32.836032
2172   0  1 14.276100 22.841705 31.408459
10172  0  1 15.703790 24.269309 32.836208
10171  0  1 15.703649 24.269117 29.980648
9751   0  1 12.848454 21.414148 29.980724
9752   0  1 12.848528 21.414235 32.836184
9771   0  1 12.848738 24.269634 29.980665
9772   0  1 12.848806 24.269732 32.836070
10151  0  1 15.703277 21.413556 29.980728
10152  0  1 15.703411 21.413704 32.836335
10572  0  1 18.558215 24.268239 32.836634
10571  0  1 18.557897 24.267845 29.980663
10552  0  1 18.558165 21.412893 32.836576
10551  0  1 18.557949 21.412675 29.980723
2572   0  1 17.130748 22.840898 31.408603
2972   0  1 19.985040 22.839475 31.408877
3372   0  1 22.841255 22.839744 31.408901
10951  0  1 21.413575 21.412651 29.980600
10952  0  1 21.413775 21.412777 32.836663
10971  0  1 21.411150 24.265088 29.980758
10972  0  1 21.411882 24.265889 32.837575
11351  0  1 24.269128 21.412771 29.980527
11352  0  1 24.269472 21.412794 32.836594
11371  0  1 24.268931 24.266536 29.980453
11372  0  1 24.271669 24.268990 32.834244
3772   0  1 25.696652 22.839435 31.409157
11751  0  1 27.124772 21.412621 29.981092
11752  0  1 27.125584 21.413099 32.836561
11771  0  1 27.122015 24.264450 29.983113
11772  0  1 27.125662 24.267592 32.835794
212    0  1  0.000062 28.553077 31.408391
612    0  1  2.855406 28.553063 31.408366
192    0  1  0.000053 25.697761 31.408399
592    0  1  2.855382 25.697741 31.408381
8191   0  1  1.427720 27.125411 29.980738
8192   0  1  1.427731 27.125415 32.836030
1012   0  1  5.710756 28.553038 31.408334
992    0  1  5.710708 25.697704 31.408360
8591   0  1  4.283057 27.125385 29.980715
8592   0  1  4.283070 27.125395 32.836005
8991   0  1  7.138392 27.125339 29.980686
8992   0  1  7.138412 27.125361 32.835975
1412   0  1  8.566113 28.552996 31.408290
1812   0  1 11.421484 28.552924 31.408226
1392   0  1  8.566024 25.697637 31.408338
1792   0  1 11.421312 25.697517 31.408317
9391   0  1  9.993721 27.125260 29.980646
9392   0  1  9.993753 27.125303 32.835937
2212   0  1 14.276876 28.552787 31.408125
10192  0  1 15.704366 27.124995 32.835869
10191  0  1 15.704251 27.124786 29.980503
2192   0  1 14.276511 25.697273 31.408315
9791   0  1 12.849029 27.125110 29.980589
9792   0  1 12.849085 27.125201 32.835893
2612   0  1 17.132286 28.552488 31.407968
10592  0  1 18.559404 27.124470 32.835991
10591  0  1 18.559081 27.123915 29.980390
2592   0  1 17.131409 25.696677 31.408404
2992   0  1 19.985246 25.694883 31.408903
3012   0  1 19.987570 28.551669 31.407765
3392   0  1 22.836533 25.689469 31.410862
10991  0  1 21.411980 27.120664 29.980519
10992  0  1 21.413352 27.122574 32.836850
11391  0  1 24.257141 27.105175 29.984531
11392  0  1 24.262694 27.112728 32.842444
3412   0  1 22.841418 28.548315 31.407767
3792   0  1 25.705117 25.700510 31.400067
11791  0  1 27.153177 27.130301 29.948344
11792  0  1 27.122408 27.109233 32.843581
3812   0  1 25.680656 28.523144 31.421355
413    0  1  2.855216  0.000003 34.263788
433    0  1  2.855210  2.855280 34.263789
434    0  1  2.855224  2.855278 37.119143
8013   0  1  1.427602  1.427640 35.691463
813    0  1  5.710462  0.000022 34.263793
814    0  1  5.710477  0.000014 37.119150
833    0  1  5.710462  2.855275 34.263794
834    0  1  5.710476  2.855274 37.119151
8413   0  1  4.282842  1.427643 35.691470
8813   0  1  7.138103  1.427652 35.691476
1213   0  1  8.565732  0.000046 34.263798
1214   0  1  8.565747  0.000036 37.119158
1233   0  1  8.565740  2.855273 34.263798
1234   0  1  8.565753  2.855271 37.119157
1613   0  1 11.421033  0.000064 34.263801
1614   0  1 11.421046  0.000055 37.119165
1633   0  1 11.421046  2.855270 34.263798
1634   0  1 11.421058  2.855269 37.119160
9213   0  1  9.993393  1.427661 35.691480
2013   0  1 14.276363  0.000070 34.263800
2014   0  1 14.276373  0.000064 37.119166
2033   0  1 14.276377  2.855267 34.263796
2034   0  1 14.276386  2.855266 37.119160
9613   0  1 12.848711  1.427666 35.691481
10013  0  1 15.704050  1.427665 35.691479
2413   0  1 17.131712  0.000066 34.263797
2414   0  1 17.131721  0.000064 37.119163
2433   0  1 17.131724  2.855264 34.263793
2434   0  1 17.131732  2.855263 37.119156
10413  0  1 18.559404  1.427661 35.691474
2813   0  1 19.987073  0.000056 34.263793
2814   0  1 19.987082  0.000058 37.119158
2833   0  1 19.987080  2.855262 34.263790
2834   0  1 19.987089  2.855262 37.119152
3213   0  1 22.842439  0.000046 34.263790
3214   0  1 22.842447  0.000053 37.119153
3233   0  1 22.842440  2.855261 34.263789
3234   0  1 22.842450  2.855263 37.119148
10813  0  1 21.414764  1.427656 35.691470
11213  0  1 24.270128  1.427654 35.691468
3613   0  1 25.697805  0.000041 34.263791
3614   0  1 25.697814  0.000050 37.119152
3633   0  1 25.697802  2.855262 34.263791
3634   0  1 25.697813  2.855265 37.119147
11613  0  1 27.125491  1.427655 35.691470
453    0  1  2.855205  5.710552 34.263791
454    0  1  2.855219  5.710556 37.119145
8033   0  1  1.427595  4.282923 35.691465
8053   0  1  1.427593  7.138208 35.691464
853    0  1  5.710454  5.710524 34.263798
854    0  1  5.710470  5.710530 37.119155
8433   0  1  4.282837  4.282908 35.691472
8453   0  1  4.282831  7.138174 35.691474
8833   0  1  7.138101  4.282893 35.691478
8853   0  1  7.138087  7.138134 35.691485
1253   0  1  8.565729  5.710496 34.263802
1254   0  1  8.565744  5.710503 37.119163
1653   0  1 11.421032  5.710475 34.263804
1654   0  1 11.421045  5.710481 37.119168
9233   0  1  9.993392  4.282879 35.691482
9253   0  1  9.993370  7.138096 35.691493
2053   0  1 14.276361  5.710464 34.263803
2054   0  1 14.276372  5.710468 37.119169
9633   0  1 12.848710  4.282870 35.691483
9653   0  1 12.848682  7.138069 35.691497
10033  0  1 15.704049  4.282865 35.691480
10053  0  1 15.704019  7.138058 35.691497
2453   0  1 17.131708  5.710462 34.263801
2454   0  1 17.131718  5.710463 37.119167
10433  0  1 18.559401  4.282864 35.691477
10453  0  1 18.559374  7.138059 35.691494
2853   0  1 19.987065  5.710467 34.263799
2854   0  1 19.987077  5.710466 37.119163
3253   0  1 22.842429  5.710475 34.263798
3254   0  1 22.842442  5.710472 37.119159
10833  0  1 21.414761  4.282866 35.691473
10853  0  1 21.414741  7.138068 35.691491
11233  0  1 24.270124  4.282871 35.691472
11253  0  1 24.270112  7.138080 35.691489
3653   0  1 25.697796  5.710483 34.263800
3654   0  1 25.697810  5.710480 37.119157
11633  0  1 27.125488  4.282876 35.691474
11653  0  1 27.125486  7.138091 35.691490
473    0  1  2.855203  8.565831 34.263792
474    0  1  2.855219  8.565840 37.119144
493    0  1  2.855212 11.421126 34.263790
494    0  1  2.855228 11.421141 37.119138
8073   0  1  1.427598  9.993503 35.691460
873    0  1  5.710443  8.565779 34.263803
874    0  1  5.710460  8.565793 37.119159
893    0  1  5.710438 11.421054 34.263806
894    0  1  5.710459 11.421076 37.119161
8473   0  1  4.282830  9.993454 35.691475
8873   0  1  7.138069  9.993386 35.691493
1273   0  1  8.565702  8.565722 34.263813
1274   0  1  8.565721  8.565739 37.119175
1293   0  1  8.565671 11.420961 34.263826
1294   0  1  8.565696 11.420990 37.119190
1673   0  1 11.420992  8.565676 34.263819
1674   0  1 11.421010  8.565692 37.119188
1693   0  1 11.420931 11.420872 34.263843
1694   0  1 11.420959 11.420903 37.119218
9273   0  1  9.993331  9.993314 35.691511
2073   0  1 14.276314  8.565649 34.263822
2074   0  1 14.276331  8.565661 37.119195
2093   0  1 14.276234 11.420812 34.263854
2094   0  1 14.276261 11.420840 37.119239
9673   0  1 12.848627  9.993259 35.691524
10073  0  1 15.703959  9.993231 35.691530
2473   0  1 17.131663  8.565644 34.263821
2474   0  1 17.131678  8.565649 37.119196
2493   0  1 17.131581 11.420792 34.263858
2494   0  1 17.131606 11.420808 37.119249
10473  0  1 18.559319  9.993228 35.691530
2873   0  1 19.987028  8.565654 34.263819
2874   0  1 19.987044  8.565653 37.119193
2893   0  1 19.986958 11.420803 34.263858
2894   0  1 19.986984 11.420807 37.119249
3273   0  1 22.842403  8.565672 34.263819
3274   0  1 22.842422  8.565666 37.119188
3293   0  1 22.842357 11.420831 34.263858
3294   0  1 22.842385 11.420825 37.119243
10873  0  1 21.414700  9.993243 35.691527
11273  0  1 24.270092  9.993265 35.691524
3673   0  1 25.697784  8.565689 34.263821
3674   0  1 25.697804  8.565681 37.119185
3693   0  1 25.697767 11.420862 34.263859
3694   0  1 25.697796 11.420849 37.119237
11673  0  1 27.125487  9.993284 35.691524
8093   0  1  1.427613 12.848813 35.691452
114    0  1  0.000010 14.276493 37.119108
513    0  1  2.855235 14.276441 34.263782
514    0  1  2.855250 14.276460 37.119124
8113   0  1  1.427638 15.704136 35.691437
8493   0  1  4.282843 12.848756 35.691471
8893   0  1  7.138064 12.848664 35.691499
913    0  1  5.710457 14.276359 34.263804
914    0  1  5.710478 14.276388 37.119154
8513   0  1  4.282877 15.704082 35.691457
8913   0  1  7.138092 15.703981 35.691493
9293   0  1  9.993290 12.848548 35.691532
1313   0  1  8.565661 14.276233 34.263835
1314   0  1  8.565692 14.276274 37.119197
1713   0  1 11.420866 14.276080 34.263871
1714   0  1 11.420908 14.276134 37.119250
9313   0  1  9.993280 15.703827 35.691545
9693   0  1 12.848548 12.848441 35.691564
10093  0  1 15.703861 12.848374 35.691585
2113   0  1 14.276120 14.275951 34.263903
2114   0  1 14.276167 14.276008 37.119300
9713   0  1 12.848466 15.703638 35.691610
10113  0  1 15.703723 15.703484 35.691667
10493  0  1 18.559225 12.848352 35.691593
2513   0  1 17.131449 14.275886 34.263921
2514   0  1 17.131496 14.275931 37.119331
10513  0  1 18.559077 15.703411 35.691697
2913   0  1 19.986839 14.275882 34.263927
2914   0  1 19.986886 14.275906 37.119340
10893  0  1 21.414629 12.848367 35.691592
11293  0  1 24.270058 12.848401 35.691586
3313   0  1 22.842275 14.275918 34.263928
3314   0  1 22.842324 14.275923 37.119334
10913  0  1 21.414509 15.703404 35.691703
11313  0  1 24.270002 15.703451 35.691691
11693  0  1 27.125494 12.848434 35.691583
3713   0  1 25.697742 14.275971 34.263926
3714   0  1 25.697785 14.275958 37.119324
11713  0  1 27.125515 15.703507 35.691684
133    0  1  0.000016 17.131804 34.263756
134    0  1  0.000028 17.131817 37.119087
153    0  1  0.000034 19.987128 34.263739
154    0  1  0.000045 19.987141 37.119061
533    0  1  2.855272 17.131771 34.263767
534    0  1  2.855285 17.131792 37.119101
553    0  1  2.855316 19.987104 34.263743
554    0  1  2.855325 19.987126 37.119066
8133   0  1  1.427667 18.559464 35.691415
933    0  1  5.710506 17.131693 34.263789
934    0  1  5.710525 17.131727 37.119130
953    0  1  5.710578 19.987044 34.263758
954    0  1  5.710591 19.987080 37.119087
8533   0  1  4.282928 18.559422 35.691431
8933   0  1  7.138160 18.559334 35.691465
1333   0  1  8.565701 17.131558 34.263828
1334   0  1  8.565732 17.131610 37.119183
1353   0  1  8.565798 19.986930 34.263794
1354   0  1  8.565822 19.986987 37.119134
1733   0  1 11.420848 17.131349 34.263888
1734   0  1 11.420903 17.131428 37.119264
1753   0  1 11.420940 19.986722 34.263866
1754   0  1 11.420991 19.986817 37.119225
9333   0  1  9.993340 18.559177 35.691528
2133   0  1 14.275987 17.131089 34.263965
2134   0  1 14.276070 17.131198 37.119368
2153   0  1 14.275966 19.986360 34.263995
2154   0  1 14.276077 19.986525 37.119382
9733   0  1 12.848455 18.558924 35.691632
10133  0  1 15.703554 18.558593 35.691771
10533  0  1 18.558854 18.558388 35.691864
2533   0  1 17.131248 17.130908 34.264025
2534   0  1 17.131343 17.131023 37.119449
2553   0  1 17.130946 19.985859 34.264180
2554   0  1 17.131150 19.986123 37.119584
2933   0  1 19.986645 17.130852 34.264049
2934   0  1 19.986745 17.130944 37.119470
2953   0  1 19.986327 19.985651 34.264280
2954   0  1 19.986592 19.985964 37.119598
3333   0  1 22.842129 17.130871 34.264055
3334   0  1 22.842223 17.130933 37.119472
3353   0  1 22.841927 19.985650 34.264229
3354   0  1 22.842039 19.985813 37.119670
10933  0  1 21.414336 18.558337 35.691859
11333  0  1 24.269908 18.558369 35.691848
3733   0  1 25.697707 17.130961 34.264043
3734   0  1 25.697767 17.130975 37.119457
3753   0  1 25.697666 19.985766 34.264205
3754   0  1 25.697711 19.985813 37.119670
11733  0  1 27.125565 18.558457 35.691832
173    0  1  0.000050 22.842449 34.263718
174    0  1  0.000059 22.842462 37.119030
573    0  1  2.855357 22.842433 34.263712
574    0  1  2.855363 22.842455 37.119025
8153   0  1  1.427695 21.414791 35.691386
8173   0  1  1.427720 24.270111 35.691355
973    0  1  5.710654 22.842393 34.263713
974    0  1  5.710660 22.842428 37.119029
8553   0  1  4.282984 21.414762 35.691391
8573   0  1  4.283035 24.270094 35.691345
8953   0  1  7.138251 21.414701 35.691413
8973   0  1  7.138342 24.270059 35.691342
1373   0  1  8.565923 22.842315 34.263729
1374   0  1  8.565934 22.842373 37.119052
1773   0  1 11.421129 22.842167 34.263780
1774   0  1 11.421159 22.842266 37.119113
9353   0  1  9.993470 21.414583 35.691465
9373   0  1  9.993623 24.269993 35.691357
2173   0  1 14.276190 22.841859 34.263913
2174   0  1 14.276283 22.842047 37.119253
10173  0  1 15.703913 24.269572 35.691589
9753   0  1 12.848593 21.414356 35.691577
9773   0  1 12.848843 24.269863 35.691416
10153  0  1 15.703561 21.413922 35.691797
10573  0  1 18.558652 24.268837 35.692043
10553  0  1 18.558469 21.413268 35.692106
2573   0  1 17.130959 22.841191 34.264224
2574   0  1 17.131237 22.841580 37.119549
2973   0  1 19.985506 22.840022 34.264734
2974   0  1 19.986068 22.840694 37.120064
3373   0  1 22.842298 22.840733 34.263789
3374   0  1 22.841652 22.840296 37.120271
10953  0  1 21.414251 21.413281 35.691904
10973  0  1 21.412943 24.267037 35.693091
11353  0  1 24.269693 21.413065 35.692045
11373  0  1 24.268974 24.266498 35.693413
3773   0  1 25.697468 22.840281 34.264218
3774   0  1 25.697463 22.839979 37.120491
11753  0  1 27.125636 21.413155 35.692029
11773  0  1 27.125471 24.266088 35.693783
614    0  1  2.855417 28.553079 37.118952
613    0  1  2.855415 28.553069 34.263653
214    0  1  0.000079 28.553083 37.118980
213    0  1  0.000071 28.553079 34.263681
193    0  1  0.000062 25.697766 34.263698
194    0  1  0.000070 25.697775 37.119002
593    0  1  2.855391 25.697754 34.263680
594    0  1  2.855395 25.697772 37.118984
8193   0  1  1.427738 27.125424 35.691326
1014   0  1  5.710760 28.553069 37.118917
1013   0  1  5.710764 28.553052 34.263618
993    0  1  5.710718 25.697729 34.263661
994    0  1  5.710719 25.697759 37.118967
8593   0  1  4.283075 27.125413 35.691301
8993   0  1  7.138414 27.125394 35.691271
1413   0  1  8.566123 28.553025 34.263568
1813   0  1 11.421495 28.552985 34.263495
1814   0  1 11.421462 28.553033 37.118815
1414   0  1  8.566109 28.553055 37.118873
1393   0  1  8.566039 25.697684 34.263645
1394   0  1  8.566036 25.697734 37.118954
1793   0  1 11.421337 25.697603 34.263640
1794   0  1 11.421334 25.697691 37.118953
9393   0  1  9.993752 27.125363 35.691235
2213   0  1 14.276888 28.552924 34.263384
2214   0  1 14.276812 28.553001 37.118746
10193  0  1 15.704373 27.125228 35.691177
2193   0  1 14.276568 25.697444 34.263677
2194   0  1 14.276584 25.697606 37.118988
9793   0  1 12.849082 27.125315 35.691197
3014   0  1 19.987389 28.552757 37.118716
2614   0  1 17.132133 28.552933 37.118693
2613   0  1 17.132301 28.552830 34.263220
10593  0  1 18.559523 27.125000 35.691263
2593   0  1 17.131591 25.697058 34.263865
2594   0  1 17.131720 25.697404 37.119120
2993   0  1 19.985989 25.695878 34.264544
2994   0  1 19.986619 25.696836 37.119492
3013   0  1 19.987625 28.552594 34.263066
3393   0  1 22.838921 25.691827 34.266884
3394   0  1 22.841577 25.695828 37.119945
10993  0  1 21.414179 27.124095 35.691835
11393  0  1 24.269000 27.122334 35.692453
3413   0  1 22.841900 28.551002 34.263903
3414   0  1 22.843026 28.552556 37.118329
3793   0  1 25.696011 25.690958 34.267575
3794   0  1 25.697239 25.695052 37.120475
11793  0  1 27.125155 27.120807 35.693632
3813   0  1 25.697170 28.547529 34.264207
3814   0  1 25.698302 28.551756 37.118214
35     0  1  0.000000  2.855283 39.974482
435    0  1  2.855238  2.855277 39.974489
8014   0  1  1.427615  1.427635 38.546813
8015   0  1  1.427627  1.427631 41.402152
815    0  1  5.710493  0.000003 39.974496
835    0  1  5.710491  2.855273 39.974498
8414   0  1  4.282856  1.427638 38.546821
8415   0  1  4.282872  1.427633 41.402161
8814   0  1  7.138118  1.427647 38.546829
8815   0  1  7.138135  1.427641 41.402171
1215   0  1  8.565763  0.000025 39.974508
1235   0  1  8.565768  2.855270 39.974507
1615   0  1 11.421061  0.000044 39.974517
1635   0  1 11.421071  2.855268 39.974512
9214   0  1  9.993407  1.427656 38.546836
9215   0  1  9.993422  1.427650 41.402180
2035   0  1 14.276397  2.855266 39.974513
9614   0  1 12.848722  1.427661 38.546840
9615   0  1 12.848736  1.427657 41.402186
10014  0  1 15.704060  1.427663 38.546838
10015  0  1 15.704071  1.427660 41.402186
2015   0  1 14.276386  0.000056 39.974521
2415   0  1 17.131731  0.000061 39.974520
2435   0  1 17.131742  2.855265 39.974510
10414  0  1 18.559412  1.427662 38.546834
10415  0  1 18.559421  1.427662 41.402183
2815   0  1 19.987090  0.000061 39.974516
2835   0  1 19.987097  2.855265 39.974505
3215   0  1 22.842454  0.000060 39.974511
3235   0  1 22.842458  2.855266 39.974501
10814  0  1 21.414772  1.427660 38.546829
10815  0  1 21.414779  1.427664 41.402179
11214  0  1 24.270136  1.427660 38.546825
11215  0  1 24.270141  1.427666 41.402176
3615   0  1 25.697820  0.000060 39.974510
3635   0  1 25.697821  2.855270 39.974499
11614  0  1 27.125500  1.427662 38.546826
11615  0  1 27.125504  1.427669 41.402178
455    0  1  2.855234  5.710563 39.974490
8034   0  1  1.427609  4.282924 38.546814
8035   0  1  1.427622  4.282927 41.402154
8054   0  1  1.427608  7.138215 38.546812
8055   0  1  1.427621  7.138225 41.402151
855    0  1  5.710486  5.710539 39.974501
8434   0  1  4.282852  4.282911 38.546823
8435   0  1  4.282868  4.282916 41.402163
8454   0  1  4.282848  7.138185 38.546824
8455   0  1  4.282865  7.138200 41.402163
8834   0  1  7.138116  4.282896 38.546832
8835   0  1  7.138132  4.282902 41.402173
8854   0  1  7.138105  7.138147 38.546838
8855   0  1  7.138124  7.138166 41.402178
1255   0  1  8.565760  5.710514 39.974512
1655   0  1 11.421060  5.710492 39.974520
9234   0  1  9.993406  4.282883 38.546838
9235   0  1  9.993422  4.282890 41.402182
9254   0  1  9.993387  7.138110 38.546850
9255   0  1  9.993407  7.138131 41.402192
2055   0  1 14.276385  5.710477 39.974523
9634   0  1 12.848722  4.282873 38.546841
9635   0  1 12.848736  4.282880 41.402186
9654   0  1 12.848698  7.138082 38.546858
9655   0  1 12.848716  7.138102 41.402202
10034  0  1 15.704059  4.282867 38.546840
10035  0  1 15.704071  4.282873 41.402186
10054  0  1 15.704033  7.138066 38.546860
10055  0  1 15.704050  7.138084 41.402206
2455   0  1 17.131730  5.710470 39.974521
10434  0  1 18.559411  4.282865 38.546835
10435  0  1 18.559420  4.282871 41.402183
10454  0  1 18.559388  7.138062 38.546857
10455  0  1 18.559401  7.138075 41.402205
2855   0  1 19.987087  5.710469 39.974517
3255   0  1 22.842452  5.710474 39.974512
10834  0  1 21.414771  4.282867 38.546830
10835  0  1 21.414778  4.282872 41.402178
10854  0  1 21.414754  7.138067 38.546852
10855  0  1 21.414765  7.138075 41.402200
11234  0  1 24.270134  4.282872 38.546827
11235  0  1 24.270141  4.282875 41.402176
11254  0  1 24.270126  7.138077 38.546848
11255  0  1 24.270134  7.138080 41.402197
3655   0  1 25.697819  5.710480 39.974510
11634  0  1 27.125499  4.282877 38.546827
11635  0  1 27.125504  4.282880 41.402176
11654  0  1 27.125500  7.138086 38.546847
11655  0  1 27.125505  7.138087 41.402197
95     0  1  0.000008 11.421189 39.974462
475    0  1  2.855235  8.565855 39.974486
495    0  1  2.855244 11.421161 39.974477
8074   0  1  1.427613  9.993515 38.546805
8075   0  1  1.427627  9.993531 41.402141
875    0  1  5.710480  8.565813 39.974504
895    0  1  5.710481 11.421106 39.974502
8474   0  1  4.282848  9.993472 38.546823
8475   0  1  4.282867  9.993496 41.402159
8874   0  1  7.138091  9.993410 38.546846
8875   0  1  7.138116  9.993443 41.402183
1275   0  1  8.565743  8.565763 39.974524
1295   0  1  8.565725 11.421029 39.974535
1675   0  1 11.421032  8.565717 39.974540
1695   0  1 11.420993 11.420949 39.974568
9274   0  1  9.993355  9.993343 38.546870
9275   0  1  9.993384  9.993382 41.402209
2075   0  1 14.276351  8.565683 39.974550
2095   0  1 14.276296 11.420884 39.974594
9674   0  1 12.848651  9.993287 38.546889
9675   0  1 12.848681  9.993327 41.402231
10074  0  1 15.703981  9.993252 38.546900
10075  0  1 15.704009  9.993288 41.402244
2475   0  1 17.131696  8.565665 39.974553
2495   0  1 17.131638 11.420845 39.974608
10474  0  1 18.559340  9.993239 38.546901
10475  0  1 18.559364  9.993268 41.402248
2875   0  1 19.987060  8.565662 39.974550
2895   0  1 19.987012 11.420830 39.974609
3275   0  1 22.842435  8.565668 39.974545
3295   0  1 22.842406 11.420834 39.974605
10874  0  1 21.414721  9.993245 38.546897
10875  0  1 21.414737  9.993262 41.402246
11274  0  1 24.270111  9.993259 38.546891
11275  0  1 24.270121  9.993267 41.402243
3675   0  1 25.697815  8.565678 39.974542
3695   0  1 25.697808 11.420846 39.974602
11674  0  1 27.125504  9.993274 38.546889
11675  0  1 27.125507  9.993275 41.402244
115    0  1  0.000022 14.276509 39.974442
8094   0  1  1.427628 12.848829 38.546792
8095   0  1  1.427641 12.848849 41.402124
515    0  1  2.855266 14.276484 39.974458
8114   0  1  1.427650 15.704154 38.546770
8115   0  1  1.427662 15.704177 41.402097
8494   0  1  4.282862 12.848781 38.546815
8495   0  1  4.282881 12.848811 41.402145
8894   0  1  7.138090 12.848699 38.546849
8895   0  1  7.138120 12.848743 41.402179
915    0  1  5.710501 14.276424 39.974489
8514   0  1  4.282893 15.704110 38.546794
8515   0  1  4.282911 15.704144 41.402118
8914   0  1  7.138118 15.704024 38.546835
8915   0  1  7.138148 15.704076 41.402158
9294   0  1  9.993324 12.848595 38.546891
9295   0  1  9.993365 12.848654 41.402223
1315   0  1  8.565727 14.276328 39.974536
1715   0  1 11.420959 14.276207 39.974594
9314   0  1  9.993324 15.703892 38.546898
9315   0  1  9.993374 15.703970 41.402217
9694   0  1 12.848589 12.848493 38.546932
9695   0  1 12.848638 12.848564 41.402265
10094  0  1 15.703902 12.848420 38.546962
10095  0  1 15.703952 12.848492 41.402295
2115   0  1 14.276229 14.276093 39.974648
9714   0  1 12.848531 15.703727 38.546976
9715   0  1 12.848608 15.703838 41.402288
10114  0  1 15.703799 15.703584 38.547043
10115  0  1 15.703891 15.703716 41.402347
10494  0  1 18.559263 12.848385 38.546974
10495  0  1 18.559306 12.848446 41.402312
2515   0  1 17.131557 14.276012 39.974682
10515  0  1 18.559230 15.703621 41.402389
10514  0  1 18.559154 15.703499 38.547075
2915   0  1 19.986937 14.275968 39.974696
10894  0  1 21.414663 12.848382 38.546972
10895  0  1 21.414692 12.848426 41.402316
11294  0  1 24.270085 12.848400 38.546965
11295  0  1 24.270096 12.848423 41.402318
3315   0  1 22.842356 14.275959 39.974697
10914  0  1 21.414572 15.703465 38.547085
10915  0  1 21.414623 15.703564 41.402413
11314  0  1 24.270041 15.703475 38.547078
11315  0  1 24.270054 15.703537 41.402428
11694  0  1 27.125514 12.848421 38.546963
11695  0  1 27.125509 12.848429 41.402323
3715   0  1 25.697795 14.275968 39.974697
11714  0  1 27.125528 15.703499 38.547080
11715  0  1 27.125506 15.703527 41.402449
135    0  1  0.000038 17.131834 39.974415
155    0  1  0.000054 19.987159 39.974382
535    0  1  2.855297 17.131818 39.974427
555    0  1  2.855333 19.987152 39.974386
8134   0  1  1.427677 18.559484 38.546740
8135   0  1  1.427686 18.559506 41.402062
935    0  1  5.710544 17.131767 39.974457
955    0  1  5.710602 19.987119 39.974407
8534   0  1  4.282940 18.559452 38.546758
8535   0  1  4.282952 18.559485 41.402077
8934   0  1  7.138180 18.559381 38.546797
8935   0  1  7.138203 18.559433 41.402112
1335   0  1  8.565767 17.131672 39.974512
1355   0  1  8.565846 19.987050 39.974452
1735   0  1 11.420967 17.131526 39.974593
1755   0  1 11.421050 19.986925 39.974535
9334   0  1  9.993382 18.559254 38.546868
9335   0  1  9.993430 18.559338 41.402174
2135   0  1 14.276173 17.131342 39.974692
2155   0  1 14.276209 19.986715 39.974668
9734   0  1 12.848539 18.559050 38.546981
9735   0  1 12.848635 18.559191 41.402266
10134  0  1 15.703697 18.558785 38.547120
10135  0  1 15.703850 18.558997 41.402377
10535  0  1 18.559153 18.558830 41.402461
10534  0  1 18.559026 18.558610 38.547186
2535   0  1 17.131466 17.131191 39.974761
2555   0  1 17.131371 19.986421 39.974837
2935   0  1 19.986830 17.131081 39.974810
2955   0  1 19.986701 19.986198 39.974950
11335  0  1 24.269984 18.558606 41.402586
11334  0  1 24.269956 18.558444 38.547256
3335   0  1 22.842273 17.131027 39.974831
3355   0  1 22.842138 19.986022 39.975045
10934  0  1 21.414429 18.558483 38.547242
10935  0  1 21.414531 18.558695 41.402529
11735  0  1 27.125486 18.558552 41.402648
11734  0  1 27.125536 18.558444 38.547282
3755   0  1 25.697686 19.985917 39.975128
3735   0  1 25.697763 17.131009 39.974849
8175   0  1  1.427729 24.270143 41.401981
8174   0  1  1.427725 24.270127 38.546665
8155   0  1  1.427709 21.414830 41.402021
8154   0  1  1.427703 21.414810 38.546703
575    0  1  2.855367 22.842478 39.974339
175    0  1  0.000067 22.842477 39.974346
176    0  1  0.000074 22.842493 42.829667
576    0  1  2.855369 22.842498 42.829657
8975   0  1  7.138336 24.270133 41.401973
8974   0  1  7.138341 24.270100 38.546655
8955   0  1  7.138271 21.414793 41.402045
8954   0  1  7.138262 21.414748 38.546733
8575   0  1  4.283035 24.270143 41.401972
8574   0  1  4.283037 24.270120 38.546656
8555   0  1  4.282996 21.414822 41.402025
8554   0  1  4.282991 21.414792 38.546709
975    0  1  5.710662 22.842463 39.974344
976    0  1  5.710663 22.842491 42.829659
9375   0  1  9.993623 24.270108 41.401987
9374   0  1  9.993625 24.270060 38.546671
9355   0  1  9.993524 21.414734 41.402089
9354   0  1  9.993496 21.414661 38.546788
1775   0  1 11.421186 22.842358 39.974415
1375   0  1  8.565940 22.842427 39.974365
10155  0  1 15.703940 21.414451 41.402277
10154  0  1 15.703749 21.414189 38.547092
9775   0  1 12.848889 24.270059 41.402021
9774   0  1 12.848866 24.269982 38.546722
9755   0  1 12.848745 21.414628 41.402165
9754   0  1 12.848666 21.414496 38.546897
10174  0  1 15.704029 24.269813 38.546843
10175  0  1 15.704135 24.269968 41.402075
2175   0  1 14.276380 22.842223 39.974514
2975   0  1 19.986690 22.841603 39.974865
2575   0  1 17.131519 22.841970 39.974677
10554  0  1 18.558807 21.413702 38.547374
10555  0  1 18.559159 21.414212 41.402401
10574  0  1 18.559077 24.269441 38.547086
10575  0  1 18.559392 24.269822 41.402118
11375  0  1 24.270025 24.269385 41.402258
11374  0  1 24.269629 24.268380 38.547654
11355  0  1 24.269929 21.413826 41.402611
11354  0  1 24.269761 21.413169 38.547665
10975  0  1 21.414666 24.269605 41.402165
10974  0  1 21.414166 24.268846 38.547379
10955  0  1 21.414492 21.414000 41.402507
10954  0  1 21.414209 21.413404 38.547524
3375   0  1 22.842064 22.841297 39.975026
11775  0  1 27.125507 24.269201 41.402422
11774  0  1 27.125432 24.268044 38.547962
11755  0  1 27.125462 21.413699 41.402740
11754  0  1 27.125490 21.413044 38.547803
3775   0  1 25.697616 22.841059 39.975197
615    0  1  2.855415 28.553087 39.974263
215    0  1  0.000086 28.553088 39.974289
8195   0  1  1.427744 27.125445 41.401948
8194   0  1  1.427742 27.125434 38.546632
595    0  1  2.855395 25.697789 39.974296
195    0  1  0.000078 25.697787 39.974314
596    0  1  2.855393 25.697803 42.829616
196    0  1  0.000084 25.697798 42.829634
216    0  1  0.000092 28.553093 42.829611
616    0  1  2.855410 28.553094 42.829587
1015   0  1  5.710748 28.553083 39.974235
8995   0  1  7.138386 27.125441 41.401911
8994   0  1  7.138402 27.125422 38.546583
8595   0  1  4.283065 27.125445 41.401928
8594   0  1  4.283072 27.125431 38.546608
995    0  1  5.710712 25.697785 39.974282
996    0  1  5.710703 25.697803 42.829606
1016   0  1  5.710733 28.553092 42.829566
1415   0  1  8.566081 28.553074 39.974204
1815   0  1 11.421411 28.553059 39.974174
9395   0  1  9.993701 27.125431 41.401898
9394   0  1  9.993729 27.125407 38.546558
1795   0  1 11.421318 25.697747 39.974279
1395   0  1  8.566023 25.697772 39.974274
1396   0  1  8.566010 25.697795 42.829602
1796   0  1 11.421310 25.697778 42.829607
1416   0  1  8.566055 28.553085 42.829549
1816   0  1 11.421376 28.553072 42.829535
2215   0  1 14.276732 28.553031 39.974150
2195   0  1 14.276584 25.697694 39.974309
10194  0  1 15.704320 27.125326 38.546547
10195  0  1 15.704316 27.125375 41.401890
9794   0  1 12.849041 27.125381 38.546539
9795   0  1 12.849008 27.125411 41.401894
2196   0  1 14.276608 25.697746 42.829614
2216   0  1 14.276706 28.553052 42.829514
3015   0  1 19.987502 28.552920 39.973982
2615   0  1 17.132058 28.552979 39.974127
10595  0  1 18.559674 27.125322 41.401830
10594  0  1 18.559557 27.125197 38.546598
2595   0  1 17.131821 25.697587 39.974366
2995   0  1 19.987095 25.697406 39.974384
2596   0  1 17.131928 25.697696 42.829594
2996   0  1 19.987261 25.697618 42.829544
2616   0  1 17.132080 28.553027 42.829448
3016   0  1 19.987489 28.552996 42.829324
11395  0  1 24.270360 27.125054 41.401676
3415   0  1 22.842978 28.552824 39.973737
11394  0  1 24.270182 27.124511 38.546522
10995  0  1 21.415054 27.125234 41.401716
10994  0  1 21.414913 27.124990 38.546519
3395   0  1 22.842365 25.697092 39.974424
3396   0  1 22.842571 25.697488 42.829522
3416   0  1 22.842853 28.552935 42.829209
11795  0  1 27.125689 27.124869 41.401806
3795   0  1 25.697764 25.696768 39.974595
11794  0  1 27.125656 27.124016 38.546898
3815   0  1 25.698251 28.552577 39.973684
3796   0  1 25.697901 25.697344 42.829579
3816   0  1 25.698124 28.552838 42.829193
36     0  1  0.000010  2.855282 42.829817
37     0  1  0.000018  2.855283 45.685137
436    0  1  2.855252  2.855277 42.829822
437    0  1  2.855264  2.855278 45.685141
8016   0  1  1.427638  1.427627 44.257479
8017   0  1  1.427647  1.427623 47.112790
836    0  1  5.710507  2.855273 42.829832
837    0  1  5.710523  2.855275 45.685149
8416   0  1  4.282887  1.427628 44.257486
8417   0  1  4.282900  1.427624 47.112795
8816   0  1  7.138152  1.427635 44.257497
8817   0  1  7.138170  1.427629 47.112803
1216   0  1  8.565782  0.000011 42.829843
1236   0  1  8.565784  2.855271 42.829842
1237   0  1  8.565802  2.855273 45.685158
1616   0  1 11.421079  0.000030 42.829854
1617   0  1 11.421100  0.000013 45.685170
1636   0  1 11.421086  2.855270 42.829849
1637   0  1 11.421103  2.855272 45.685166
9216   0  1  9.993440  1.427643 44.257507
9217   0  1  9.993459  1.427636 47.112813
2016   0  1 14.276401  0.000045 42.829860
2017   0  1 14.276420  0.000028 45.685178
2036   0  1 14.276410  2.855268 42.829852
2037   0  1 14.276425  2.855271 45.685171
9616   0  1 12.848752  1.427650 44.257514
9617   0  1 12.848770  1.427643 47.112821
10016  0  1 15.704084  1.427656 44.257517
10017  0  1 15.704099  1.427649 47.112826
2417   0  1 17.131757  0.000040 45.685182
2436   0  1 17.131752  2.855268 42.829851
2437   0  1 17.131763  2.855272 45.685173
10416  0  1 18.559430  1.427661 44.257517
10417  0  1 18.559440  1.427655 47.112829
2816   0  1 19.987098  0.000059 42.829860
2817   0  1 19.987107  0.000048 45.685184
2836   0  1 19.987105  2.855269 42.829847
2837   0  1 19.987112  2.855273 45.685173
2416   0  1 17.131743  0.000054 42.829862
3216   0  1 22.842459  0.000062 42.829858
3217   0  1 22.842463  0.000055 45.685186
3236   0  1 22.842463  2.855271 42.829845
3237   0  1 22.842467  2.855276 45.685173
10816  0  1 21.414785  1.427664 44.257515
10817  0  1 21.414791  1.427660 47.112832
11216  0  1 24.270144  1.427668 44.257516
11217  0  1 24.270145  1.427666 47.112835
3617   0  1 25.697823  0.000061 45.685190
3636   0  1 25.697824  2.855275 42.829844
3637   0  1 25.697824  2.855280 45.685176
11616  0  1 27.125505  1.427673 44.257519
11617  0  1 27.125502  1.427670 47.112840
3616   0  1 25.697823  0.000066 42.829859
57     0  1  0.000015  5.710594 45.685135
456    0  1  2.855249  5.710572 42.829822
457    0  1  2.855262  5.710584 45.685140
8036   0  1  1.427633  4.282932 44.257481
8037   0  1  1.427642  4.282939 47.112792
8056   0  1  1.427634  7.138238 44.257476
8057   0  1  1.427643  7.138254 47.112787
56     0  1  0.000007  5.710585 42.829815
856    0  1  5.710504  5.710552 42.829834
857    0  1  5.710521  5.710568 45.685149
8436   0  1  4.282883  4.282922 44.257488
8437   0  1  4.282897  4.282931 47.112796
8456   0  1  4.282882  7.138218 44.257487
8457   0  1  4.282898  7.138239 47.112793
8836   0  1  7.138150  4.282911 44.257499
8837   0  1  7.138168  4.282921 47.112805
8856   0  1  7.138145  7.138190 44.257501
8857   0  1  7.138166  7.138216 47.112804
1256   0  1  8.565779  5.710530 42.829846
1257   0  1  8.565799  5.710549 45.685160
1656   0  1 11.421078  5.710509 42.829855
1657   0  1 11.421099  5.710530 45.685170
9236   0  1  9.993439  4.282900 44.257508
9237   0  1  9.993458  4.282912 47.112813
9256   0  1  9.993430  7.138159 44.257515
9257   0  1  9.993454  7.138190 47.112816
2056   0  1 14.276401  5.710493 42.829860
2057   0  1 14.276419  5.710514 45.685176
9636   0  1 12.848752  4.282890 44.257514
9637   0  1 12.848769  4.282903 47.112820
9656   0  1 12.848738  7.138131 44.257526
9657   0  1 12.848762  7.138166 47.112827
10036  0  1 15.704084  4.282883 44.257516
10037  0  1 15.704098  4.282897 47.112825
10056  0  1 15.704069  7.138111 44.257532
10057  0  1 15.704089  7.138146 47.112834
2456   0  1 17.131743  5.710483 42.829860
2457   0  1 17.131757  5.710504 45.685179
10436  0  1 18.559430  4.282880 44.257515
10437  0  1 18.559440  4.282893 47.112827
10456  0  1 18.559416  7.138099 44.257533
10457  0  1 18.559430  7.138132 47.112839
2856   0  1 19.987097  5.710480 42.829857
2857   0  1 19.987106  5.710498 45.685180
3256   0  1 22.842458  5.710481 42.829854
3257   0  1 22.842462  5.710497 45.685181
10836  0  1 21.414785  4.282880 44.257513
10837  0  1 21.414790  4.282893 47.112829
10856  0  1 21.414774  7.138094 44.257532
10857  0  1 21.414781  7.138124 47.112843
11236  0  1 24.270144  4.282883 44.257513
11237  0  1 24.270144  4.282894 47.112832
11256  0  1 24.270137  7.138094 44.257533
11257  0  1 24.270138  7.138120 47.112848
3656   0  1 25.697823  5.710486 42.829854
3657   0  1 25.697822  5.710498 45.685183
11636  0  1 27.125504  4.282887 44.257515
11637  0  1 27.125501  4.282897 47.112837
11656  0  1 27.125504  7.138097 44.257535
11657  0  1 27.125499  7.138120 47.112854
76     0  1  0.000010  8.565892 42.829807
77     0  1  0.000019  8.565908 45.685127
96     0  1  0.000019 11.421206 42.829792
97     0  1  0.000028 11.421227 45.685111
476    0  1  2.855251  8.565873 42.829817
477    0  1  2.855266  8.565895 45.685133
496    0  1  2.855261 11.421187 42.829804
497    0  1  2.855276 11.421215 45.685118
8076   0  1  1.427640  9.993552 44.257465
8077   0  1  1.427651  9.993574 47.112775
876    0  1  5.710500  8.565838 42.829834
877    0  1  5.710522  8.565867 45.685146
896    0  1  5.710505 11.421141 42.829828
897    0  1  5.710530 11.421180 45.685135
8476   0  1  4.282887  9.993525 44.257479
8477   0  1  4.282905  9.993555 47.112783
8876   0  1  7.138143  9.993481 44.257501
8877   0  1  7.138169  9.993521 47.112799
1276   0  1  8.565767  8.565795 42.829854
1277   0  1  8.565794  8.565831 45.685163
1296   0  1  8.565758 11.421077 42.829859
1297   0  1  8.565794 11.421131 45.685160
1676   0  1 11.421058  8.565752 42.829871
1677   0  1 11.421087  8.565794 45.685179
1696   0  1 11.421033 11.421008 42.829891
1697   0  1 11.421076 11.421074 45.685187
9276   0  1  9.993417  9.993429 44.257525
9277   0  1  9.993450  9.993480 47.112817
2076   0  1 14.276376  8.565717 42.829883
2077   0  1 14.276403  8.565762 45.685192
2096   0  1 14.276338 11.420947 42.829917
2097   0  1 14.276382 11.421021 45.685209
9676   0  1 12.848716  9.993380 44.257545
9677   0  1 12.848752  9.993439 47.112835
10076  0  1 15.704041  9.993341 44.257560
10077  0  1 15.704073  9.993403 47.112849
2476   0  1 17.131717  8.565695 42.829888
2477   0  1 17.131739  8.565737 45.685199
2496   0  1 17.131675 11.420903 42.829933
2497   0  1 17.131713 11.420978 45.685227
10476  0  1 18.559388  9.993314 44.257567
10477  0  1 18.559413  9.993376 47.112860
2876   0  1 19.987075  8.565684 42.829888
2877   0  1 19.987090  8.565722 45.685204
2896   0  1 19.987038 11.420877 42.829939
2897   0  1 19.987064 11.420947 45.685239
3276   0  1 22.842444  8.565683 42.829887
3277   0  1 22.842450  8.565714 45.685207
3296   0  1 22.842418 11.420867 42.829942
3297   0  1 22.842430 11.420928 45.685249
10876  0  1 21.414751  9.993300 44.257571
10877  0  1 21.414765  9.993357 47.112869
11276  0  1 24.270124  9.993295 44.257574
11277  0  1 24.270127  9.993346 47.112878
3676   0  1 25.697818  8.565686 42.829887
3677   0  1 25.697816  8.565712 45.685212
3696   0  1 25.697808 11.420867 42.829946
3697   0  1 25.697805 11.420917 45.685260
11676  0  1 27.125502  9.993295 44.257580
11677  0  1 27.125494  9.993340 47.112888
8096   0  1  1.427654 12.848874 44.257445
8097   0  1  1.427664 12.848900 47.112755
116    0  1  0.000033 14.276529 42.829770
117    0  1  0.000041 14.276552 45.685088
516    0  1  2.855281 14.276513 42.829781
517    0  1  2.855295 14.276543 45.685092
8116   0  1  1.427673 15.704202 44.257416
8117   0  1  1.427681 15.704227 47.112727
8496   0  1  4.282901 12.848846 44.257461
8497   0  1  4.282920 12.848881 47.112763
8896   0  1  7.138151 12.848793 44.257490
8897   0  1  7.138183 12.848843 47.112783
916    0  1  5.710526 14.276466 42.829808
917    0  1  5.710551 14.276510 45.685111
8516   0  1  4.282928 15.704180 44.257431
8517   0  1  4.282945 15.704214 47.112733
8916   0  1  7.138180 15.704130 44.257462
8917   0  1  7.138211 15.704181 47.112751
9296   0  1  9.993411 12.848722 44.257527
9297   0  1  9.993456 12.848791 47.112808
1316   0  1  8.565767 14.276390 42.829850
1317   0  1  8.565809 14.276455 45.685142
1716   0  1 11.421018 14.276294 42.829902
1717   0  1 11.421078 14.276383 45.685180
9316   0  1  9.993429 15.704052 44.257508
9317   0  1  9.993482 15.704128 47.112779
9696   0  1 12.848694 12.848648 44.257563
9697   0  1 12.848747 12.848734 47.112834
10096  0  1 15.704006 12.848582 44.257591
10097  0  1 15.704060 12.848681 47.112858
2116   0  1 14.276300 14.276198 42.829948
2117   0  1 14.276370 14.276309 45.685216
9716   0  1 12.848689 15.703955 44.257561
9717   0  1 12.848763 15.704063 47.112811
10116  0  1 15.703981 15.703858 44.257609
10117  0  1 15.704063 15.703996 47.112840
10496  0  1 18.559350 12.848533 44.257611
10497  0  1 18.559394 12.848636 47.112877
2516   0  1 17.131622 14.276118 42.829984
2517   0  1 17.131689 14.276242 45.685246
10517  0  1 18.559387 15.703934 47.112867
10516  0  1 18.559310 15.703774 44.257648
2916   0  1 19.986985 14.276063 42.830006
2917   0  1 19.987035 14.276188 45.685270
10896  0  1 21.414717 12.848500 44.257625
10897  0  1 21.414745 12.848602 47.112895
11296  0  1 24.270102 12.848482 44.257637
11297  0  1 24.270110 12.848578 47.112912
3316   0  1 22.842378 14.276032 42.830021
3317   0  1 22.842403 14.276149 45.685292
10916  0  1 21.414676 15.703711 44.257679
10917  0  1 21.414732 15.703883 47.112893
11316  0  1 24.270070 15.703667 44.257708
11317  0  1 24.270096 15.703843 47.112921
11696  0  1 27.125496 12.848474 44.257651
11697  0  1 27.125485 12.848563 47.112931
3716   0  1 25.697789 14.276017 42.830036
3717   0  1 25.697788 14.276123 45.685316
11716  0  1 27.125484 15.703640 44.257741
11717  0  1 27.125476 15.703815 47.112952
137    0  1  0.000054 17.131877 45.685058
156    0  1  0.000062 19.987178 42.829703
157    0  1  0.000067 19.987197 45.685023
536    0  1  2.855309 17.131846 42.829746
537    0  1  2.855320 17.131875 45.685057
556    0  1  2.855340 19.987178 42.829703
557    0  1  2.855347 19.987201 45.685017
8136   0  1  1.427694 18.559530 44.257380
8137   0  1  1.427699 18.559552 47.112693
136    0  1  0.000048 17.131855 42.829739
936    0  1  5.710564 17.131810 42.829771
937    0  1  5.710585 17.131851 45.685073
956    0  1  5.710613 19.987157 42.829718
957    0  1  5.710626 19.987189 45.685025
8536   0  1  4.282964 18.559518 44.257388
8537   0  1  4.282975 18.559546 47.112694
8936   0  1  7.138227 18.559482 44.257414
8937   0  1  7.138252 18.559524 47.112707
1336   0  1  8.565807 17.131740 42.829816
1337   0  1  8.565847 17.131803 45.685103
1356   0  1  8.565873 19.987109 42.829753
1357   0  1  8.565902 19.987158 45.685045
1736   0  1 11.421040 17.131633 42.829881
1737   0  1 11.421110 17.131733 45.685143
1756   0  1 11.421114 19.987026 42.829811
1757   0  1 11.421174 19.987108 45.685075
9336   0  1  9.993481 18.559418 44.257456
9337   0  1  9.993529 18.559483 47.112728
2136   0  1 14.276283 17.131498 42.829957
2137   0  1 14.276385 17.131646 45.685187
2156   0  1 14.276342 19.986898 42.829890
2157   0  1 14.276450 19.987036 45.685107
9736   0  1 12.848731 18.559324 44.257513
9737   0  1 12.848810 18.559427 47.112754
10136  0  1 15.703996 18.559207 44.257573
10137  0  1 15.704102 18.559360 47.112778
10537  0  1 18.559413 18.559291 47.112802
10536  0  1 18.559301 18.559093 44.257626
2536   0  1 17.131577 17.131371 42.830020
2537   0  1 17.131687 17.131559 45.685226
2556   0  1 17.131590 19.986735 42.829975
2557   0  1 17.131739 19.986949 45.685137
2936   0  1 19.986924 17.131266 42.830071
2937   0  1 19.987020 17.131481 45.685261
2956   0  1 19.986904 19.986582 42.830048
2957   0  1 19.987053 19.986861 45.685168
3336   0  1 22.842322 17.131191 42.830112
3337   0  1 22.842383 17.131418 45.685297
3356   0  1 22.842284 19.986452 42.830117
3357   0  1 22.842398 19.986780 45.685204
10936  0  1 21.414651 18.558993 44.257674
10937  0  1 21.414744 18.559227 47.112828
11336  0  1 24.270043 18.558915 44.257725
11337  0  1 24.270098 18.559173 47.112861
3736   0  1 25.697757 17.131142 42.830154
3737   0  1 25.697771 17.131371 45.685336
3756   0  1 25.697726 19.986354 42.830195
3757   0  1 25.697775 19.986714 45.685255
11736  0  1 27.125472 18.558859 44.257785
11737  0  1 27.125475 18.559131 47.112904
177    0  1  0.000079 22.842507 45.684990
577    0  1  2.855371 22.842515 45.684977
8156   0  1  1.427714 21.414850 44.257340
8157   0  1  1.427717 21.414866 47.112659
8176   0  1  1.427731 24.270157 44.257303
8177   0  1  1.427732 24.270169 47.112627
977    0  1  5.710665 22.842512 45.684975
8556   0  1  4.283000 21.414847 44.257340
8557   0  1  4.283006 21.414867 47.112653
8576   0  1  4.283032 24.270160 44.257293
8577   0  1  4.283032 24.270172 47.112615
8956   0  1  7.138282 21.414829 44.257353
8957   0  1  7.138296 21.414857 47.112657
8976   0  1  7.138333 24.270155 44.257293
8977   0  1  7.138336 24.270169 47.112611
1376   0  1  8.565947 22.842469 42.829675
1377   0  1  8.565958 22.842498 45.684983
1776   0  1 11.421216 22.842425 42.829708
1777   0  1 11.421251 22.842472 45.684995
9356   0  1  9.993555 21.414792 44.257380
9357   0  1  9.993587 21.414834 47.112667
9376   0  1  9.993629 24.270139 44.257301
9377   0  1  9.993643 24.270159 47.112609
2176   0  1 14.276472 22.842349 42.829754
2177   0  1 14.276547 22.842431 45.685001
10177  0  1 15.704278 24.270116 47.112581
10176  0  1 15.704225 24.270064 44.257311
9756   0  1 12.848821 21.414729 44.257418
9757   0  1 12.848882 21.414798 47.112676
9776   0  1 12.848922 24.270109 44.257312
9777   0  1 12.848957 24.270142 47.112601
10156  0  1 15.704089 21.414638 44.257457
10157  0  1 15.704182 21.414749 47.112681
10577  0  1 18.559596 24.270077 47.112555
10576  0  1 18.559538 24.269996 44.257293
10557  0  1 18.559486 21.414689 47.112685
10556  0  1 18.559374 21.414524 44.257494
2576   0  1 17.131733 22.842233 42.829799
2577   0  1 17.131850 22.842373 45.684999
2976   0  1 19.987013 22.842078 42.829842
2977   0  1 19.987157 22.842297 45.684998
3376   0  1 22.842347 22.841921 42.829900
3377   0  1 22.842476 22.842215 45.685015
10956  0  1 21.414696 21.414408 44.257534
10957  0  1 21.414802 21.414625 47.112696
10976  0  1 21.414846 24.269898 44.257284
10977  0  1 21.414906 24.270024 47.112540
11356  0  1 24.270063 21.414304 44.257590
11357  0  1 24.270136 21.414564 47.112723
11376  0  1 24.270171 24.269790 44.257312
11377  0  1 24.270216 24.269966 47.112550
3776   0  1 25.697755 22.841785 42.829991
3777   0  1 25.697823 22.842139 45.685059
11756  0  1 27.125480 21.414220 44.257671
11757  0  1 27.125495 21.414513 47.112770
11776  0  1 27.125539 24.269695 44.257392
11777  0  1 27.125542 24.269915 47.112590
197    0  1  0.000088 25.697807 45.684960
597    0  1  2.855391 25.697814 45.684942
8196   0  1  1.427745 27.125453 44.257273
8197   0  1  1.427744 27.125459 47.112602
217    0  1  0.000095 28.553097 45.684940
617    0  1  2.855405 28.553099 45.684918
997    0  1  5.710698 25.697814 45.684933
8596   0  1  4.283057 27.125455 44.257256
8597   0  1  4.283052 27.125461 47.112586
8996   0  1  7.138372 27.125453 44.257245
8997   0  1  7.138366 27.125460 47.112576
1017   0  1  5.710721 28.553098 45.684902
1397   0  1  8.566007 25.697809 45.684929
1797   0  1 11.421319 25.697798 45.684924
9396   0  1  9.993686 27.125445 44.257238
9397   0  1  9.993686 27.125454 47.112565
1417   0  1  8.566040 28.553092 45.684890
1817   0  1 11.421367 28.553083 45.684875
10197  0  1 15.704362 27.125433 47.112503
10196  0  1 15.704347 27.125411 44.257192
2197   0  1 14.276643 25.697780 45.684906
9796   0  1 12.849005 27.125431 44.257227
9797   0  1 12.849018 27.125446 47.112543
2217   0  1 14.276713 28.553071 45.684840
10597  0  1 18.559703 27.125413 47.112452
10596  0  1 18.559710 27.125382 44.257121
2597   0  1 17.131979 25.697752 45.684867
2997   0  1 19.987307 25.697707 45.684823
2617   0  1 17.132079 28.553057 45.684776
3017   0  1 19.987438 28.553035 45.684699
3397   0  1 22.842615 25.697640 45.684803
10996  0  1 21.415053 27.125330 44.257049
10997  0  1 21.415023 27.125379 47.112412
11396  0  1 24.270353 27.125246 44.257025
11397  0  1 24.270317 27.125335 47.112400
3417   0  1 22.842757 28.552998 45.684645
3797   0  1 25.697921 25.697569 45.684826
11796  0  1 27.125648 27.125165 44.257081
11797  0  1 27.125604 27.125296 47.112429
3817   0  1 25.698031 28.552953 45.684642
38     0  1  0.000021  2.855285 48.540442
39     0  1  0.000019  2.855288 51.395728
438    0  1  2.855274  2.855281 48.540441
439    0  1  2.855279  2.855284 51.395723
8018   0  1  1.427651  1.427621 49.968083
838    0  1  5.710538  2.855278 48.540446
839    0  1  5.710549  2.855281 51.395724
8418   0  1  4.282911  1.427620 49.968084
8818   0  1  7.138186  1.427623 49.968089
1238   0  1  8.565820  2.855276 48.540454
1239   0  1  8.565835  2.855279 51.395728
1638   0  1 11.421121  2.855275 48.540461
1639   0  1 11.421137  2.855278 51.395733
9218   0  1  9.993478  1.427628 49.968096
2018   0  1 14.276439  0.000008 48.540471
2038   0  1 14.276441  2.855275 48.540467
2039   0  1 14.276456  2.855278 51.395740
9618   0  1 12.848788  1.427634 49.968103
10018  0  1 15.704114  1.427641 49.968110
2418   0  1 17.131773  0.000020 48.540477
2438   0  1 17.131775  2.855275 48.540472
2439   0  1 17.131786  2.855279 51.395747
10418  0  1 18.559451  1.427647 49.968116
2818   0  1 19.987117  0.000030 48.540483
2819   0  1 19.987127  0.000007 51.395754
2838   0  1 19.987119  2.855277 48.540476
2839   0  1 19.987126  2.855281 51.395754
3218   0  1 22.842468  0.000038 48.540488
3219   0  1 22.842472  0.000016 51.395763
3238   0  1 22.842469  2.855280 48.540480
3239   0  1 22.842472  2.855283 51.395761
10818  0  1 21.414796  1.427652 49.968122
11218  0  1 24.270146  1.427658 49.968129
3618   0  1 25.697822  0.000045 48.540495
3619   0  1 25.697821  0.000023 51.395772
3638   0  1 25.697823  2.855283 48.540486
3639   0  1 25.697821  2.855287 51.395770
11618  0  1 27.125498  1.427663 49.968137
58     0  1  0.000019  5.710605 48.540440
59     0  1  0.000018  5.710616 51.395728
458    0  1  2.855273  5.710598 48.540440
459    0  1  2.855278  5.710611 51.395723
8038   0  1  1.427647  4.282946 49.968085
8058   0  1  1.427648  7.138270 49.968081
858    0  1  5.710537  5.710585 48.540446
859    0  1  5.710549  5.710601 51.395723
8438   0  1  4.282908  4.282940 49.968086
8458   0  1  4.282910  7.138260 49.968082
8838   0  1  7.138183  4.282932 49.968090
8858   0  1  7.138185  7.138242 49.968088
1258   0  1  8.565819  5.710569 48.540454
1259   0  1  8.565835  5.710589 51.395728
1658   0  1 11.421119  5.710554 48.540463
1659   0  1 11.421137  5.710576 51.395734
9238   0  1  9.993476  4.282924 49.968097
9258   0  1  9.993476  7.138222 49.968097
2058   0  1 14.276437  5.710540 48.540470
2059   0  1 14.276454  5.710565 51.395741
9638   0  1 12.848787  4.282917 49.968104
9658   0  1 12.848784  7.138202 49.968106
10038  0  1 15.704112  4.282912 49.968110
10058  0  1 15.704108  7.138185 49.968114
2458   0  1 17.131771  5.710529 48.540476
2459   0  1 17.131784  5.710556 51.395749
10438  0  1 18.559450  4.282908 49.968116
10458  0  1 18.559444  7.138171 49.968122
2858   0  1 19.987115  5.710523 48.540480
2859   0  1 19.987124  5.710550 51.395756
3258   0  1 22.842465  5.710520 48.540485
3259   0  1 22.842469  5.710547 51.395765
10838  0  1 21.414795  4.282907 49.968122
10858  0  1 21.414789  7.138162 49.968129
11238  0  1 24.270145  4.282908 49.968128
11258  0  1 24.270140  7.138157 49.968138
3658   0  1 25.697820  5.710519 48.540491
3659   0  1 25.697819  5.710546 51.395774
11638  0  1 27.125497  4.282910 49.968136
11658  0  1 27.125494  7.138155 49.968147
78     0  1  0.000023  8.565926 48.540432
79     0  1  0.000021  8.565944 51.395722
98     0  1  0.000032 11.421250 48.540418
99     0  1  0.000030 11.421272 51.395710
478    0  1  2.855277  8.565917 48.540433
479    0  1  2.855284  8.565938 51.395716
498    0  1  2.855289 11.421243 48.540417
499    0  1  2.855296 11.421268 51.395702
8078   0  1  1.427656  9.993597 49.968070
878    0  1  5.710541  8.565897 48.540440
879    0  1  5.710555  8.565924 51.395717
898    0  1  5.710552 11.421219 48.540426
899    0  1  5.710569 11.421252 51.395703
8478   0  1  4.282919  9.993584 49.968071
8878   0  1  7.138193  9.993559 49.968079
1278   0  1  8.565819  8.565869 48.540452
1279   0  1  8.565840  8.565903 51.395723
1298   0  1  8.565827 11.421182 48.540442
1299   0  1  8.565853 11.421226 51.395710
1678   0  1 11.421116  8.565839 48.540465
1679   0  1 11.421140  8.565880 51.395731
1698   0  1 11.421117 11.421140 48.540461
1699   0  1 11.421150 11.421196 51.395721
9278   0  1  9.993480  9.993529 49.968091
2078   0  1 14.276430  8.565811 48.540476
2079   0  1 14.276454  8.565858 51.395741
2098   0  1 14.276425 11.421098 48.540478
2099   0  1 14.276460 11.421166 51.395733
9678   0  1 12.848784  9.993497 49.968104
10078  0  1 15.704104  9.993468 49.968116
2478   0  1 17.131761  8.565788 48.540486
2479   0  1 17.131782  8.565840 51.395751
2498   0  1 17.131750 11.421061 48.540494
2499   0  1 17.131783 11.421138 51.395745
10478  0  1 18.559437  9.993444 49.968128
2878   0  1 19.987104  8.565771 48.540494
2879   0  1 19.987119  8.565825 51.395761
2898   0  1 19.987091 11.421032 48.540508
2899   0  1 19.987117 11.421114 51.395758
3278   0  1 22.842456  8.565760 48.540502
3279   0  1 22.842464  8.565814 51.395772
3298   0  1 22.842443 11.421010 48.540522
3299   0  1 22.842459 11.421096 51.395772
10878  0  1 21.414781  9.993425 49.968140
11278  0  1 24.270132  9.993413 49.968152
3678   0  1 25.697814  8.565755 48.540511
3679   0  1 25.697814  8.565808 51.395783
3698   0  1 25.697804 11.420996 48.540537
3699   0  1 25.697807 11.421084 51.395787
11678  0  1 27.125488  9.993406 49.968165
119    0  1  0.000041 14.276597 51.395693
8098   0  1  1.427669 12.848924 49.968052
118    0  1  0.000044 14.276575 48.540396
518    0  1  2.855307 14.276572 48.540393
519    0  1  2.855313 14.276596 51.395682
8118   0  1  1.427684 15.704250 49.968028
8498   0  1  4.282935 12.848913 49.968052
8898   0  1  7.138210 12.848887 49.968061
918    0  1  5.710574 14.276550 48.540401
919    0  1  5.710591 14.276583 51.395682
8518   0  1  4.282958 15.704243 49.968025
8918   0  1  7.138238 15.704222 49.968032
9298   0  1  9.993495 12.848851 49.968075
1318   0  1  8.565848 14.276513 48.540419
1319   0  1  8.565877 14.276558 51.395687
1718   0  1 11.421132 14.276464 48.540441
1719   0  1 11.421173 14.276526 51.395697
9318   0  1  9.993524 15.704189 49.968044
9698   0  1 12.848794 12.848811 49.968091
10098  0  1 15.704107 12.848772 49.968107
2118   0  1 14.276432 14.276412 48.540463
2119   0  1 14.276479 14.276492 51.395709
9718   0  1 12.848820 15.704147 49.968058
10118  0  1 15.704127 15.704104 49.968073
10498  0  1 18.559434 12.848737 49.968122
2518   0  1 17.131749 14.276363 48.540484
2519   0  1 17.131795 14.276458 51.395721
10518  0  1 18.559446 15.704062 49.968089
2918   0  1 19.987083 14.276320 48.540503
2919   0  1 19.987123 14.276428 51.395735
10898  0  1 21.414774 12.848709 49.968138
11298  0  1 24.270124 12.848688 49.968156
3318   0  1 22.842432 14.276286 48.540524
3319   0  1 22.842459 14.276403 51.395751
10918  0  1 21.414778 15.704025 49.968106
11318  0  1 24.270122 15.703996 49.968128
11698  0  1 27.125481 12.848673 49.968175
3718   0  1 25.697794 14.276262 48.540547
3719   0  1 25.697804 14.276385 51.395770
11718  0  1 27.125477 15.703974 49.968153
138    0  1  0.000057 17.131898 48.540369
139    0  1  0.000053 17.131917 51.395672
158    0  1  0.000069 19.987214 48.540340
159    0  1  0.000064 19.987229 51.395650
538    0  1  2.855329 17.131900 48.540362
539    0  1  2.855332 17.131920 51.395658
558    0  1  2.855352 19.987220 48.540328
559    0  1  2.855353 19.987234 51.395633
8138   0  1  1.427701 18.559570 49.968001
938    0  1  5.710605 17.131886 48.540367
939    0  1  5.710619 17.131912 51.395654
958    0  1  5.710639 19.987214 48.540327
959    0  1  5.710648 19.987231 51.395624
8538   0  1  4.282985 18.559569 49.967994
8938   0  1  7.138273 18.559555 49.967995
1338   0  1  8.565884 17.131855 48.540381
1339   0  1  8.565911 17.131893 51.395656
1358   0  1  8.565929 19.987195 48.540333
1359   0  1  8.565949 19.987220 51.395621
1738   0  1 11.421169 17.131812 48.540399
1739   0  1 11.421209 17.131865 51.395661
1758   0  1 11.421223 19.987165 48.540342
1759   0  1 11.421255 19.987201 51.395619
9338   0  1  9.993566 18.559530 49.968001
2138   0  1 14.276463 17.131759 48.540419
2139   0  1 14.276514 17.131833 51.395668
2158   0  1 14.276521 19.987124 48.540349
2159   0  1 14.276563 19.987175 51.395616
9738   0  1 12.848865 18.559497 49.968008
10138  0  1 15.704169 18.559457 49.968015
10538  0  1 18.559481 18.559415 49.968024
2538   0  1 17.131771 17.131704 48.540437
2539   0  1 17.131825 17.131798 51.395676
2558   0  1 17.131826 19.987075 48.540355
2559   0  1 17.131873 19.987145 51.395615
2938   0  1 19.987095 17.131653 48.540457
2939   0  1 19.987144 17.131765 51.395686
2958   0  1 19.987139 19.987024 48.540365
2959   0  1 19.987184 19.987113 51.395618
3338   0  1 22.842435 17.131609 48.540480
3339   0  1 22.842471 17.131736 51.395701
3358   0  1 22.842465 19.986975 48.540382
3359   0  1 22.842501 19.987083 51.395627
10938  0  1 21.414803 18.559375 49.968037
11338  0  1 24.270136 18.559340 49.968057
3738   0  1 25.697792 17.131574 48.540510
3739   0  1 25.697808 17.131713 51.395721
3758   0  1 25.697808 19.986933 48.540412
3759   0  1 25.697825 19.987057 51.395646
11738  0  1 27.125481 18.559312 49.968085
178    0  1  0.000079 22.842520 48.540312
179    0  1  0.000074 22.842530 51.395629
578    0  1  2.855372 22.842527 48.540295
579    0  1  2.855371 22.842536 51.395609
8158   0  1  1.427717 21.414879 49.967973
8178   0  1  1.427730 24.270177 49.967949
978    0  1  5.710671 22.842527 48.540288
979    0  1  5.710675 22.842536 51.395597
8558   0  1  4.283010 21.414882 49.967962
8578   0  1  4.283032 24.270180 49.967934
8958   0  1  7.138309 21.414876 49.967958
8978   0  1  7.138342 24.270179 49.967924
1378   0  1  8.565974 22.842518 48.540286
1379   0  1  8.565986 22.842531 51.395588
1778   0  1 11.421282 22.842502 48.540283
1779   0  1 11.421302 22.842520 51.395578
9358   0  1  9.993614 21.414862 49.967955
9378   0  1  9.993658 24.270173 49.967914
2178   0  1 14.276595 22.842478 48.540273
2179   0  1 14.276619 22.842504 51.395566
10178  0  1 15.704301 24.270144 49.967879
9758   0  1 12.848922 21.414840 49.967951
9778   0  1 12.848979 24.270161 49.967899
10158  0  1 15.704232 21.414811 49.967944
10578  0  1 18.559616 24.270119 49.967859
10558  0  1 18.559542 21.414775 49.967940
2578   0  1 17.131908 22.842445 48.540259
2579   0  1 17.131933 22.842482 51.395554
2978   0  1 19.987217 22.842402 48.540250
2979   0  1 19.987241 22.842455 51.395547
3378   0  1 22.842528 22.842355 48.540254
3379   0  1 22.842547 22.842426 51.395548
10958  0  1 21.414853 21.414737 49.967942
10978  0  1 21.414922 24.270086 49.967849
11358  0  1 24.270171 21.414701 49.967956
11378  0  1 24.270225 24.270053 49.967853
3778   0  1 25.697849 22.842311 48.540277
3779   0  1 25.697855 22.842401 51.395562
11758  0  1 27.125500 21.414670 49.967984
11778  0  1 27.125532 24.270024 49.967876
198    0  1  0.000088 25.697815 48.540288
199    0  1  0.000082 25.697821 51.395611
598    0  1  2.855389 25.697821 48.540268
599    0  1  2.855386 25.697825 51.395589
8198   0  1  1.427741 27.125463 49.967930
218    0  1  0.000095 28.553100 48.540271
618    0  1  2.855402 28.553103 48.540249
619    0  1  2.855397 28.553105 51.395575
219    0  1  0.000089 28.553103 51.395598
998    0  1  5.710697 25.697822 48.540256
999    0  1  5.710698 25.697826 51.395574
8598   0  1  4.283050 27.125465 49.967912
8998   0  1  7.138367 27.125464 49.967899
1018   0  1  5.710716 28.553102 48.540234
1019   0  1  5.710714 28.553104 51.395558
1398   0  1  8.566011 25.697819 48.540248
1399   0  1  8.566017 25.697824 51.395561
1798   0  1 11.421334 25.697811 48.540234
1799   0  1 11.421343 25.697819 51.395545
9398   0  1  9.993692 27.125461 49.967884
1819   0  1 11.421373 28.553098 51.395522
1818   0  1 11.421371 28.553092 48.540200
1419   0  1  8.566039 28.553102 51.395542
1418   0  1  8.566038 28.553098 48.540220
10198  0  1 15.704360 27.125445 49.967829
2198   0  1 14.276664 25.697800 48.540209
2199   0  1 14.276670 25.697810 51.395524
9798   0  1 12.849025 27.125455 49.967860
2219   0  1 14.276708 28.553093 51.395495
2218   0  1 14.276715 28.553085 48.540165
10598  0  1 18.559684 27.125430 49.967798
2598   0  1 17.131993 25.697781 48.540176
2599   0  1 17.131991 25.697796 51.395503
2998   0  1 19.987311 25.697752 48.540147
2999   0  1 19.987301 25.697776 51.395487
2618   0  1 17.132060 28.553074 48.540119
3019   0  1 19.987350 28.553074 51.395445
3018   0  1 19.987389 28.553059 48.540075
2619   0  1 17.132036 28.553085 51.395468
3418   0  1 22.842691 28.553037 48.540050
3398   0  1 22.842613 25.697713 48.540135
3399   0  1 22.842600 25.697753 51.395481
10998  0  1 21.414992 27.125408 49.967776
11398  0  1 24.270283 27.125384 49.967772
3419   0  1 22.842645 28.553061 51.395434
3818   0  1 25.697969 28.553014 48.540052
3819   0  1 25.697926 28.553050 51.395438
3798   0  1 25.697911 25.697675 48.540147
3799   0  1 25.697893 25.697732 51.395489
11798  0  1 27.125568 27.125364 49.967789
40     0  1  0.000012  2.855292 54.250998
440    0  1  2.855278  2.855288 54.250988
8019   0  1  1.427650  1.427621 52.823358
8020   0  1  1.427642  1.427622 55.678619
840    0  1  5.710554  2.855284 54.250983
8419   0  1  4.282917  1.427619 52.823354
8420   0  1  4.282915  1.427619 55.678609
8819   0  1  7.138196  1.427620 52.823354
8820   0  1  7.138199  1.427619 55.678604
821    0  1  5.710550  2.855288 57.106231
1240   0  1  8.565843  2.855282 54.250983
1640   0  1 11.421148  2.855281 54.250986
9219   0  1  9.993492  1.427623 52.823358
9220   0  1  9.993497  1.427621 55.678603
1221   0  1  8.565843  2.855286 57.106225
1621   0  1 11.421150  2.855285 57.106224
2040   0  1 14.276466  2.855281 54.250991
9619   0  1 12.848802  1.427628 52.823363
9620   0  1 12.848810  1.427625 55.678606
10019  0  1 15.704126  1.427633 52.823370
10020  0  1 15.704134  1.427630 55.678612
2021   0  1 14.276470  2.855286 57.106228
2440   0  1 17.131795  2.855283 54.250999
10419  0  1 18.559460  1.427638 52.823378
10420  0  1 18.559467  1.427635 55.678620
2840   0  1 19.987133  2.855285 54.251007
3240   0  1 22.842475  2.855288 54.251017
10819  0  1 21.414802  1.427644 52.823387
10820  0  1 21.414806  1.427640 55.678630
11219  0  1 24.270148  1.427649 52.823396
11220  0  1 24.270149  1.427645 55.678641
3620   0  1 25.697821  0.000004 54.251025
3640   0  1 25.697821  2.855291 54.251028
11619  0  1 27.125496  1.427654 52.823406
11620  0  1 27.125494  1.427650 55.678652
60     0  1  0.000010  5.710627 54.251000
460    0  1  2.855277  5.710622 54.250989
8039   0  1  1.427646  4.282954 52.823361
8040   0  1  1.427638  4.282961 55.678623
8059   0  1  1.427647  7.138286 52.823359
8060   0  1  1.427639  7.138297 55.678623
860    0  1  5.710554  5.710614 54.250984
8439   0  1  4.282913  4.282948 52.823357
8440   0  1  4.282911  4.282955 55.678613
8459   0  1  4.282917  7.138277 52.823354
8460   0  1  4.282915  7.138289 55.678612
8839   0  1  7.138194  4.282942 52.823357
8840   0  1  7.138196  4.282950 55.678607
8859   0  1  7.138198  7.138264 52.823354
8860   0  1  7.138201  7.138279 55.678606
1260   0  1  8.565845  5.710604 54.250984
1660   0  1 11.421149  5.710595 54.250987
9239   0  1  9.993490  4.282936 52.823360
9240   0  1  9.993496  4.282945 55.678607
9259   0  1  9.993493  7.138249 52.823358
9260   0  1  9.993501  7.138267 55.678606
1241   0  1  8.565845  5.710613 57.106227
1641   0  1 11.421152  5.710606 57.106227
2060   0  1 14.276467  5.710587 54.250993
9639   0  1 12.848800  4.282930 52.823365
9640   0  1 12.848808  4.282941 55.678610
9659   0  1 12.848802  7.138234 52.823365
9660   0  1 12.848813  7.138256 55.678610
10039  0  1 15.704125  4.282926 52.823372
10040  0  1 15.704133  4.282938 55.678616
10059  0  1 15.704125  7.138220 52.823373
10060  0  1 15.704136  7.138246 55.678617
2041   0  1 14.276472  5.710600 57.106231
2460   0  1 17.131795  5.710580 54.251001
10439  0  1 18.559459  4.282924 52.823380
10440  0  1 18.559466  4.282937 55.678624
10459  0  1 18.559458  7.138210 52.823382
10460  0  1 18.559468  7.138239 55.678626
2860   0  1 19.987132  5.710576 54.251010
3260   0  1 22.842474  5.710574 54.251021
10839  0  1 21.414800  4.282923 52.823389
10840  0  1 21.414805  4.282938 55.678635
10859  0  1 21.414798  7.138202 52.823392
10860  0  1 21.414806  7.138235 55.678637
11239  0  1 24.270146  4.282924 52.823398
11240  0  1 24.270149  4.282939 55.678646
11259  0  1 24.270143  7.138198 52.823403
11260  0  1 24.270148  7.138232 55.678650
3660   0  1 25.697819  5.710574 54.251032
11639  0  1 27.125495  4.282926 52.823408
11640  0  1 27.125494  4.282942 55.678658
11659  0  1 27.125491  7.138196 52.823414
11660  0  1 27.125491  7.138233 55.678663
80     0  1  0.000013  8.565960 54.250997
100    0  1  0.000020 11.421290 54.250990
480    0  1  2.855283  8.565955 54.250985
500    0  1  2.855294 11.421286 54.250976
8079   0  1  1.427655  9.993616 52.823351
8080   0  1  1.427645  9.993630 55.678620
880    0  1  5.710562  8.565944 54.250979
900    0  1  5.710577 11.421274 54.250969
8479   0  1  4.282927  9.993607 52.823345
8480   0  1  4.282925  9.993622 55.678607
8879   0  1  7.138209  9.993590 52.823345
8880   0  1  7.138213  9.993608 55.678601
861    0  1  5.710558  8.565953 57.106232
881    0  1  5.710572 11.421284 57.106227
1280   0  1  8.565853  8.565928 54.250979
1300   0  1  8.565869 11.421256 54.250969
1680   0  1 11.421156  8.565912 54.250983
1700   0  1 11.421172 11.421235 54.250973
9279   0  1  9.993503  9.993568 52.823351
9280   0  1  9.993514  9.993592 55.678601
1261   0  1  8.565854  8.565940 57.106226
1281   0  1  8.565870 11.421269 57.106221
1661   0  1 11.421162  8.565928 57.106226
1681   0  1 11.421179 11.421252 57.106221
2080   0  1 14.276472  8.565896 54.250990
2100   0  1 14.276485 11.421214 54.250980
9679   0  1 12.848810  9.993545 52.823359
9680   0  1 12.848825  9.993575 55.678605
10079  0  1 15.704129  9.993523 52.823368
10080  0  1 15.704145  9.993560 55.678613
2061   0  1 14.276480  8.565916 57.106231
2081   0  1 14.276496 11.421237 57.106226
2480   0  1 17.131798  8.565882 54.251000
2500   0  1 17.131807 11.421194 54.250990
10479  0  1 18.559458  9.993505 52.823379
10480  0  1 18.559474  9.993548 55.678623
2880   0  1 19.987133  8.565871 54.251010
2900   0  1 19.987137 11.421178 54.251002
3280   0  1 22.842472  8.565864 54.251022
3300   0  1 22.842473 11.421166 54.251015
10879  0  1 21.414796  9.993491 52.823391
10880  0  1 21.414808  9.993538 55.678635
11279  0  1 24.270139  9.993480 52.823405
11280  0  1 24.270147  9.993532 55.678648
3680   0  1 25.697816  8.565859 54.251035
3700   0  1 25.697813 11.421157 54.251029
11679  0  1 27.125486  9.993475 52.823419
11680  0  1 27.125488  9.993530 55.678662
8099   0  1  1.427666 12.848945 52.823338
8100   0  1  1.427656 12.848959 55.678613
120    0  1  0.000029 14.276614 54.250979
520    0  1  2.855310 14.276613 54.250963
8119   0  1  1.427681 15.704269 52.823320
8120   0  1  1.427669 15.704280 55.678603
8499   0  1  4.282943 12.848937 52.823330
8500   0  1  4.282940 12.848951 55.678598
8899   0  1  7.138228 12.848920 52.823329
8900   0  1  7.138233 12.848938 55.678591
920    0  1  5.710598 14.276604 54.250954
8519   0  1  4.282964 15.704265 52.823310
8520   0  1  4.282960 15.704276 55.678587
8919   0  1  7.138255 15.704251 52.823307
8920   0  1  7.138259 15.704265 55.678578
901    0  1  5.710592 14.276611 57.106220
9299   0  1  9.993522 12.848896 52.823334
9300   0  1  9.993535 12.848920 55.678590
1320   0  1  8.565893 14.276587 54.250952
1720   0  1 11.421197 14.276565 54.250955
9319   0  1  9.993552 15.704229 52.823309
9320   0  1  9.993563 15.704248 55.678575
1301   0  1  8.565894 14.276596 57.106213
1701   0  1 11.421204 14.276579 57.106213
9699   0  1 12.848827 12.848869 52.823342
9700   0  1 12.848845 12.848901 55.678594
10099  0  1 15.704142 12.848841 52.823352
10100  0  1 15.704162 12.848882 55.678601
2120   0  1 14.276508 14.276541 54.250961
9719   0  1 12.848856 15.704202 52.823314
9720   0  1 12.848874 15.704230 55.678577
10119  0  1 15.704168 15.704174 52.823321
10120  0  1 15.704189 15.704210 55.678582
2101   0  1 14.276519 14.276562 57.106217
10499  0  1 18.559466 12.848817 52.823364
10500  0  1 18.559486 12.848866 55.678611
2520   0  1 17.131825 14.276519 54.250969
10520  0  1 18.559507 15.704192 55.678590
10519  0  1 18.559485 15.704146 52.823331
2920   0  1 19.987149 14.276499 54.250980
2501   0  1 17.131840 14.276546 57.106225
10899  0  1 21.414798 12.848797 52.823377
10900  0  1 21.414815 12.848853 55.678622
11299  0  1 24.270137 12.848781 52.823392
11300  0  1 24.270148 12.848844 55.678636
3320   0  1 22.842479 14.276483 54.250993
10919  0  1 21.414810 15.704122 52.823343
10920  0  1 21.414829 15.704176 55.678600
11319  0  1 24.270142 15.704103 52.823358
11320  0  1 24.270155 15.704165 55.678613
11699  0  1 27.125481 12.848771 52.823410
11700  0  1 27.125484 12.848839 55.678652
3720   0  1 25.697813 14.276471 54.251008
11719  0  1 27.125480 15.704089 52.823377
11720  0  1 27.125483 15.704158 55.678628
140    0  1  0.000040 17.131932 54.250966
160    0  1  0.000051 19.987240 54.250951
540    0  1  2.855328 17.131933 54.250947
560    0  1  2.855347 19.987243 54.250930
8139   0  1  1.427696 18.559584 52.823301
8140   0  1  1.427683 18.559593 55.678592
521    0  1  2.855314 17.131938 57.106228
541    0  1  2.855332 19.987245 57.106220
940    0  1  5.710623 17.131927 54.250936
960    0  1  5.710650 19.987240 54.250917
8539   0  1  4.282988 18.559584 52.823287
8540   0  1  4.282982 18.559591 55.678574
8939   0  1  7.138286 18.559575 52.823281
8940   0  1  7.138287 18.559583 55.678563
921    0  1  5.710615 17.131931 57.106212
941    0  1  5.710640 19.987241 57.106204
1340   0  1  8.565925 17.131914 54.250931
1360   0  1  8.565958 19.987232 54.250908
1740   0  1 11.421231 17.131895 54.250930
1760   0  1 11.421270 19.987218 54.250903
9339   0  1  9.993590 18.559559 52.823278
9340   0  1  9.993597 18.559571 55.678558
1321   0  1  8.565923 17.131919 57.106204
1341   0  1  8.565953 19.987232 57.106194
1721   0  1 11.421235 17.131904 57.106202
1741   0  1 11.421270 19.987221 57.106191
2140   0  1 14.276541 17.131873 54.250932
2160   0  1 14.276583 19.987201 54.250900
9739   0  1 12.848897 18.559537 52.823277
9740   0  1 12.848910 18.559555 55.678556
10139  0  1 15.704207 18.559512 52.823279
10140  0  1 15.704223 18.559537 55.678558
2141   0  1 14.276586 19.987206 57.106192
2121   0  1 14.276550 17.131887 57.106205
10540  0  1 18.559537 18.559518 55.678563
10539  0  1 18.559519 18.559485 52.823282
2540   0  1 17.131855 17.131851 54.250937
2560   0  1 17.131895 19.987180 54.250900
2940   0  1 19.987172 17.131829 54.250945
2960   0  1 19.987205 19.987159 54.250903
2521   0  1 17.131867 17.131871 57.106211
2541   0  1 17.131900 19.987191 57.106196
2921   0  1 19.987185 17.131857 57.106220
2941   0  1 19.987212 19.987177 57.106203
3340   0  1 22.842493 17.131811 54.250956
3360   0  1 22.842517 19.987141 54.250910
10939  0  1 21.414836 18.559459 52.823290
10940  0  1 21.414851 18.559502 55.678571
11339  0  1 24.270157 18.559438 52.823304
11340  0  1 24.270167 18.559489 55.678582
3321   0  1 22.842504 17.131846 57.106231
3341   0  1 22.842522 19.987166 57.106212
3740   0  1 25.697818 17.131797 54.250971
3760   0  1 25.697831 19.987126 54.250923
11739  0  1 27.125485 18.559421 52.823323
11740  0  1 27.125486 18.559481 55.678596
3741   0  1 25.697832 19.987159 57.106223
180    0  1  0.000061 22.842537 54.250937
580    0  1  2.855363 22.842541 54.250915
8159   0  1  1.427711 21.414889 52.823281
8160   0  1  1.427697 21.414894 55.678581
8179   0  1  1.427723 24.270182 52.823264
8180   0  1  1.427708 24.270185 55.678571
561    0  1  2.855347 22.842542 57.106213
980    0  1  5.710674 22.842541 54.250899
8559   0  1  4.283011 21.414891 52.823265
8560   0  1  4.283003 21.414894 55.678562
8579   0  1  4.283030 24.270185 52.823246
8580   0  1  4.283021 24.270186 55.678550
8959   0  1  7.138318 21.414887 52.823255
8960   0  1  7.138315 21.414890 55.678549
8979   0  1  7.138345 24.270184 52.823233
8980   0  1  7.138340 24.270184 55.678536
961    0  1  5.710662 22.842540 57.106196
1380   0  1  8.565990 22.842536 54.250888
1780   0  1 11.421310 22.842528 54.250879
9359   0  1  9.993630 21.414877 52.823247
9360   0  1  9.993632 21.414882 55.678541
9379   0  1  9.993666 24.270179 52.823220
9380   0  1  9.993663 24.270180 55.678526
1361   0  1  8.565982 22.842534 57.106185
1761   0  1 11.421304 22.842526 57.106181
2180   0  1 14.276627 22.842515 54.250871
10180  0  1 15.704303 24.270161 55.678515
10179  0  1 15.704307 24.270157 52.823193
9759   0  1 12.848944 21.414863 52.823240
9760   0  1 12.848949 21.414870 55.678537
9779   0  1 12.848988 24.270170 52.823207
9780   0  1 12.848986 24.270172 55.678519
10159  0  1 15.704256 21.414843 52.823233
10160  0  1 15.704263 21.414855 55.678535
2161   0  1 14.276623 22.842515 57.106180
10580  0  1 18.559612 24.270148 55.678513
10579  0  1 18.559618 24.270139 52.823183
10560  0  1 18.559574 21.414839 55.678536
10559  0  1 18.559566 21.414819 52.823230
2580   0  1 17.131940 22.842499 54.250865
2980   0  1 19.987247 22.842481 54.250863
2561   0  1 17.131936 22.842502 57.106183
2961   0  1 19.987243 22.842489 57.106187
3380   0  1 22.842549 22.842463 54.250866
10959  0  1 21.414874 21.414795 52.823231
10960  0  1 21.414881 21.414823 55.678541
10979  0  1 21.414921 24.270119 52.823178
10980  0  1 21.414913 24.270134 55.678514
11359  0  1 24.270184 21.414773 52.823240
11360  0  1 24.270187 21.414810 55.678549
11379  0  1 24.270220 24.270099 52.823182
11380  0  1 24.270210 24.270123 55.678520
3361   0  1 22.842545 22.842479 57.106194
3780   0  1 25.697852 22.842449 54.250876
11759  0  1 27.125499 21.414756 52.823258
11760  0  1 27.125494 21.414802 55.678562
11779  0  1 27.125519 24.270084 52.823197
11780  0  1 27.125505 24.270116 55.678531
3761   0  1 25.697844 22.842472 57.106204
620    0  1  2.855388 28.553106 54.250892
220    0  1  0.000076 28.553105 54.250917
8200   0  1  1.427718 27.125467 55.678562
8199   0  1  1.427733 27.125466 52.823251
200    0  1  0.000069 25.697825 54.250926
600    0  1  2.855377 25.697828 54.250902
601    0  1  2.855370 28.553106 57.106200
201    0  1  0.000054 28.553106 57.106225
181    0  1  0.000047 25.697826 57.106231
581    0  1  2.855360 25.697828 57.106206
1020   0  1  5.710708 28.553106 54.250874
9000   0  1  7.138359 27.125467 55.678526
8999   0  1  7.138366 27.125467 52.823216
8600   0  1  4.283035 27.125468 55.678541
8599   0  1  4.283045 27.125468 52.823231
1000   0  1  5.710694 25.697828 54.250885
1001   0  1  5.710694 28.553106 57.106183
981    0  1  5.710681 25.697827 57.106189
1820   0  1 11.421367 28.553101 54.250844
1420   0  1  8.566036 28.553104 54.250859
9400   0  1  9.993687 27.125465 55.678515
9399   0  1  9.993694 27.125464 52.823200
1800   0  1 11.421343 25.697821 54.250859
1400   0  1  8.566017 25.697826 54.250871
1801   0  1 11.421353 28.553101 57.106165
1401   0  1  8.566023 28.553104 57.106171
1381   0  1  8.566006 25.697824 57.106178
1781   0  1 11.421333 25.697819 57.106172
2220   0  1 14.276695 28.553097 54.250830
9800   0  1 12.849015 27.125460 55.678506
9799   0  1 12.849024 27.125459 52.823182
2200   0  1 14.276667 25.697813 54.250847
10199  0  1 15.704349 27.125452 52.823163
10200  0  1 15.704335 27.125453 55.678499
2201   0  1 14.276679 28.553098 57.106162
2181   0  1 14.276655 25.697811 57.106170
3020   0  1 19.987320 28.553084 54.250808
2620   0  1 17.132014 28.553091 54.250817
10599  0  1 18.559664 27.125440 52.823147
10600  0  1 18.559645 27.125445 55.678495
2600   0  1 17.131982 25.697802 54.250837
3000   0  1 19.987288 25.697789 54.250831
3001   0  1 19.987296 28.553088 57.106165
2601   0  1 17.131994 28.553093 57.106162
2581   0  1 17.131969 25.697802 57.106171
2981   0  1 19.987273 25.697793 57.106174
11400  0  1 24.270232 27.125429 55.678498
11399  0  1 24.270255 27.125412 52.823137
3400   0  1 22.842584 25.697775 54.250830
10999  0  1 21.414965 27.125426 52.823137
3420   0  1 22.842612 28.553077 54.250805
11000  0  1 21.414943 27.125436 55.678494
3401   0  1 22.842587 28.553085 57.106170
3381   0  1 22.842568 25.697785 57.106180
11800  0  1 27.125517 27.125425 55.678508
11799  0  1 27.125540 27.125402 52.823149
3800   0  1 25.697875 25.697763 54.250838
3820   0  1 25.697894 28.553071 54.250811
3801   0  1 25.697870 28.553084 57.106177
3781   0  1 25.697858 25.697780 57.106188
222    0  1  0.000032 31.408382  2.855291
622    0  1  2.855350 31.408383  2.855266
8201   0  1  1.427702 29.980744  1.427629
8202   0  1  1.427673 29.980744  4.282929
1022   0  1  5.710675 31.408382  2.855248
8601   0  1  4.283023 29.980744  1.427607
8602   0  1  4.282992 29.980744  4.282905
9001   0  1  7.138352 29.980743  1.427594
9002   0  1  7.138319 29.980743  4.282892
1422   0  1  8.566006 31.408381  2.855240
1822   0  1 11.421339 31.408380  2.855244
9401   0  1  9.993684 29.980741  1.427589
9402   0  1  9.993652 29.980740  4.282893
2222   0  1 14.276667 31.408380  2.855254
9801   0  1 12.849013 29.980739  1.427590
9802   0  1 12.848986 29.980738  4.282906
10201  0  1 15.704335 29.980737  1.427596
10202  0  1 15.704312 29.980736  4.282927
2622   0  1 17.131984 31.408381  2.855268
10601  0  1 18.559644 29.980736  1.427603
10602  0  1 18.559624 29.980735  4.282949
3022   0  1 19.987286 31.408384  2.855283
3422   0  1 22.842575 31.408388  2.855296
11001  0  1 21.414939 29.980736  1.427612
11002  0  1 21.414920 29.980737  4.282969
11401  0  1 24.270223 29.980737  1.427620
11402  0  1 24.270203 29.980740  4.282985
3822   0  1 25.697855 31.408392  2.855308
11801  0  1 27.125502 29.980739  1.427630
11802  0  1 27.125480 29.980744  4.282998
242    0  1  0.000036 34.263659  2.855287
642    0  1  2.855352 34.263660  2.855262
8221   0  1  1.427706 32.836020  1.427625
8222   0  1  1.427678 32.836022  4.282926
8241   0  1  1.427708 35.691298  1.427622
8242   0  1  1.427679 35.691302  4.282921
1042   0  1  5.710675 34.263660  2.855244
8621   0  1  4.283027 32.836019  1.427604
8622   0  1  4.282996 32.836023  4.282902
8641   0  1  4.283026 35.691297  1.427601
8642   0  1  4.282995 35.691304  4.282897
9021   0  1  7.138355 32.836019  1.427590
9022   0  1  7.138322 32.836023  4.282889
9041   0  1  7.138351 35.691297  1.427587
9042   0  1  7.138318 35.691306  4.282883
1442   0  1  8.566005 34.263661  2.855236
1842   0  1 11.421336 34.263662  2.855239
9421   0  1  9.993687 32.836018  1.427585
9422   0  1  9.993655 32.836023  4.282890
9441   0  1  9.993680 35.691297  1.427581
9442   0  1  9.993648 35.691308  4.282883
2242   0  1 14.276664 34.263665  2.855249
9821   0  1 12.849017 32.836019  1.427586
9822   0  1 12.848989 32.836024  4.282903
9841   0  1 12.849008 35.691301  1.427581
9842   0  1 12.848979 35.691312  4.282895
10221  0  1 15.704339 32.836021  1.427591
10222  0  1 15.704315 32.836026  4.282923
10241  0  1 15.704328 35.691306  1.427586
10242  0  1 15.704304 35.691318  4.282914
2642   0  1 17.131980 34.263670  2.855263
10621  0  1 18.559647 32.836025  1.427599
10622  0  1 18.559627 32.836031  4.282946
10641  0  1 18.559637 35.691315  1.427595
10642  0  1 18.559617 35.691327  4.282937
3042   0  1 19.987284 34.263678  2.855278
3442   0  1 22.842575 34.263686  2.855293
11021  0  1 21.414943 32.836030  1.427608
11022  0  1 21.414924 32.836037  4.282967
11041  0  1 21.414934 35.691325  1.427605
11042  0  1 21.414917 35.691337  4.282959
11421  0  1 24.270227 32.836036  1.427618
11422  0  1 24.270208 32.836044  4.282985
11441  0  1 24.270222 35.691335  1.427615
11442  0  1 24.270207 35.691346  4.282978
3842   0  1 25.697857 34.263693  2.855306
11821  0  1 27.125505 32.836040  1.427628
11822  0  1 27.125486 32.836047  4.282998
11841  0  1 27.125505 35.691341  1.427627
11842  0  1 27.125491 35.691349  4.282993
262    0  1  0.000038 37.118941  2.855282
282    0  1  0.000037 39.974231  2.855277
662    0  1  2.855350 37.118941  2.855257
682    0  1  2.855344 39.974231  2.855253
8261   0  1  1.427705 38.546582  1.427620
8262   0  1  1.427678 38.546588  4.282914
1062   0  1  5.710669 37.118942  2.855239
1082   0  1  5.710657 39.974234  2.855235
8661   0  1  4.283019 38.546581  1.427599
8662   0  1  4.282988 38.546591  4.282891
9061   0  1  7.138339 38.546582  1.427584
9062   0  1  7.138306 38.546595  4.282876
1462   0  1  8.565994 37.118944  2.855231
1482   0  1  8.565976 39.974237  2.855225
1862   0  1 11.421323 37.118948  2.855232
1882   0  1 11.421299 39.974244  2.855225
9461   0  1  9.993664 38.546584  1.427578
9462   0  1  9.993631 38.546600  4.282874
2262   0  1 14.276647 37.118954  2.855241
2282   0  1 14.276620 39.974253  2.855233
9861   0  1 12.848987 38.546590  1.427578
9862   0  1 12.848958 38.546607  4.282883
10261  0  1 15.704305 38.546599  1.427583
10262  0  1 15.704280 38.546617  4.282901
2662   0  1 17.131963 37.118964  2.855255
2682   0  1 17.131936 39.974265  2.855245
10661  0  1 18.559615 38.546611  1.427591
10662  0  1 18.559595 38.546629  4.282922
3062   0  1 19.987269 37.118975  2.855271
3082   0  1 19.987245 39.974278  2.855261
3462   0  1 22.842565 37.118986  2.855286
3482   0  1 22.842548 39.974290  2.855277
11061  0  1 21.414916 38.546624  1.427602
11062  0  1 21.414900 38.546641  4.282944
11461  0  1 24.270210 38.546635  1.427614
11462  0  1 24.270199 38.546649  4.282964
3862   0  1 25.697854 37.118993  2.855301
3882   0  1 25.697848 39.974297  2.855292
11861  0  1 27.125502 38.546643  1.427627
11862  0  1 27.125494 38.546652  4.282979
8281   0  1  1.427700 41.401877  1.427618
8282   0  1  1.427673 41.401885  4.282906
302    0  1  0.000034 42.829532  2.855272
702    0  1  2.855333 42.829533  2.855249
8301   0  1  1.427691 44.257183  1.427618
8302   0  1  1.427665 44.257193  4.282898
8681   0  1  4.283006 41.401876  1.427598
8682   0  1  4.282977 41.401889  4.282883
9081   0  1  7.138320 41.401878  1.427583
9082   0  1  7.138288 41.401895  4.282867
1102   0  1  5.710639 42.829536  2.855231
8701   0  1  4.282990 44.257183  1.427599
8702   0  1  4.282961 44.257199  4.282876
9101   0  1  7.138295 44.257187  1.427585
9102   0  1  7.138264 44.257208  4.282859
9481   0  1  9.993638 41.401883  1.427576
9482   0  1  9.993606 41.401903  4.282862
1502   0  1  8.565951 42.829543  2.855220
1902   0  1 11.421268 42.829552  2.855218
9501   0  1  9.993607 44.257195  1.427577
9502   0  1  9.993575 44.257220  4.282851
9881   0  1 12.848957 41.401891  1.427576
9882   0  1 12.848927 41.401914  4.282869
10281  0  1 15.704273 41.401903  1.427581
10282  0  1 15.704248 41.401927  4.282883
2302   0  1 14.276586 42.829564  2.855223
9901   0  1 12.848922 44.257206  1.427576
9902   0  1 12.848892 44.257234  4.282853
10301  0  1 15.704238 44.257220  1.427581
10302  0  1 15.704213 44.257248  4.282864
10681  0  1 18.559585 41.401917  1.427589
10682  0  1 18.559565 41.401940  4.282903
2702   0  1 17.131903 42.829578  2.855235
10701  0  1 18.559552 44.257234  1.427590
10702  0  1 18.559534 44.257261  4.282880
3102   0  1 19.987217 42.829591  2.855250
11081  0  1 21.414891 41.401931  1.427601
11082  0  1 21.414878 41.401951  4.282923
11481  0  1 24.270195 41.401942  1.427614
11482  0  1 24.270187 41.401959  4.282942
3502   0  1 22.842529 42.829601  2.855265
11101  0  1 21.414867 44.257247  1.427601
11102  0  1 21.414855 44.257272  4.282898
11501  0  1 24.270180 44.257258  1.427615
11502  0  1 24.270175 44.257278  4.282915
11881  0  1 27.125499 41.401949  1.427628
11882  0  1 27.125495 41.401961  4.282958
3902   0  1 25.697840 42.829608  2.855281
11901  0  1 27.125495 44.257265  1.427629
11902  0  1 27.125494 44.257281  4.282931
322    0  1  0.000028 45.684846  2.855268
342    0  1  0.000020 48.540172  2.855265
722    0  1  2.855319 45.684847  2.855246
742    0  1  2.855303 48.540173  2.855245
8321   0  1  1.427679 47.112503  1.427620
8322   0  1  1.427655 47.112514  4.282891
1122   0  1  5.710617 45.684852  2.855228
1142   0  1  5.710593 48.540180  2.855227
8721   0  1  4.282969 47.112504  1.427601
8722   0  1  4.282943 47.112521  4.282869
9121   0  1  7.138268 47.112510  1.427588
9122   0  1  7.138239 47.112533  4.282851
1522   0  1  8.565922 45.684862  2.855216
1542   0  1  8.565893 48.540191  2.855214
1922   0  1 11.421234 45.684874  2.855212
1942   0  1 11.421202 48.540205  2.855209
9521   0  1  9.993574 47.112521  1.427580
9522   0  1  9.993544 47.112548  4.282840
2322   0  1 14.276551 45.684888  2.855215
2342   0  1 14.276518 48.540220  2.855210
9921   0  1 12.848886 47.112534  1.427579
9922   0  1 12.848858 47.112564  4.282839
10321  0  1 15.704203 47.112548  1.427583
10322  0  1 15.704180 47.112580  4.282845
2722   0  1 17.131870 45.684902  2.855225
2742   0  1 17.131841 48.540234  2.855217
10721  0  1 18.559523 47.112562  1.427592
10722  0  1 18.559505 47.112593  4.282857
3122   0  1 19.987190 45.684914  2.855238
3142   0  1 19.987167 48.540246  2.855228
3522   0  1 22.842511 45.684924  2.855252
3542   0  1 22.842496 48.540255  2.855241
11121  0  1 21.414844 47.112574  1.427603
11122  0  1 21.414834 47.112602  4.282872
11521  0  1 24.270168 47.112584  1.427617
11522  0  1 24.270163 47.112608  4.282887
3922   0  1 25.697833 45.684930  2.855267
3942   0  1 25.697827 48.540261  2.855255
11921  0  1 27.125492 47.112591  1.427631
11922  0  1 27.125493 47.112611  4.282901
361    0  1  0.000028 51.395503  0.000004
362    0  1  0.000010 51.395508  2.855264
762    0  1  2.855287 51.395509  2.855245
8341   0  1  1.427665 49.967834  1.427623
8342   0  1  1.427643 49.967845  4.282886
8361   0  1  1.427650 52.823173  1.427628
8362   0  1  1.427630 52.823184  4.282884
1162   0  1  5.710572 51.395516  2.855228
8741   0  1  4.282948 49.967836  1.427606
8742   0  1  4.282924 49.967853  4.282865
8761   0  1  4.282929 52.823175  1.427612
8762   0  1  4.282907 52.823190  4.282863
9141   0  1  7.138241 49.967844  1.427593
9142   0  1  7.138214 49.967865  4.282846
9161   0  1  7.138218 52.823182  1.427600
9162   0  1  7.138195 52.823201  4.282845
1562   0  1  8.565867 51.395527  2.855215
1962   0  1 11.421175 51.395541  2.855209
9541   0  1  9.993543 49.967855  1.427586
9542   0  1  9.993516 49.967882  4.282834
9561   0  1  9.993518 52.823193  1.427593
9562   0  1  9.993496 52.823216  4.282832
2362   0  1 14.276493 51.395556  2.855208
9941   0  1 12.848855 49.967869  1.427585
9942   0  1 12.848830 49.967899  4.282829
9961   0  1 12.848830 52.823206  1.427591
9962   0  1 12.848810 52.823231  4.282826
10341  0  1 15.704174 49.967883  1.427588
10342  0  1 15.704153 49.967915  4.282832
10361  0  1 15.704152 52.823218  1.427595
10362  0  1 15.704135 52.823245  4.282827
2762   0  1 17.131819 51.395569  2.855214
10741  0  1 18.559498 49.967896  1.427596
10742  0  1 18.559483 49.967927  4.282840
10761  0  1 18.559481 52.823230  1.427602
10762  0  1 18.559469 52.823257  4.282833
3162   0  1 19.987151 51.395579  2.855223
3562   0  1 22.842486 51.395588  2.855234
11141  0  1 21.414827 49.967907  1.427607
11142  0  1 21.414818 49.967937  4.282851
11161  0  1 21.414816 52.823240  1.427612
11162  0  1 21.414808 52.823267  4.282842
11541  0  1 24.270159 49.967916  1.427620
11542  0  1 24.270155 49.967943  4.282864
11561  0  1 24.270153 52.823248  1.427624
11562  0  1 24.270150 52.823273  4.282854
3961   0  1 25.697823 51.395588  0.000009
3962   0  1 25.697823 51.395594  2.855247
11941  0  1 27.125491 49.967923  1.427633
11942  0  1 27.125492 49.967947  4.282878
11961  0  1 27.125492 52.823254  1.427637
11962  0  1 27.125493 52.823278  4.282866
1      0  1  0.000006 57.106188  0.000018
402    0  1  2.855260 57.106190  2.855252
401    0  1  2.855276 57.106184  0.000004
381    0  1  0.000016 54.250844  0.000011
782    0  1  2.855272 54.250849  2.855248
8381   0  1  1.427638 55.678516  1.427633
8382   0  1  1.427619 55.678525  4.282885
802    0  1  5.710542 57.106191  2.855236
1182   0  1  5.710554 54.250854  2.855231
8781   0  1  4.282914 55.678516  1.427618
8782   0  1  4.282894 55.678527  4.282865
9181   0  1  7.138201 55.678520  1.427607
9182   0  1  7.138181 55.678534  4.282848
1602   0  1 11.421145 57.106202  2.855219
1202   0  1  8.565836 57.106195  2.855225
1582   0  1  8.565848 54.250863  2.855219
1982   0  1 11.421156 54.250875  2.855213
9581   0  1  9.993501 55.678528  1.427600
9582   0  1  9.993483 55.678544  4.282836
2002   0  1 14.276467 57.106210  2.855218
2382   0  1 14.276475 54.250887  2.855212
9981   0  1 12.848815 55.678537  1.427599
9982   0  1 12.848799 55.678556  4.282830
10381  0  1 15.704139 55.678546  1.427602
10382  0  1 15.704126 55.678567  4.282831
2802   0  1 19.987136 57.106225  2.855231
2801   0  1 19.987138 57.106215  0.000005
2402   0  1 17.131798 57.106217  2.855223
2782   0  1 17.131805 54.250898  2.855216
10781  0  1 18.559472 55.678556  1.427609
10782  0  1 18.559463 55.678576  4.282836
3182   0  1 19.987140 54.250907  2.855224
3202   0  1 22.842478 57.106232  2.855242
3201   0  1 22.842479 57.106222  0.000016
3581   0  1 22.842482 54.250906  0.000007
3582   0  1 22.842480 54.250915  2.855235
11181  0  1 21.414810 55.678564  1.427619
11182  0  1 21.414804 55.678584  4.282845
11581  0  1 24.270151 55.678571  1.427631
11582  0  1 24.270149 55.678591  4.282856
3601   0  1 25.697822 57.106229  0.000028
3981   0  1 25.697822 54.250914  0.000019
3982   0  1 25.697822 54.250922  2.855247
11981  0  1 27.125494 55.678577  1.427644
11982  0  1 27.125494 55.678596  4.282869
223    0  1  0.000005 31.408383  5.710593
623    0  1  2.855318 31.408384  5.710564
624    0  1  2.855287 31.408387  8.565866
8203   0  1  1.427645 29.980744  7.138231
1023   0  1  5.710637 31.408384  5.710542
1024   0  1  5.710593 31.408387  8.565834
8603   0  1  4.282955 29.980744  7.138200
9003   0  1  7.138274 29.980742  7.138181
1423   0  1  8.565966 31.408383  5.710536
1424   0  1  8.565913 31.408385  8.565818
1823   0  1 11.421303 31.408382  5.710547
1824   0  1 11.421250 31.408382  8.565830
9403   0  1  9.993606 29.980738  7.138182
2223   0  1 14.276638 31.408381  5.710572
2224   0  1 14.276596 31.408379  8.565869
9803   0  1 12.848946 29.980734  7.138206
10203  0  1 15.704282 29.980731  7.138244
2623   0  1 17.131962 31.408382  5.710603
2624   0  1 17.131934 31.408379  8.565923
10603  0  1 18.559603 29.980730  7.138286
3023   0  1 19.987269 31.408386  5.710633
3024   0  1 19.987252 31.408384  8.565977
3423   0  1 22.842558 31.408391  5.710659
3424   0  1 22.842544 31.408392  8.566021
11003  0  1 21.414903 29.980733  7.138323
11403  0  1 24.270185 29.980739  7.138351
4224   0  1 28.553082 31.408404  8.566069
4223   0  1 28.553109 31.408400  5.710690
3823   0  1 25.697835 31.408397  5.710678
3824   0  1 25.697816 31.408401  8.566052
11803  0  1 27.125456 29.980746  7.138369
243    0  1  0.000010 34.263661  5.710588
643    0  1  2.855320 34.263665  5.710560
644    0  1  2.855290 34.263671  8.565862
8223   0  1  1.427650 32.836025  7.138228
8243   0  1  1.427652 35.691308  7.138221
1043   0  1  5.710638 34.263667  5.710538
1044   0  1  5.710594 34.263675  8.565830
8623   0  1  4.282959 32.836027  7.138198
8643   0  1  4.282958 35.691313  7.138192
9023   0  1  7.138277 32.836028  7.138179
9043   0  1  7.138273 35.691317  7.138172
1443   0  1  8.565965 34.263668  5.710531
1444   0  1  8.565912 34.263678  8.565813
1843   0  1 11.421299 34.263670  5.710541
1844   0  1 11.421246 34.263679  8.565823
9423   0  1  9.993609 32.836028  7.138180
9443   0  1  9.993601 35.691320  7.138171
2243   0  1 14.276633 34.263673  5.710564
2244   0  1 14.276590 34.263681  8.565860
9823   0  1 12.848949 32.836028  7.138203
9843   0  1 12.848937 35.691324  7.138191
10223  0  1 15.704285 32.836029  7.138241
10243  0  1 15.704272 35.691330  7.138227
2643   0  1 17.131957 34.263679  5.710595
2644   0  1 17.131928 34.263686  8.565912
10623  0  1 18.559607 32.836035  7.138283
10643  0  1 18.559594 35.691340  7.138268
3043   0  1 19.987266 34.263687  5.710627
3044   0  1 19.987248 34.263696  8.565966
3443   0  1 22.842559 34.263697  5.710654
3444   0  1 22.842545 34.263709  8.566013
11023  0  1 21.414909 32.836043  7.138322
11043  0  1 21.414901 35.691352  7.138307
11423  0  1 24.270193 32.836051  7.138352
11443  0  1 24.270193 35.691361  7.138339
4244   0  1 28.553101 34.263713  8.566065
3843   0  1 25.697841 34.263703  5.710674
3844   0  1 25.697826 34.263716  8.566046
11823  0  1 27.125466 32.836055  7.138373
11843  0  1 27.125477 35.691362  7.138360
263    0  1  0.000012 37.118945  5.710580
283    0  1  0.000012 39.974237  5.710570
663    0  1  2.855319 37.118950  5.710553
664    0  1  2.855288 37.118960  8.565852
683    0  1  2.855313 39.974243  5.710543
684    0  1  2.855283 39.974258  8.565837
8263   0  1  1.427650 38.546597  7.138210
1063   0  1  5.710632 37.118954  5.710531
1064   0  1  5.710589 37.118968  8.565820
1083   0  1  5.710620 39.974250  5.710521
1084   0  1  5.710577 39.974270  8.565805
8663   0  1  4.282952 38.546605  7.138181
9063   0  1  7.138261 38.546613  7.138160
1463   0  1  8.565954 37.118958  5.710522
1464   0  1  8.565901 37.118976  8.565801
1483   0  1  8.565936 39.974257  5.710509
1484   0  1  8.565882 39.974284  8.565783
1863   0  1 11.421284 37.118963  5.710529
1864   0  1 11.421229 37.118982  8.565807
1883   0  1 11.421259 39.974266  5.710513
1884   0  1 11.421201 39.974298  8.565782
9463   0  1  9.993583 38.546621  7.138156
2263   0  1 14.276615 37.118970  5.710550
2264   0  1 14.276567 37.118990  8.565838
2283   0  1 14.276585 39.974277  5.710530
2284   0  1 14.276531 39.974312  8.565804
9863   0  1 12.848913 38.546629  7.138171
10263  0  1 15.704243 38.546640  7.138202
2663   0  1 17.131938 37.118980  5.710579
2664   0  1 17.131903 37.119000  8.565885
2683   0  1 17.131908 39.974290  5.710555
2684   0  1 17.131864 39.974327  8.565842
10663  0  1 18.559567 38.546653  7.138240
3063   0  1 19.987250 37.118992  5.710610
3064   0  1 19.987226 37.119013  8.565937
3083   0  1 19.987224 39.974303  5.710584
3084   0  1 19.987191 39.974342  8.565887
3463   0  1 22.842550 37.119002  5.710637
3464   0  1 22.842533 37.119026  8.565982
3483   0  1 22.842534 39.974312  5.710610
3484   0  1 22.842513 39.974351  8.565929
11063  0  1 21.414881 38.546665  7.138277
11463  0  1 24.270186 38.546673  7.138308
3863   0  1 25.697843 37.119007  5.710659
3864   0  1 25.697831 37.119030  8.566016
3883   0  1 25.697840 39.974316  5.710631
3884   0  1 25.697829 39.974352  8.565960
11863  0  1 27.125486 38.546672  7.138329
8283   0  1  1.427646 41.401897  7.138197
703    0  1  2.855303 42.829547  5.710532
704    0  1  2.855273 42.829567  8.565820
8303   0  1  1.427639 44.257209  7.138181
303    0  1  0.000010 42.829541  5.710558
8683   0  1  4.282941 41.401907  7.138168
9083   0  1  7.138243 41.401920  7.138145
1103   0  1  5.710603 42.829557  5.710509
1104   0  1  5.710560 42.829585  8.565787
8703   0  1  4.282926 44.257221  7.138153
9103   0  1  7.138220 44.257239  7.138128
9483   0  1  9.993556 41.401933  7.138136
1503   0  1  8.565911 42.829569  5.710495
1504   0  1  8.565856 42.829606  8.565761
1903   0  1 11.421228 42.829583  5.710493
1904   0  1 11.421166 42.829628  8.565751
9503   0  1  9.993525 44.257259  7.138113
9883   0  1 12.848879 41.401948  7.138144
10283  0  1 15.704206 41.401963  7.138167
2303   0  1 14.276549 42.829598  5.710505
2304   0  1 14.276489 42.829650  8.565762
9903   0  1 12.848842 44.257280  7.138113
10303  0  1 15.704167 44.257299  7.138127
10683  0  1 18.559532 41.401978  7.138199
2703   0  1 17.131873 42.829612  5.710525
2704   0  1 17.131820 42.829671  8.565788
10703  0  1 18.559497 44.257315  7.138150
3103   0  1 19.987195 42.829625  5.710548
3104   0  1 19.987155 42.829685  8.565821
11083  0  1 21.414855 41.401988  7.138231
11483  0  1 24.270174 41.401993  7.138259
3503   0  1 22.842516 42.829632  5.710572
3504   0  1 22.842490 42.829691  8.565855
11103  0  1 21.414829 44.257324  7.138175
11503  0  1 24.270161 44.257327  7.138198
11883  0  1 27.125490 41.401991  7.138280
3903   0  1 25.697834 42.829635  5.710592
3904   0  1 25.697824 42.829690  8.565881
11903  0  1 27.125492 44.257326  7.138216
323    0  1  0.000005 45.684857  5.710545
723    0  1  2.855291 45.684864  5.710521
724    0  1  2.855261 45.684888  8.565801
743    0  1  2.855276 48.540192  5.710511
744    0  1  2.855247 48.540218  8.565784
8323   0  1  1.427630 47.112532  7.138167
1123   0  1  5.710582 45.684876  5.710497
1124   0  1  5.710540 45.684910  8.565767
1143   0  1  5.710561 48.540206  5.710487
1144   0  1  5.710521 48.540243  8.565751
8723   0  1  4.282909 47.112547  7.138138
9123   0  1  7.138196 47.112568  7.138111
1523   0  1  8.565883 45.684893  5.710480
1524   0  1  8.565829 45.684939  8.565737
1543   0  1  8.565856 48.540225  5.710468
1544   0  1  8.565805 48.540276  8.565719
1923   0  1 11.421194 45.684911  5.710473
1924   0  1 11.421132 45.684970  8.565720
1943   0  1 11.421164 48.540246  5.710457
1944   0  1 11.421105 48.540311  8.565696
9523   0  1  9.993496 47.112594  7.138092
2323   0  1 14.276513 45.684929  5.710478
2324   0  1 14.276451 45.684999  8.565718
2343   0  1 14.276483 48.540266  5.710456
2344   0  1 14.276425 48.540343  8.565686
9923   0  1 12.848809 47.112619  7.138085
10323  0  1 15.704134 47.112641  7.138089
2723   0  1 17.131839 45.684945  5.710491
2724   0  1 17.131783 45.685023  8.565731
2743   0  1 17.131812 48.540282  5.710463
2744   0  1 17.131761 48.540368  8.565688
10723  0  1 18.559469 47.112658  7.138103
3123   0  1 19.987168 45.684957  5.710509
3124   0  1 19.987126 45.685038  8.565752
3143   0  1 19.987147 48.540294  5.710475
3144   0  1 19.987108 48.540384  8.565699
3523   0  1 22.842498 45.684964  5.710528
3524   0  1 22.842472 45.685044  8.565775
3543   0  1 22.842484 48.540301  5.710489
3544   0  1 22.842461 48.540392  8.565714
11123  0  1 21.414809 47.112667  7.138120
11523  0  1 24.270151 47.112671  7.138138
3923   0  1 25.697828 45.684966  5.710546
3924   0  1 25.697818 45.685044  8.565795
3943   0  1 25.697823 48.540305  5.710504
3944   0  1 25.697814 48.540394  8.565729
11923  0  1 27.125492 47.112671  7.138153
763    0  1  2.855262 51.395527  5.710504
764    0  1  2.855235 51.395552  8.565772
8343   0  1  1.427619 49.967865  7.138154
8363   0  1  1.427608 52.823202  7.138146
1163   0  1  5.710542 51.395540  5.710481
1164   0  1  5.710505 51.395576  8.565741
8743   0  1  4.282892 49.967880  7.138127
8763   0  1  4.282878 52.823214  7.138121
9143   0  1  7.138175 49.967903  7.138100
9163   0  1  7.138160 52.823234  7.138095
1563   0  1  8.565835 51.395559  5.710461
1564   0  1  8.565789 51.395607  8.565710
1963   0  1 11.421142 51.395580  5.710448
1964   0  1 11.421092 51.395640  8.565687
9543   0  1  9.993472 49.967929  7.138078
9563   0  1  9.993458 52.823257  7.138074
2363   0  1 14.276462 51.395599  5.710443
2364   0  1 14.276414 51.395670  8.565674
9943   0  1 12.848785 49.967956  7.138066
9963   0  1 12.848773 52.823280  7.138061
10343  0  1 15.704113 49.967978  7.138064
10363  0  1 15.704103 52.823300  7.138057
2763   0  1 17.131794 51.395615  5.710446
2764   0  1 17.131753 51.395692  8.565672
10743  0  1 18.559451 49.967995  7.138070
10763  0  1 18.559444 52.823314  7.138060
3163   0  1 19.987133 51.395626  5.710454
3164   0  1 19.987102 51.395708  8.565677
3563   0  1 22.842476 51.395634  5.710465
3564   0  1 22.842457 51.395717  8.565687
11143  0  1 21.414796 49.968005  7.138081
11163  0  1 21.414792 52.823325  7.138068
11543  0  1 24.270144 49.968011  7.138095
11563  0  1 24.270142 52.823331  7.138079
3963   0  1 25.697820 51.395639  5.710478
3964   0  1 25.697813 51.395721  8.565699
11943  0  1 27.125492 49.968012  7.138108
11963  0  1 27.125492 52.823335  7.138091
404    0  1  2.855216 57.106213  8.565765
403    0  1  2.855239 57.106200  5.710503
783    0  1  2.855249 54.250864  5.710502
784    0  1  2.855224 54.250885  8.565766
8383   0  1  1.427598 55.678539  7.138144
804    0  1  5.710491 57.106220  8.565740
803    0  1  5.710519 57.106203  5.710482
1183   0  1  5.710528 54.250874  5.710479
1184   0  1  5.710496 54.250902  8.565738
8783   0  1  4.282868 55.678545  7.138120
9183   0  1  7.138152 55.678557  7.138096
1603   0  1 11.421124 57.106220  5.710454
1204   0  1  8.565783 57.106232  8.565718
1203   0  1  8.565813 57.106211  5.710465
1583   0  1  8.565821 54.250889  5.710461
1584   0  1  8.565783 54.250926  8.565711
1983   0  1 11.421129 54.250905  5.710448
1984   0  1 11.421090 54.250951  8.565691
9583   0  1  9.993453 55.678573  7.138078
2003   0  1 14.276449 57.106230  5.710451
2383   0  1 14.276452 54.250921  5.710443
2384   0  1 14.276415 54.250973  8.565680
9983   0  1 12.848770 55.678589  7.138067
10383  0  1 15.704102 55.678603  7.138064
2783   0  1 17.131786 54.250934  5.710444
2784   0  1 17.131755 54.250991  8.565678
10783  0  1 18.559445 55.678615  7.138068
3183   0  1 19.987127 54.250945  5.710451
3184   0  1 19.987105 54.251003  8.565683
3583   0  1 22.842473 54.250953  5.710461
3584   0  1 22.842459 54.251012  8.565692
11183  0  1 21.414793 55.678624  7.138076
11583  0  1 24.270143 55.678630  7.138087
3983   0  1 25.697820 54.250958  5.710473
3984   0  1 25.697815 54.251017  8.565704
11983  0  1 27.125494 55.678635  7.138100
625    0  1  2.855267 31.408389 11.421180
8204   0  1  1.427624 29.980745  9.993541
8205   0  1  1.427617 29.980745 12.848863
626    0  1  2.855266 31.408392 14.276507
1025   0  1  5.710555 31.408390 11.421133
8604   0  1  4.282920 29.980744  9.993500
8605   0  1  4.282901 29.980744 12.848815
9004   0  1  7.138221 29.980740  9.993465
9005   0  1  7.138177 29.980739 12.848759
1026   0  1  5.710539 31.408392 14.276452
1425   0  1  8.565851 31.408388 11.421095
1825   0  1 11.421174 31.408382 11.421090
9404   0  1  9.993541 29.980734  9.993454
9405   0  1  9.993465 29.980730 12.848715
1426   0  1  8.565803 31.408390 14.276386
1826   0  1 11.421082 31.408384 14.276333
2225   0  1 14.276530 31.408376 11.421134
9804   0  1 12.848886 29.980727  9.993480
9805   0  1 12.848794 29.980718 12.848718
10204  0  1 15.704239 29.980721  9.993537
10205  0  1 15.704166 29.980706 12.848791
2226   0  1 14.276423 31.408373 14.276352
2625   0  1 17.131894 31.408372 11.421217
10604  0  1 18.559578 29.980719  9.993608
10605  0  1 18.559539 29.980698 12.848903
2626   0  1 17.131823 31.408360 14.276464
3025   0  1 19.987233 31.408376 11.421308
3425   0  1 22.842532 31.408388 11.421385
11004  0  1 21.414887 29.980722  9.993672
11005  0  1 21.414869 29.980699 12.849013
11404  0  1 24.270166 29.980732  9.993719
11405  0  1 24.270146 29.980714 12.849095
4225   0  1 28.553048 31.408407 11.421464
3825   0  1 25.697796 31.408403 11.421438
11804  0  1 27.125428 29.980743  9.993747
11805  0  1 27.125391 29.980733 12.849142
645    0  1  2.855270 34.263679 11.421175
8224   0  1  1.427629 32.836029  9.993539
8225   0  1  1.427622 32.836034 12.848862
8244   0  1  1.427631 35.691315  9.993530
8245   0  1  1.427624 35.691325 12.848851
646    0  1  2.855268 34.263686 14.276502
1045   0  1  5.710557 34.263685 11.421130
8624   0  1  4.282925 32.836033  9.993500
8625   0  1  4.282907 32.836039 12.848816
8644   0  1  4.282924 35.691324  9.993492
8645   0  1  4.282906 35.691335 12.848807
9024   0  1  7.138226 32.836035  9.993465
9025   0  1  7.138184 32.836042 12.848762
9044   0  1  7.138223 35.691331  9.993457
9045   0  1  7.138182 35.691346 12.848753
1046   0  1  5.710542 34.263695 14.276448
1445   0  1  8.565852 34.263690 11.421091
1845   0  1 11.421172 34.263691 11.421083
9424   0  1  9.993546 32.836034  9.993453
9425   0  1  9.993473 32.836042 12.848718
9444   0  1  9.993538 35.691336  9.993443
9445   0  1  9.993466 35.691356 12.848707
1446   0  1  8.565806 34.263703 14.276383
1846   0  1 11.421083 34.263708 14.276329
2245   0  1 14.276524 34.263691 11.421123
9824   0  1 12.848889 32.836032  9.993478
9825   0  1 12.848801 32.836038 12.848720
9844   0  1 12.848876 35.691340  9.993463
9845   0  1 12.848787 35.691362 12.848702
10224  0  1 15.704243 32.836031  9.993535
10225  0  1 15.704173 32.836033 12.848790
10244  0  1 15.704224 35.691345  9.993514
10245  0  1 15.704148 35.691365 12.848760
2246   0  1 14.276418 34.263707 14.276341
2645   0  1 17.131885 34.263694 11.421201
10624  0  1 18.559583 32.836036  9.993606
10625  0  1 18.559548 32.836033 12.848902
10644  0  1 18.559564 35.691355  9.993581
10645  0  1 18.559516 35.691373 12.848862
2646   0  1 17.131809 34.263702 14.276442
3045   0  1 19.987226 34.263705 11.421291
3445   0  1 22.842534 34.263723 11.421371
11024  0  1 21.414896 32.836047  9.993673
11025  0  1 21.414884 32.836047 12.849016
11044  0  1 21.414882 35.691371  9.993647
11045  0  1 21.414857 35.691394 12.848971
11424  0  1 24.270180 32.836060  9.993725
11425  0  1 24.270170 32.836069 12.849107
11444  0  1 24.270180 35.691383  9.993700
11445  0  1 24.270164 35.691416 12.849064
4245   0  1 28.553081 34.263728 11.421458
3845   0  1 25.697813 34.263736 11.421429
11824  0  1 27.125446 32.836066  9.993757
11825  0  1 27.125423 32.836080 12.849165
11844  0  1 27.125465 35.691383  9.993734
11845  0  1 27.125453 35.691415 12.849121
665    0  1  2.855268 37.118972 11.421162
685    0  1  2.855261 39.974275 11.421142
8264   0  1  1.427630 38.546609  9.993515
8265   0  1  1.427621 38.546623 12.848832
666    0  1  2.855265 37.118985 14.276485
686    0  1  2.855256 39.974294 14.276460
1065   0  1  5.710552 37.118985 11.421117
1085   0  1  5.710539 39.974295 11.421097
8664   0  1  4.282918 38.546621  9.993478
8665   0  1  4.282898 38.546639 12.848788
9064   0  1  7.138211 38.546635  9.993442
9065   0  1  7.138169 38.546660 12.848733
1066   0  1  5.710536 37.119002 14.276432
1086   0  1  5.710519 39.974320 14.276405
1465   0  1  8.565841 37.118997 11.421077
1485   0  1  8.565821 39.974318 11.421053
1865   0  1 11.421154 37.119008 11.421063
1885   0  1 11.421122 39.974341 11.421030
9464   0  1  9.993519 38.546648  9.993423
9465   0  1  9.993446 38.546683 12.848682
1466   0  1  8.565795 37.119022 14.276365
1486   0  1  8.565771 39.974356 14.276334
1866   0  1 11.421065 37.119043 14.276306
1886   0  1 11.421029 39.974400 14.276265
2265   0  1 14.276494 37.119016 11.421092
2285   0  1 14.276448 39.974363 11.421043
9864   0  1 12.848847 38.546660  9.993434
9865   0  1 12.848752 38.546704 12.848665
10264  0  1 15.704187 38.546673  9.993475
10265  0  1 15.704095 38.546722 12.848702
2266   0  1 14.276383 37.119057 14.276302
2286   0  1 14.276324 39.974443 14.276236
2665   0  1 17.131847 37.119027 11.421159
2685   0  1 17.131790 39.974385 11.421090
10664  0  1 18.559524 38.546688  9.993532
10665  0  1 18.559450 38.546742 12.848781
2666   0  1 17.131751 37.119068 14.276377
2686   0  1 17.131664 39.974482 14.276271
3065   0  1 19.987189 37.119044 11.421241
3085   0  1 19.987134 39.974407 11.421154
3066   0  1 19.987124 37.119088 14.276500
3086   0  1 19.987021 39.974527 14.276346
3465   0  1 22.842510 37.119062 11.421317
3485   0  1 22.842475 39.974418 11.421218
11064  0  1 21.414851 38.546703  9.993592
11065  0  1 21.414798 38.546767 12.848873
11464  0  1 24.270168 38.546711  9.993642
11465  0  1 24.270138 38.546777 12.848953
3486   0  1 22.842400 39.974548 14.276437
3865   0  1 25.697817 37.119066 11.421373
3885   0  1 25.697813 39.974416 11.421266
11864  0  1 27.125478 38.546706  9.993674
11865  0  1 27.125471 38.546767 12.849003
3886   0  1 25.697782 39.974544 14.276508
8284   0  1  1.427625 41.401913  9.993496
8285   0  1  1.427615 41.401931 12.848806
705    0  1  2.855251 42.829590 11.421118
8304   0  1  1.427618 44.257229  9.993473
8305   0  1  1.427605 44.257251 12.848777
706    0  1  2.855242 42.829614 14.276429
8684   0  1  4.282907 41.401930  9.993459
8685   0  1  4.282885 41.401955 12.848762
9084   0  1  7.138192 41.401951  9.993420
9085   0  1  7.138147 41.401987 12.848705
1105   0  1  5.710520 42.829618 11.421072
8704   0  1  4.282891 44.257250  9.993437
8705   0  1  4.282866 44.257282 12.848733
9104   0  1  7.138169 44.257280  9.993396
9105   0  1  7.138121 44.257327 12.848674
1106   0  1  5.710496 42.829652 14.276373
9484   0  1  9.993490 41.401974  9.993395
9485   0  1  9.993414 41.402027 12.848647
1505   0  1  8.565794 42.829653 11.421023
1905   0  1 11.421083 42.829693 11.420989
9504   0  1  9.993458 44.257314  9.993364
9505   0  1  9.993379 44.257387 12.848610
1506   0  1  8.565739 42.829708 14.276297
1906   0  1 11.420984 42.829779 14.276216
9884   0  1 12.848807 41.401997  9.993394
9885   0  1 12.848704 41.402070 12.848613
10284  0  1 15.704138 41.402020  9.993419
10285  0  1 15.704027 41.402112 12.848621
2305   0  1 14.276396 42.829732 11.420983
9904   0  1 12.848765 44.257350  9.993350
9905   0  1 12.848658 44.257453 12.848559
10304  0  1 15.704091 44.257383  9.993357
10305  0  1 15.703970 44.257519 12.848538
2306   0  1 14.276258 42.829859 14.276159
10684  0  1 18.559475 41.402041  9.993462
10685  0  1 18.559373 41.402151 12.848664
2705   0  1 17.131731 42.829768 11.421004
10704  0  1 18.559432 44.257407  9.993381
10705  0  1 18.559321 44.257568 12.848548
2706   0  1 17.131577 42.829939 14.276144
3105   0  1 19.987083 42.829792 11.421044
3106   0  1 19.986950 42.829993 14.276172
11084  0  1 21.414814 41.402054  9.993509
11085  0  1 21.414738 41.402174 12.848726
11484  0  1 24.270152 41.402056  9.993551
11485  0  1 24.270110 41.402177 12.848783
3505   0  1 22.842444 42.829801 11.421088
11104  0  1 21.414783 44.257420  9.993413
11105  0  1 21.414701 44.257592 12.848578
11504  0  1 24.270137 44.257422  9.993442
11505  0  1 24.270093 44.257597 12.848611
3506   0  1 22.842356 42.830014 14.276219
11884  0  1 27.125486 41.402049  9.993578
11885  0  1 27.125479 41.402166 12.848820
3905   0  1 25.697806 42.829797 11.421122
11904  0  1 27.125489 44.257416  9.993463
11905  0  1 27.125484 44.257590 12.848635
3906   0  1 25.697771 42.830011 14.276260
746    0  1  2.855207 48.540277 14.276373
726    0  1  2.855224 45.684943 14.276399
8325   0  1  1.427594 47.112581 12.848750
8324   0  1  1.427608 47.112555  9.993451
745    0  1  2.855223 48.540248 11.421070
725    0  1  2.855237 45.684915 11.421092
1146   0  1  5.710448 48.540331 14.276321
1126   0  1  5.710470 45.684993 14.276342
9125   0  1  7.138097 47.112671 12.848649
9124   0  1  7.138146 47.112616  9.993374
8725   0  1  4.282847 47.112616 12.848707
8724   0  1  4.282874 47.112580  9.993416
1145   0  1  5.710480 48.540287 11.421026
1125   0  1  5.710499 45.684951 11.421046
1946   0  1 11.420944 48.540503 14.276177
1926   0  1 11.420948 45.685160 14.276180
1546   0  1  8.565689 48.540409 14.276252
1526   0  1  8.565707 45.685066 14.276266
9525   0  1  9.993353 47.112743 12.848584
9524   0  1  9.993430 47.112660  9.993337
1945   0  1 11.421029 48.540400 11.420930
1925   0  1 11.421048 45.685053 11.420951
1545   0  1  8.565745 48.540340 11.420976
1525   0  1  8.565766 45.684998 11.420995
2346   0  1 14.276237 48.540592 14.276117
2326   0  1 14.276221 45.685263 14.276108
10325  0  1 15.703952 47.112890 12.848494
10324  0  1 15.704060 47.112742  9.993307
9925   0  1 12.848633 47.112821 12.848527
9924   0  1 12.848733 47.112704  9.993313
2345   0  1 14.276341 48.540455 11.420901
2325   0  1 14.276355 45.685107 11.420927
3146   0  1 19.986966 48.540698 14.276076
3126   0  1 19.986936 45.685400 14.276070
3145   0  1 19.987047 48.540522 11.420894
3125   0  1 19.987053 45.685176 11.420945
2746   0  1 17.131582 48.540658 14.276084
2726   0  1 17.131552 45.685348 14.276071
10725  0  1 18.559311 47.112936 12.848487
10724  0  1 18.559407 47.112768  9.993315
2745   0  1 17.131683 48.540496 11.420890
2725   0  1 17.131692 45.685150 11.420927
3546   0  1 22.842371 48.540716 14.276084
3526   0  1 22.842350 45.685422 14.276088
11525  0  1 24.270091 47.112970 12.848514
11524  0  1 24.270128 47.112787  9.993351
11125  0  1 21.414696 47.112961 12.848497
11124  0  1 21.414765 47.112782  9.993332
3545   0  1 22.842422 48.540534 11.420907
3525   0  1 22.842426 45.685187 11.420969
3946   0  1 25.697781 48.540719 14.276099
3926   0  1 25.697773 45.685424 14.276110
11925  0  1 27.125486 47.112967 12.848530
11924  0  1 27.125490 47.112784  9.993367
3945   0  1 25.697800 48.540537 11.420921
3925   0  1 25.697801 45.685186 11.420991
766    0  1  2.855193 51.395608 14.276356
8365   0  1  1.427572 52.823246 12.848714
8364   0  1  1.427588 52.823223  9.993421
8345   0  1  1.427583 49.967914 12.848728
8344   0  1  1.427598 49.967889  9.993433
765    0  1  2.855210 51.395581 11.421055
9164   0  1  7.138120 52.823275  9.993356
9145   0  1  7.138083 49.968005 12.848637
9144   0  1  7.138128 49.967951  9.993360
8765   0  1  4.282821 52.823275 12.848680
8764   0  1  4.282848 52.823244  9.993391
8745   0  1  4.282831 49.967950 12.848689
8744   0  1  4.282859 49.967914  9.993399
1165   0  1  5.710468 51.395617 11.421015
1166   0  1  5.710438 51.395657 14.276312
9165   0  1  7.138081 52.823319 12.848638
1966   0  1 11.420968 51.395794 14.276204
1566   0  1  8.565691 51.395723 14.276258
9565   0  1  9.993361 52.823370 12.848596
9564   0  1  9.993410 52.823312  9.993325
9545   0  1  9.993348 49.968073 12.848581
9544   0  1  9.993413 49.967996  9.993323
1965   0  1 11.421031 51.395716 11.420934
1565   0  1  8.565738 51.395665 11.420972
2366   0  1 14.276282 51.395856 14.276164
10365  0  1 15.704005 52.823455 12.848544
10364  0  1 15.704058 52.823374  9.993291
10345  0  1 15.703971 49.968197 12.848504
10344  0  1 15.704051 49.968075  9.993285
9965   0  1 12.848668 52.823418 12.848563
9964   0  1 12.848723 52.823346  9.993302
9945   0  1 12.848641 49.968142 12.848533
9944   0  1 12.848720 49.968039  9.993297
2365   0  1 14.276351 51.395761 11.420908
3166   0  1 19.987009 51.395923 14.276141
3165   0  1 19.987059 51.395814 11.420898
2766   0  1 17.131632 51.395899 14.276144
10765  0  1 18.559364 52.823479 12.848539
10764  0  1 18.559407 52.823394  9.993291
10745  0  1 18.559332 49.968233 12.848494
10744  0  1 18.559400 49.968099  9.993285
2765   0  1 17.131696 51.395793 11.420897
3566   0  1 22.842399 51.395934 14.276149
11565  0  1 24.270112 52.823499 12.848555
11564  0  1 24.270129 52.823413  9.993307
11545  0  1 24.270100 49.968262 12.848509
11544  0  1 24.270126 49.968120  9.993306
11165  0  1 21.414735 52.823493 12.848545
11164  0  1 21.414766 52.823407  9.993297
11145  0  1 21.414712 49.968254 12.848498
11144  0  1 21.414761 49.968114  9.993293
3565   0  1 22.842430 51.395825 11.420907
3966   0  1 25.697791 51.395937 14.276162
11965  0  1 27.125488 52.823500 12.848568
11964  0  1 27.125491 52.823415  9.993319
11945  0  1 27.125488 49.968261 12.848523
11944  0  1 27.125490 49.968121  9.993319
3965   0  1 25.697803 51.395829 11.420919
405    0  1  2.855195 57.106225 11.421046
786    0  1  2.855185 54.250928 14.276348
8385   0  1  1.427563 55.678570 12.848707
8384   0  1  1.427578 55.678554  9.993416
785    0  1  2.855201 54.250908 11.421047
1185   0  1  5.710464 54.250934 11.421014
8784   0  1  4.282841 55.678566  9.993389
8785   0  1  4.282817 55.678586 12.848678
9184   0  1  7.138119 55.678585  9.993360
9185   0  1  7.138087 55.678612 12.848646
1186   0  1  5.710437 54.250963 14.276313
1986   0  1 11.421003 54.251052 14.276240
1586   0  1  8.565707 54.251007 14.276274
9585   0  1  9.993380 55.678643 12.848617
9584   0  1  9.993416 55.678608  9.993336
1985   0  1 11.421045 54.251003 11.420952
1585   0  1  8.565743 54.250968 11.420980
2386   0  1 14.276328 54.251088 14.276218
10385  0  1 15.704037 55.678691 12.848588
10384  0  1 15.704071 55.678648  9.993313
9985   0  1 12.848697 55.678670 12.848597
9984   0  1 12.848734 55.678630  9.993320
2385   0  1 14.276372 54.251033 11.420935
3186   0  1 19.987047 54.251125 14.276213
3185   0  1 19.987077 54.251069 11.420932
2786   0  1 17.131679 54.251112 14.276209
10785  0  1 18.559392 55.678705 12.848589
10784  0  1 18.559420 55.678662  9.993315
2785   0  1 17.131718 54.251055 11.420929
11184  0  1 21.414776 55.678672  9.993322
11185  0  1 21.414756 55.678714 12.848597
11585  0  1 24.270123 55.678719 12.848610
11584  0  1 24.270134 55.678678  9.993334
3586   0  1 22.842423 54.251132 14.276223
3585   0  1 22.842442 54.251078 11.420941
3986   0  1 25.697799 54.251134 14.276236
11985  0  1 27.125489 55.678721 12.848623
11984  0  1 27.125492 55.678682  9.993347
3985   0  1 25.697808 54.251082 11.420953
627    0  1  2.855284 31.408394 17.131843
8206   0  1  1.427626 29.980745 15.704194
8207   0  1  1.427647 29.980744 18.559526
1027   0  1  5.710558 31.408393 17.131792
8606   0  1  4.282907 29.980743 15.704147
8607   0  1  4.282937 29.980739 18.559488
9006   0  1  7.138165 29.980736 15.704080
9007   0  1  7.138198 29.980731 18.559428
1427   0  1  8.565802 31.408391 17.131715
1827   0  1 11.421019 31.408386 17.131610
9406   0  1  9.993407 29.980725 15.703996
9407   0  1  9.993416 29.980718 18.559332
2227   0  1 14.276263 31.408375 17.131522
9806   0  1 12.848670 29.980709 15.703928
9807   0  1 12.848589 29.980698 18.559188
10206  0  1 15.704032 29.980685 15.703972
10207  0  1 15.703791 29.980665 18.559057
10607  0  1 18.559279 29.980613 18.559236
10606  0  1 18.559466 29.980663 15.704143
2627   0  1 17.131671 31.408348 17.131612
3027   0  1 19.987162 31.408323 17.131874
3026   0  1 19.987208 31.408358 14.276617
3427   0  1 22.842535 31.408334 17.132128
11006  0  1 21.414846 29.980654 15.704339
11007  0  1 21.414821 29.980566 18.559628
11406  0  1 24.270123 29.980671 15.704485
11407  0  1 24.270101 29.980569 18.559905
3426   0  1 22.842525 31.408374 14.276753
4227   0  1 28.552924 31.408408 17.132393
3827   0  1 25.697758 31.408393 17.132299
11806  0  1 27.125333 29.980708 15.704564
11807  0  1 27.125219 29.980651 18.560024
4226   0  1 28.552999 31.408409 14.276892
3826   0  1 25.697775 31.408401 14.276847
647    0  1  2.855286 34.263694 17.131837
8226   0  1  1.427631 32.836039 15.704194
8227   0  1  1.427652 32.836044 18.559526
8246   0  1  1.427631 35.691335 15.704181
8247   0  1  1.427650 35.691345 18.559511
1047   0  1  5.710561 34.263703 17.131788
8626   0  1  4.282914 32.836044 15.704149
8627   0  1  4.282945 32.836048 18.559491
8646   0  1  4.282912 35.691346 15.704138
8647   0  1  4.282941 35.691357 18.559477
9026   0  1  7.138175 32.836048 15.704085
9027   0  1  7.138211 32.836052 18.559436
9046   0  1  7.138172 35.691361 15.704074
9047   0  1  7.138204 35.691374 18.559420
1447   0  1  8.565806 34.263714 17.131712
1847   0  1 11.421026 34.263727 17.131608
9426   0  1  9.993421 32.836051 15.704004
9427   0  1  9.993436 32.836057 18.559345
9446   0  1  9.993415 35.691378 15.703991
9447   0  1  9.993428 35.691398 18.559326
2247   0  1 14.276267 34.263735 17.131518
9826   0  1 12.848686 32.836050 15.703938
9827   0  1 12.848619 32.836062 18.559209
9846   0  1 12.848674 35.691394 15.703920
9847   0  1 12.848608 35.691431 18.559186
10226  0  1 15.704047 32.836038 15.703978
10227  0  1 15.703830 32.836059 18.559085
10246  0  1 15.704016 35.691398 15.703941
10247  0  1 15.703805 35.691463 18.559047
10647  0  1 18.559234 35.691447 18.559158
10646  0  1 18.559427 35.691397 15.704079
10627  0  1 18.559317 32.836019 18.559253
10626  0  1 18.559482 32.836025 15.704145
2647   0  1 17.131658 34.263722 17.131589
3047   0  1 19.987133 34.263705 17.131826
3046   0  1 19.987193 34.263710 14.276589
3447   0  1 22.842519 34.263740 17.132079
11026  0  1 21.414875 32.836034 15.704345
11027  0  1 21.414876 32.835986 18.559640
11046  0  1 21.414814 35.691420 15.704262
11047  0  1 21.414748 35.691409 18.559489
11426  0  1 24.270171 32.836076 15.704509
11427  0  1 24.270207 32.836058 18.559951
11446  0  1 24.270140 35.691465 15.704430
11447  0  1 24.270068 35.691541 18.559780
3446   0  1 22.842524 34.263739 14.276728
4247   0  1 28.553045 34.263783 17.132376
3847   0  1 25.697797 34.263806 17.132292
11826  0  1 27.125399 32.836102 15.704622
11827  0  1 27.125385 32.836134 18.560209
11846  0  1 27.125443 35.691466 15.704533
11847  0  1 27.125430 35.691551 18.559972
4246   0  1 28.553060 34.263751 14.276882
3846   0  1 25.697802 34.263765 14.276835
667    0  1  2.855281 37.118999 17.131818
687    0  1  2.855267 39.974312 17.131787
8266   0  1  1.427627 38.546637 15.704157
8267   0  1  1.427643 38.546652 18.559485
1067   0  1  5.710550 37.119018 17.131766
1087   0  1  5.710527 39.974344 17.131732
8666   0  1  4.282901 38.546657 15.704113
8667   0  1  4.282925 38.546673 18.559448
9066   0  1  7.138155 38.546685 15.704047
9067   0  1  7.138179 38.546707 18.559384
1467   0  1  8.565791 37.119045 17.131687
1487   0  1  8.565758 39.974395 17.131645
1867   0  1 11.421004 37.119082 17.131577
1887   0  1 11.420957 39.974468 17.131523
9466   0  1  9.993391 38.546722 15.703959
9467   0  1  9.993391 38.546760 18.559279
2267   0  1 14.276230 37.119122 17.131471
2287   0  1 14.276156 39.974564 17.131389
10267  0  1 15.703717 38.546943 18.558944
10266  0  1 15.703944 38.546803 15.703861
9866   0  1 12.848635 38.546766 15.703874
9867   0  1 12.848555 38.546840 18.559121
10667  0  1 18.559047 38.547015 18.558943
10666  0  1 18.559315 38.546834 15.703945
2667   0  1 17.131575 37.119142 17.131496
2687   0  1 17.131440 39.974660 17.131338
3067   0  1 19.986999 37.119150 17.131670
3087   0  1 19.986776 39.974792 17.131366
3467   0  1 22.842363 37.119229 17.131865
3487   0  1 22.842224 39.974855 17.131469
11066  0  1 21.414682 38.546889 15.704070
11067  0  1 21.414379 38.547206 18.559023
11466  0  1 24.270071 38.546909 15.704197
11467  0  1 24.269888 38.547270 18.559196
3466   0  1 22.842468 37.119119 14.276627
3867   0  1 25.697752 37.119247 17.132031
3887   0  1 25.697712 39.974856 17.131562
11866  0  1 27.125460 38.546893 15.704273
11867  0  1 27.125434 38.547253 18.559304
3866   0  1 25.697798 37.119127 14.276723
8286   0  1  1.427617 41.401950 15.704127
8287   0  1  1.427630 41.401968 18.559452
707    0  1  2.855247 42.829636 17.131753
8306   0  1  1.427604 44.257273 15.704093
8307   0  1  1.427613 44.257293 18.559418
8686   0  1  4.282882 41.401979 15.704081
8687   0  1  4.282899 41.402001 18.559411
9086   0  1  7.138126 41.402024 15.704010
9087   0  1  7.138137 41.402057 18.559340
1107   0  1  5.710494 42.829684 17.131693
8706   0  1  4.282857 44.257312 15.704047
8707   0  1  4.282865 44.257337 18.559375
9106   0  1  7.138091 44.257376 15.703973
9107   0  1  7.138088 44.257416 18.559300
9486   0  1  9.993351 41.402089 15.703914
9487   0  1  9.993331 41.402150 18.559221
1507   0  1  8.565712 42.829762 17.131600
1907   0  1 11.420897 42.829881 17.131466
9506   0  1  9.993308 44.257469 15.703873
9507   0  1  9.993270 44.257545 18.559178
10287  0  1 15.703586 41.402524 18.558806
10286  0  1 15.703851 41.402265 15.703750
9886   0  1 12.848577 41.402173 15.703811
9887   0  1 12.848472 41.402299 18.559040
2307   0  1 14.276075 42.830046 17.131304
9906   0  1 12.848525 44.257593 15.703757
9907   0  1 12.848410 44.257743 18.559001
10306  0  1 15.703787 44.257731 15.703663
10307  0  1 15.703558 44.258003 18.558789
10687  0  1 18.558803 41.402800 18.558636
10686  0  1 18.559178 41.402365 15.703749
10707  0  1 18.558872 44.258211 18.558656
10706  0  1 18.559137 44.257837 15.703625
2707   0  1 17.131320 42.830236 17.131179
3107   0  1 19.986706 42.830370 17.131145
11086  0  1 21.414582 41.402424 15.703806
11087  0  1 21.414258 41.402970 18.558619
11486  0  1 24.270023 41.402437 15.703875
11487  0  1 24.269845 41.403022 18.558677
3507   0  1 22.842193 42.830427 17.131174
11106  0  1 21.414561 44.257893 15.703635
11107  0  1 21.414354 44.258315 18.558625
11506  0  1 24.270018 44.257909 15.703663
11507  0  1 24.269910 44.258344 18.558647
11886  0  1 27.125469 41.402424 15.703921
11887  0  1 27.125452 41.403013 18.558727
3907   0  1 25.697710 42.830434 17.131215
11906  0  1 27.125477 44.257903 15.703690
11907  0  1 27.125474 44.258335 18.558680
727    0  1  2.855224 45.684968 17.131720
747    0  1  2.855202 48.540302 17.131693
8326   0  1  1.427590 47.112605 15.704063
8327   0  1  1.427595 47.112624 18.559389
1127   0  1  5.710459 45.685030 17.131660
1147   0  1  5.710432 48.540369 17.131639
8726   0  1  4.282832 47.112650 15.704018
8727   0  1  4.282832 47.112676 18.559347
9126   0  1  7.138062 47.112725 15.703948
9127   0  1  7.138048 47.112767 18.559276
1527   0  1  8.565669 45.685129 17.131568
1547   0  1  8.565650 48.540470 17.131561
1927   0  1 11.420859 45.685273 17.131441
1947   0  1 11.420872 48.540597 17.131465
9526   0  1  9.993283 47.112831 15.703855
9527   0  1  9.993239 47.112904 18.559173
2327   0  1 14.276064 45.685452 17.131298
2347   0  1 14.276134 48.540725 17.131373
9926   0  1 12.848519 47.112959 15.703754
9927   0  1 12.848428 47.113080 18.559041
10326  0  1 15.703814 47.113076 15.703675
10327  0  1 15.703675 47.113253 18.558915
10727  0  1 18.559041 47.113363 18.558844
10726  0  1 18.559182 47.113155 15.703639
2727   0  1 17.131362 45.685607 17.131196
2747   0  1 17.131471 48.540818 17.131313
3127   0  1 19.986772 45.685699 17.131159
3147   0  1 19.986875 48.540867 17.131294
3527   0  1 22.842245 45.685737 17.131165
3547   0  1 22.842314 48.540885 17.131301
11126  0  1 21.414601 47.113195 15.703637
11127  0  1 21.414497 47.113409 18.558832
11526  0  1 24.270042 47.113208 15.703651
11527  0  1 24.269988 47.113416 18.558850
3927   0  1 25.697736 45.685741 17.131188
3947   0  1 25.697761 48.540884 17.131319
11926  0  1 27.125483 47.113203 15.703670
11927  0  1 27.125482 47.113406 18.558875
767    0  1  2.855186 51.395630 17.131677
8346   0  1  1.427576 49.967937 15.704039
8347   0  1  1.427577 49.967955 18.559366
8366   0  1  1.427564 52.823265 15.704024
8367   0  1  1.427563 52.823279 18.559351
1167   0  1  5.710419 51.395689 17.131633
8746   0  1  4.282813 49.967982 15.703999
8747   0  1  4.282808 49.968007 18.559329
8766   0  1  4.282804 52.823301 15.703991
8767   0  1  4.282795 52.823320 18.559322
9146   0  1  7.138048 49.968055 15.703940
9147   0  1  7.138030 49.968092 18.559272
9166   0  1  7.138051 52.823357 15.703946
9167   0  1  7.138034 52.823385 18.559280
1567   0  1  8.565658 51.395770 17.131575
1967   0  1 11.420919 51.395859 17.131514
9546   0  1  9.993290 49.968148 15.703868
9547   0  1  9.993252 49.968204 18.559197
9566   0  1  9.993319 52.823422 15.703898
9567   0  1  9.993291 52.823459 18.559233
2367   0  1 14.276221 51.395934 17.131463
10367  0  1 15.703917 52.823567 18.559163
10366  0  1 15.703954 52.823524 15.703832
9946   0  1 12.848562 49.968244 15.703799
9947   0  1 12.848502 49.968322 18.559118
9966   0  1 12.848618 52.823481 15.703857
9967   0  1 12.848583 52.823525 18.559190
10346  0  1 15.703884 49.968320 15.703750
10347  0  1 15.703811 49.968413 18.559055
10767  0  1 18.559288 52.823585 18.559155
10766  0  1 18.559321 52.823548 15.703825
10747  0  1 18.559187 49.968462 18.559026
10746  0  1 18.559255 49.968367 15.703729
2767   0  1 17.131573 51.395981 17.131436
3167   0  1 19.986962 51.396003 17.131431
3567   0  1 22.842369 51.396008 17.131442
11146  0  1 21.414657 49.968390 15.703730
11147  0  1 21.414608 49.968476 18.559028
11166  0  1 21.414705 52.823559 15.703831
11167  0  1 21.414681 52.823587 18.559164
11546  0  1 24.270071 49.968396 15.703742
11547  0  1 24.270045 49.968473 18.559045
11566  0  1 24.270095 52.823562 15.703844
11567  0  1 24.270081 52.823582 18.559181
3967   0  1 25.697779 51.396005 17.131458
11946  0  1 27.125485 49.968393 15.703758
11947  0  1 27.125482 49.968465 18.559065
11966  0  1 27.125484 52.823560 15.703858
11967  0  1 27.125480 52.823577 18.559197
787    0  1  2.855176 54.250945 17.131668
8386   0  1  1.427554 55.678582 15.704017
8387   0  1  1.427552 55.678591 18.559344
1187   0  1  5.710420 54.250985 17.131635
8786   0  1  4.282801 55.678603 15.703990
8787   0  1  4.282793 55.678615 18.559321
9186   0  1  7.138063 55.678635 15.703958
9187   0  1  7.138049 55.678651 18.559292
1587   0  1  8.565681 54.251038 17.131597
1987   0  1 11.420971 54.251088 17.131561
9586   0  1  9.993350 55.678671 15.703927
9587   0  1  9.993331 55.678690 18.559264
10387  0  1 15.703986 55.678739 18.559232
10386  0  1 15.704006 55.678723 15.703894
2387   0  1 14.276294 54.251127 17.131536
9986   0  1 12.848665 55.678702 15.703905
9987   0  1 12.848644 55.678721 18.559242
10787  0  1 18.559349 55.678744 18.559235
10786  0  1 18.559367 55.678734 15.703896
2787   0  1 17.131648 54.251148 17.131527
3187   0  1 19.987022 54.251156 17.131532
3587   0  1 22.842406 54.251157 17.131545
11186  0  1 21.414738 55.678739 15.703907
11187  0  1 21.414724 55.678743 18.559247
11586  0  1 24.270112 55.678741 15.703921
11587  0  1 24.270102 55.678739 18.559263
3987   0  1 25.697791 54.251155 17.131560
11986  0  1 27.125484 55.678741 15.703935
11987  0  1 27.125479 55.678738 18.559279
228    0  1  0.000006 31.408395 19.987202
229    0  1  0.000025 31.408397 22.842515
628    0  1  2.855315 31.408394 19.987177
629    0  1  2.855350 31.408393 22.842497
8208   0  1  1.427672 29.980741 21.414848
1028   0  1  5.710605 31.408392 19.987140
1029   0  1  5.710664 31.408388 22.842474
8608   0  1  4.282980 29.980733 21.414822
9008   0  1  7.138265 29.980721 21.414782
1428   0  1  8.565860 31.408388 19.987079
1429   0  1  8.565956 31.408381 22.842440
1828   0  1 11.421058 31.408384 19.986969
1829   0  1 11.421201 31.408373 22.842377
9408   0  1  9.993505 29.980704 21.414712
2228   0  1 14.276181 31.408376 19.986782
2229   0  1 14.276341 31.408363 22.842232
9808   0  1 12.848662 29.980680 21.414573
10208  0  1 15.703681 29.980642 21.414296
10608  0  1 18.558673 29.980572 21.413934
2628   0  1 17.131328 31.408355 19.986586
2629   0  1 17.131259 31.408355 22.841873
3028   0  1 19.987005 31.408275 19.986952
3029   0  1 19.986014 31.408337 22.841234
3428   0  1 22.842627 31.408222 19.987543
3429   0  1 22.842961 31.408098 22.842910
11008  0  1 21.414720 29.980415 21.414706
11408  0  1 24.270204 29.980292 21.415489
4228   0  1 28.552799 31.408394 19.988092
4229   0  1 28.552613 31.408025 22.844663
3828   0  1 25.697751 31.408377 19.987828
3829   0  1 25.698098 31.408071 22.843912
11808  0  1 27.124808 29.980592 21.415437
248    0  1  0.000008 34.263695 19.987193
249    0  1  0.000026 34.263703 22.842507
648    0  1  2.855317 34.263701 19.987170
649    0  1  2.855351 34.263707 22.842491
8228   0  1  1.427677 32.836048 21.414848
8248   0  1  1.427675 35.691355 21.414834
1048   0  1  5.710607 34.263709 19.987135
1049   0  1  5.710665 34.263715 22.842469
8628   0  1  4.282989 32.836050 21.414825
8648   0  1  4.282982 35.691366 21.414810
9028   0  1  7.138279 32.836053 21.414790
9048   0  1  7.138268 35.691384 21.414771
1448   0  1  8.565864 34.263722 19.987074
1449   0  1  8.565957 34.263727 22.842433
1848   0  1 11.421066 34.263740 19.986965
1849   0  1 11.421204 34.263748 22.842365
9428   0  1  9.993530 32.836058 21.414728
9448   0  1  9.993513 35.691413 21.414698
2248   0  1 14.276196 34.263766 19.986781
2249   0  1 14.276350 34.263783 22.842214
9828   0  1 12.848704 32.836066 21.414602
9848   0  1 12.848679 35.691460 21.414557
10228  0  1 15.703755 32.836080 21.414352
10248  0  1 15.703723 35.691537 21.414287
10648  0  1 18.558740 35.691605 21.413936
10628  0  1 18.558790 32.836082 21.414024
2648   0  1 17.131342 34.263785 19.986582
2649   0  1 17.131290 34.263846 22.841859
3048   0  1 19.986960 34.263705 19.986885
3049   0  1 19.986117 34.263856 22.841277
3448   0  1 22.842597 34.263590 19.987469
3449   0  1 22.843435 34.262340 22.843324
11028  0  1 21.414827 32.835916 21.414751
11048  0  1 21.414692 35.691198 21.414582
11428  0  1 24.270527 32.835725 21.415665
11448  0  1 24.269662 35.691840 21.414832
3848   0  1 25.697786 34.263822 19.987887
3849   0  1 25.697376 34.263847 22.843526
11828  0  1 27.125430 32.836073 21.416259
11848  0  1 27.125356 35.691870 21.415195
4248   0  1 28.553060 34.263789 19.988033
268    0  1  0.000006 37.118999 19.987172
269    0  1  0.000024 37.119011 22.842488
288    0  1  0.000001 39.974309 19.987143
289    0  1  0.000017 39.974323 22.842462
668    0  1  2.855309 37.119011 19.987149
669    0  1  2.855341 37.119022 22.842471
688    0  1  2.855291 39.974329 19.987118
689    0  1  2.855320 39.974342 22.842445
8268   0  1  1.427666 38.546666 21.414809
1068   0  1  5.710591 37.119032 19.987109
1069   0  1  5.710645 37.119044 22.842444
1088   0  1  5.710559 39.974365 19.987070
1089   0  1  5.710604 39.974380 22.842409
8668   0  1  4.282962 38.546688 21.414781
9068   0  1  7.138232 38.546726 21.414731
1468   0  1  8.565839 37.119064 19.987039
1469   0  1  8.565921 37.119081 22.842394
1488   0  1  8.565789 39.974427 19.986986
1489   0  1  8.565850 39.974450 22.842342
1868   0  1 11.421030 37.119117 19.986915
1869   0  1 11.421142 37.119146 22.842295
1888   0  1 11.420954 39.974534 19.986839
1889   0  1 11.421020 39.974584 22.842208
9468   0  1  9.993454 38.546792 21.414637
2268   0  1 14.276144 37.119199 19.986709
2269   0  1 14.276244 37.119270 22.842085
2288   0  1 14.276029 39.974720 19.986591
2289   0  1 14.276033 39.974860 22.841932
10268  0  1 15.703570 38.547137 21.414115
9868   0  1 12.848586 38.546911 21.414457
10668  0  1 18.558397 38.547579 21.413549
2668   0  1 17.131252 37.119296 19.986468
2669   0  1 17.131111 37.119528 22.841619
2688   0  1 17.131038 39.975034 19.986237
2689   0  1 17.130746 39.975468 22.841354
3068   0  1 19.986737 37.119258 19.986629
3069   0  1 19.985615 37.120148 22.840658
3088   0  1 19.986209 39.975461 19.985999
3089   0  1 19.985141 39.976683 22.840329
3468   0  1 22.842001 37.119578 19.986791
3469   0  1 22.840548 37.121443 22.840190
3488   0  1 22.841798 39.975673 19.986027
3489   0  1 22.841000 39.977140 22.840173
11068  0  1 21.413487 38.548291 21.413214
11468  0  1 24.269346 38.548544 21.413344
3868   0  1 25.697592 37.119636 19.987060
3869   0  1 25.696967 37.121711 22.840526
3888   0  1 25.697547 39.975709 19.986125
3889   0  1 25.697303 39.977152 22.840331
11868  0  1 27.125363 38.548548 21.413475
8288   0  1  1.427650 41.401984 21.414779
309    0  1  0.000008 42.829641 22.842435
708    0  1  2.855265 42.829655 19.987083
709    0  1  2.855289 42.829667 22.842416
8308   0  1  1.427629 44.257308 21.414749
8688   0  1  4.282928 41.402018 21.414747
9088   0  1  7.138175 41.402081 21.414685
1108   0  1  5.710515 42.829709 19.987030
1109   0  1  5.710548 42.829723 22.842376
8708   0  1  4.282886 44.257354 21.414715
9108   0  1  7.138108 44.257442 21.414649
9488   0  1  9.993363 41.402196 21.414572
1508   0  1  8.565721 42.829806 19.986936
1509   0  1  8.565760 42.829829 22.842300
1908   0  1 11.420862 42.829972 19.986777
1909   0  1 11.420886 42.830023 22.842160
9508   0  1  9.993273 44.257594 21.414536
10288  0  1 15.703376 41.402815 21.413984
9888   0  1 12.848447 41.402410 21.414361
2308   0  1 14.275921 42.830250 19.986522
2309   0  1 14.275880 42.830375 22.841911
9908   0  1 12.848361 44.257848 21.414351
10308  0  1 15.703403 44.258212 21.414088
10688  0  1 18.558214 41.403485 21.413425
10708  0  1 18.558599 44.258546 21.413833
2708   0  1 17.130966 42.830653 19.986190
2709   0  1 17.130765 42.830931 22.841525
3108   0  1 19.986326 42.830935 19.986020
3109   0  1 19.985923 42.831411 22.841148
11088  0  1 21.413705 41.403861 21.413227
11488  0  1 24.269561 41.403949 21.413271
3508   0  1 22.841940 42.831043 19.986011
3509   0  1 22.841661 42.831509 22.841113
11108  0  1 21.414126 44.258676 21.413759
11508  0  1 24.269798 44.258681 21.413795
11888  0  1 27.125454 41.403920 21.413352
3908   0  1 25.697626 42.831053 19.986057
3909   0  1 25.697544 42.831459 22.841207
11908  0  1 27.125477 44.258648 21.413851
728    0  1  2.855235 45.684987 19.987052
729    0  1  2.855254 45.684998 22.842392
748    0  1  2.855207 48.540320 19.987028
749    0  1  2.855219 48.540329 22.842373
8328   0  1  1.427606 47.112638 21.414723
1128   0  1  5.710467 45.685057 19.986999
1129   0  1  5.710488 45.685070 22.842351
1148   0  1  5.710430 48.540394 19.986981
1149   0  1  5.710440 48.540407 22.842337
8728   0  1  4.282844 47.112692 21.414690
9128   0  1  7.138054 47.112792 21.414631
1528   0  1  8.565662 45.685176 19.986909
1529   0  1  8.565678 45.685198 22.842280
1548   0  1  8.565633 48.540511 19.986907
1549   0  1  8.565636 48.540532 22.842279
1928   0  1 11.420812 45.685361 19.986770
1929   0  1 11.420809 45.685407 22.842163
1948   0  1 11.420830 48.540664 19.986810
1949   0  1 11.420819 48.540698 22.842199
9528   0  1  9.993227 47.112948 21.414537
2328   0  1 14.275945 45.685610 19.986586
2329   0  1 14.275900 45.685696 22.841996
2348   0  1 14.276063 48.540819 19.986706
2349   0  1 14.276035 48.540864 22.842110
9928   0  1 12.848383 47.113157 21.414410
10328  0  1 15.703591 47.113362 21.414273
10728  0  1 18.558933 47.113487 21.414177
2728   0  1 17.131171 45.685847 19.986410
2729   0  1 17.131074 45.685971 22.841815
2748   0  1 17.131382 48.540928 19.986627
2749   0  1 17.131344 48.540969 22.842036
3128   0  1 19.986591 45.685973 19.986331
3129   0  1 19.986462 45.686102 22.841701
3148   0  1 19.986798 48.540971 19.986601
3149   0  1 19.986758 48.540988 22.842006
3528   0  1 22.842130 45.686007 19.986335
3529   0  1 22.842042 45.686091 22.841709
3548   0  1 22.842265 48.540972 19.986614
3549   0  1 22.842238 48.540957 22.842023
11128  0  1 21.414412 47.113512 21.414161
11528  0  1 24.269946 47.113492 21.414191
3928   0  1 25.697699 45.685998 19.986369
3929   0  1 25.697669 45.686042 22.841766
3948   0  1 25.697744 48.540958 19.986640
3949   0  1 25.697732 48.540923 22.842058
11928  0  1 27.125479 47.113468 21.414228
768    0  1  2.855186 51.395645 19.987013
769    0  1  2.855194 51.395653 22.842361
8348   0  1  1.427585 49.967967 21.414704
8368   0  1  1.427567 52.823288 21.414691
1168   0  1  5.710413 51.395710 19.986975
1169   0  1  5.710416 51.395722 22.842332
8748   0  1  4.282812 49.968021 21.414675
8768   0  1  4.282796 52.823332 21.414668
9148   0  1  7.138027 49.968114 21.414628
9168   0  1  7.138029 52.823401 21.414635
1568   0  1  8.565641 51.395802 19.986923
1569   0  1  8.565639 51.395818 22.842292
1968   0  1 11.420890 51.395901 19.986864
1969   0  1 11.420882 51.395922 22.842245
9548   0  1  9.993237 49.968239 21.414563
9568   0  1  9.993280 52.823480 21.414595
2368   0  1 14.276184 51.395981 19.986813
2369   0  1 14.276171 51.395999 22.842202
10368  0  1 15.703899 52.823583 21.414532
9948   0  1 12.848473 49.968367 21.414490
9968   0  1 12.848567 52.823547 21.414558
10348  0  1 15.703771 49.968461 21.414428
10768  0  1 18.559272 52.823589 21.414525
10748  0  1 18.559146 49.968497 21.414396
2768   0  1 17.131534 51.396024 19.986783
2769   0  1 17.131520 51.396031 22.842176
3168   0  1 19.986929 51.396033 19.986779
3169   0  1 19.986917 51.396022 22.842172
3568   0  1 22.842347 51.396025 19.986794
3569   0  1 22.842338 51.395996 22.842188
11148  0  1 21.414577 49.968491 21.414400
11168  0  1 21.414668 52.823578 21.414535
11548  0  1 24.270028 49.968470 21.414424
11568  0  1 24.270072 52.823563 21.414554
3968   0  1 25.697769 51.396014 19.986815
3969   0  1 25.697763 51.395975 22.842210
11948  0  1 27.125478 49.968455 21.414448
11968  0  1 27.125476 52.823554 21.414572
788    0  1  2.855174 54.250955 19.987005
789    0  1  2.855179 54.250961 22.842354
8388   0  1  1.427555 55.678596 21.414685
1188   0  1  5.710413 54.251000 19.986977
1189   0  1  5.710414 54.251008 22.842334
8788   0  1  4.282792 55.678621 21.414667
9188   0  1  7.138045 55.678660 21.414644
1588   0  1  8.565668 54.251057 19.986944
1589   0  1  8.565666 54.251067 22.842308
1988   0  1 11.420953 54.251111 19.986912
1989   0  1 11.420949 54.251120 22.842283
9588   0  1  9.993324 55.678700 21.414621
10388  0  1 15.703977 55.678741 21.414594
2388   0  1 14.276274 54.251147 19.986888
2389   0  1 14.276269 54.251151 22.842264
9988   0  1 12.848635 55.678729 21.414603
10788  0  1 18.559341 55.678739 21.414597
2788   0  1 17.131629 54.251161 19.986880
2789   0  1 17.131625 54.251157 22.842256
3188   0  1 19.987006 54.251160 19.986885
3189   0  1 19.987002 54.251145 22.842261
3588   0  1 22.842394 54.251152 19.986901
3589   0  1 22.842390 54.251128 22.842276
11188  0  1 21.414717 55.678730 21.414609
11588  0  1 24.270096 55.678721 21.414626
3988   0  1 25.697783 54.251145 19.986918
3989   0  1 25.697779 54.251116 22.842293
11988  0  1 27.125473 55.678718 21.414641
230    0  1  0.000042 31.408397 25.697814
630    0  1  2.855381 31.408390 25.697797
8209   0  1  1.427697 29.980737 24.270156
8210   0  1  1.427718 29.980733 27.125450
631    0  1  2.855405 31.408386 28.553082
231    0  1  0.000056 31.408395 28.553103
1030   0  1  5.710718 31.408382 25.697780
8609   0  1  4.283024 29.980725 24.270137
8610   0  1  4.283060 29.980718 27.125430
9009   0  1  7.138340 29.980708 24.270113
9010   0  1  7.138402 29.980695 27.125406
1031   0  1  5.710758 31.408375 28.553058
1430   0  1  8.566051 31.408370 25.697760
1830   0  1 11.421374 31.408355 25.697735
9409   0  1  9.993633 29.980683 24.270076
9410   0  1  9.993745 29.980658 27.125377
1831   0  1 11.421506 31.408336 28.552991
1431   0  1  8.566121 31.408360 28.553028
2230   0  1 14.276663 31.408332 25.697694
9809   0  1 12.848870 29.980645 24.270005
9810   0  1 12.849087 29.980598 27.125339
10209  0  1 15.703959 29.980591 24.269824
10210  0  1 15.704411 29.980492 27.125280
2231   0  1 14.276938 31.408298 28.552945
10610  0  1 18.559608 29.980318 27.125135
10609  0  1 18.558631 29.980507 24.269264
2630   0  1 17.131819 31.408306 25.697575
3030   0  1 19.986370 31.408346 25.696965
3031   0  1 19.988440 31.408033 28.553094
2631   0  1 17.132492 31.408228 28.552917
3430   0  1 22.838997 31.408779 25.693919
11009  0  1 21.412587 29.980358 24.267778
11010  0  1 21.413789 29.980231 27.124153
11409  0  1 24.271371 29.980015 24.271588
11410  0  1 24.260069 29.981347 27.113037
3830   0  1 25.711752 31.394903 25.711929
11809  0  1 27.122171 29.981060 24.270903
11810  0  1 27.155111 29.928965 27.159072
3831   0  1 25.690528 31.401149 28.541273
250    0  1  0.000043 34.263709 25.697808
650    0  1  2.855382 34.263710 25.697793
8229   0  1  1.427702 32.836051 24.270156
8230   0  1  1.427723 32.836051 27.125449
8249   0  1  1.427699 35.691363 24.270145
8250   0  1  1.427721 35.691367 27.125444
251    0  1  0.000058 34.263710 28.553100
651    0  1  2.855406 34.263709 28.553082
1050   0  1  5.710719 34.263717 25.697777
8629   0  1  4.283033 32.836050 24.270140
8630   0  1  4.283069 32.836049 27.125432
8649   0  1  4.283025 35.691374 24.270128
8650   0  1  4.283062 35.691375 27.125428
9029   0  1  7.138355 32.836052 24.270120
9030   0  1  7.138419 32.836048 27.125413
9049   0  1  7.138340 35.691393 24.270103
9050   0  1  7.138402 35.691394 27.125408
1051   0  1  5.710759 34.263713 28.553061
1450   0  1  8.566051 34.263731 25.697755
1850   0  1 11.421370 34.263757 25.697722
9429   0  1  9.993660 32.836055 24.270092
9430   0  1  9.993775 32.836051 27.125390
9449   0  1  9.993632 35.691426 24.270059
9450   0  1  9.993740 35.691432 27.125377
1451   0  1  8.566121 34.263726 28.553035
1851   0  1 11.421501 34.263755 28.552999
2250   0  1 14.276652 34.263803 25.697655
9829   0  1 12.848920 32.836062 24.270036
9830   0  1 12.849141 32.836059 27.125366
9849   0  1 12.848867 35.691486 24.269967
9850   0  1 12.849063 35.691508 27.125319
10229  0  1 15.704056 32.836076 24.269891
10230  0  1 15.704523 32.836076 27.125340
10249  0  1 15.703962 35.691599 24.269746
10250  0  1 15.704313 35.691686 27.125170
2251   0  1 14.276910 34.263824 28.552942
10650  0  1 18.559210 35.692221 27.124656
10649  0  1 18.558703 35.691843 24.269141
10630  0  1 18.559900 32.836067 27.125312
10629  0  1 18.558841 32.836121 24.269427
2650   0  1 17.131806 34.263875 25.697476
3050   0  1 19.986513 34.263976 25.696819
2651   0  1 17.132350 34.264007 28.552816
3051   0  1 19.987594 34.264659 28.552329
3450   0  1 22.839375 34.264880 25.693531
11029  0  1 21.413149 32.836118 24.268248
11030  0  1 21.415035 32.835736 27.125047
11049  0  1 21.412621 35.692668 24.267410
11050  0  1 21.412210 35.694589 27.122400
11429  0  1 24.274417 32.831376 24.274348
11430  0  1 24.266023 32.835980 27.118728
11449  0  1 24.267230 35.695260 24.266791
11450  0  1 24.256583 35.707104 27.111866
3451   0  1 22.839992 34.268528 28.549268
3850   0  1 25.693296 34.270685 25.692855
11829  0  1 27.125015 32.835270 24.273779
11830  0  1 27.117137 32.851864 27.120171
11849  0  1 27.124874 35.695480 24.267453
11850  0  1 27.125226 35.703977 27.117320
3851   0  1 25.666967 34.299530 28.522904
270    0  1  0.000041 37.119020 25.697795
290    0  1  0.000035 39.974332 25.697778
670    0  1  2.855371 37.119029 25.697782
690    0  1  2.855348 39.974348 25.697765
8269   0  1  1.427689 38.546677 24.270126
8270   0  1  1.427711 38.546681 27.125435
271    0  1  0.000056 37.119022 28.553095
291    0  1  0.000051 39.974334 28.553089
671    0  1  2.855396 37.119027 28.553081
691    0  1  2.855372 39.974345 28.553080
1070   0  1  5.710695 37.119050 25.697762
1090   0  1  5.710649 39.974384 25.697742
8669   0  1  4.283001 38.546698 24.270106
8670   0  1  4.283036 38.546699 27.125420
9069   0  1  7.138295 38.546738 24.270070
9070   0  1  7.138352 38.546737 27.125397
1071   0  1  5.710735 37.119045 28.553065
1091   0  1  5.710687 39.974376 28.553067
1470   0  1  8.566006 37.119090 25.697728
1490   0  1  8.565920 39.974454 25.697698
1870   0  1 11.421282 37.119167 25.697662
1890   0  1 11.421121 39.974595 25.697608
9469   0  1  9.993549 38.546813 24.270001
9470   0  1  9.993642 38.546810 27.125356
1471   0  1  8.566073 37.119081 28.553041
1871   0  1 11.421398 37.119153 28.553004
1891   0  1 11.421212 39.974569 28.553008
1491   0  1  8.565979 39.974438 28.553046
2270   0  1 14.276458 37.119334 25.697504
2290   0  1 14.276152 39.974903 25.697413
10270  0  1 15.703855 38.547343 27.125059
10269  0  1 15.703641 38.547317 24.269492
9869   0  1 12.848710 38.546965 24.269851
9870   0  1 12.848858 38.546966 27.125269
2271   0  1 14.276664 37.119317 28.552929
2291   0  1 14.276285 39.974866 28.552930
10670  0  1 18.558214 38.548391 27.124516
10669  0  1 18.557999 38.548260 24.268583
2670   0  1 17.131324 37.119775 25.697057
2690   0  1 17.130800 39.975623 25.696974
3070   0  1 19.985116 37.121266 25.695609
3090   0  1 19.984889 39.977124 25.696109
2671   0  1 17.131678 37.119766 28.552738
2691   0  1 17.130965 39.975589 28.552759
3071   0  1 19.985672 37.121295 28.552168
3091   0  1 19.985049 39.977102 28.552429
3470   0  1 22.835972 37.126552 25.691121
3490   0  1 22.840041 39.978088 25.695238
11069  0  1 21.411369 38.550681 24.266529
11070  0  1 21.411307 38.551068 27.123259
11469  0  1 24.268267 38.551058 24.266681
11470  0  1 24.266767 38.552230 27.121975
3471   0  1 22.836757 37.126381 28.550603
3491   0  1 22.840225 39.977844 28.552084
3870   0  1 25.695838 37.126172 25.692462
3890   0  1 25.697026 39.977754 25.695625
11869  0  1 27.125410 38.550881 24.267045
11870  0  1 27.125298 38.551265 27.122992
3871   0  1 25.693420 37.126874 28.548913
3891   0  1 25.696764 39.977138 28.552047
310    0  1  0.000024 42.829648 25.697760
8289   0  1  1.427672 41.401994 24.270103
8290   0  1  1.427693 41.401997 27.125424
710    0  1  2.855314 42.829671 25.697749
8309   0  1  1.427648 44.257317 24.270082
8310   0  1  1.427667 44.257318 27.125414
311    0  1  0.000041 42.829650 28.553084
711    0  1  2.855337 42.829667 28.553079
8689   0  1  4.282962 41.402026 24.270081
8690   0  1  4.282994 41.402025 27.125411
9089   0  1  7.138224 41.402091 24.270037
9090   0  1  7.138272 41.402085 27.125387
1110   0  1  5.710584 42.829725 25.697724
8709   0  1  4.282912 44.257361 24.270059
8710   0  1  4.282939 44.257358 27.125403
9109   0  1  7.138142 44.257450 24.270013
9110   0  1  7.138178 44.257443 27.125379
1111   0  1  5.710617 42.829714 28.553068
9489   0  1  9.993427 41.402214 24.269952
9490   0  1  9.993496 41.402204 27.125341
1510   0  1  8.565809 42.829830 25.697676
1910   0  1 11.420943 42.830031 25.697584
9509   0  1  9.993307 44.257612 24.269929
9510   0  1  9.993350 44.257604 27.125335
1511   0  1  8.565855 42.829812 28.553049
1911   0  1 11.421004 42.830007 28.553013
10290  0  1 15.703451 41.402971 27.125061
10289  0  1 15.703360 41.402960 24.269450
9889   0  1 12.848507 41.402460 24.269783
9890   0  1 12.848597 41.402451 27.125248
2310   0  1 14.275922 42.830409 25.697414
9909   0  1 12.848375 44.257891 24.269786
9910   0  1 12.848419 44.257888 27.125256
10309  0  1 15.703365 44.258304 24.269570
10310  0  1 15.703398 44.258311 27.125135
2311   0  1 14.275992 42.830385 28.552947
10690  0  1 18.558009 41.403907 27.124731
10689  0  1 18.557966 41.403850 24.268873
10710  0  1 18.558521 44.258669 27.124998
10709  0  1 18.558497 44.258673 24.269334
2710   0  1 17.130751 42.831018 25.697139
3110   0  1 19.985838 42.831511 25.696839
2711   0  1 17.130819 42.830997 28.552839
3111   0  1 19.985914 42.831455 28.552714
11089  0  1 21.413090 41.404541 24.268302
11090  0  1 21.413081 41.404542 27.124375
11489  0  1 24.269250 41.404520 24.268389
11490  0  1 24.269050 41.404352 27.124266
3510   0  1 22.841485 42.831544 25.696705
11109  0  1 21.413972 44.258787 24.269204
11110  0  1 21.413993 44.258708 27.124909
11509  0  1 24.269715 44.258706 24.269261
11510  0  1 24.269694 44.258518 27.124924
3511   0  1 22.841559 42.831366 28.552644
11889  0  1 27.125464 41.404379 24.268571
11890  0  1 27.125395 41.404018 27.124524
3910   0  1 25.697474 42.831350 25.696846
11909  0  1 27.125469 44.258625 24.269349
11910  0  1 27.125442 44.258383 27.125013
3911   0  1 25.697445 42.831015 28.552686
330    0  1  0.000010 45.684971 25.697745
730    0  1  2.855274 45.685000 25.697734
750    0  1  2.855235 48.540331 25.697723
8329   0  1  1.427622 47.112644 24.270063
8330   0  1  1.427638 47.112645 27.125406
331    0  1  0.000026 45.684971 28.553080
351    0  1  0.000009 48.540297 28.553076
731    0  1  2.855294 45.684996 28.553076
751    0  1  2.855252 48.540327 28.553073
1130   0  1  5.710514 45.685071 25.697710
1150   0  1  5.710457 48.540409 25.697701
8729   0  1  4.282862 47.112698 24.270042
8730   0  1  4.282883 47.112695 27.125395
9129   0  1  7.138072 47.112801 24.270000
9130   0  1  7.138096 47.112796 27.125374
1131   0  1  5.710540 45.685061 28.553068
1151   0  1  5.710477 48.540402 28.553066
1530   0  1  8.565708 45.685200 25.697665
1550   0  1  8.565652 48.540537 25.697665
1930   0  1 11.420834 45.685416 25.697589
1950   0  1 11.420829 48.540707 25.697613
9529   0  1  9.993239 47.112966 24.269932
9530   0  1  9.993264 47.112962 27.125338
1531   0  1  8.565740 45.685187 28.553051
1551   0  1  8.565673 48.540528 28.553053
1951   0  1 11.420851 48.540698 28.553032
1931   0  1 11.420870 45.685401 28.553022
2330   0  1 14.275910 45.685720 25.697477
2350   0  1 14.276041 48.540874 25.697553
9929   0  1 12.848379 47.113188 24.269836
9930   0  1 12.848401 47.113188 27.125285
10329  0  1 15.703570 47.113402 24.269727
10330  0  1 15.703589 47.113399 27.125223
2331   0  1 14.275947 45.685705 28.552976
2351   0  1 14.276064 48.540862 28.553006
10730  0  1 18.558924 47.113483 27.125171
10729  0  1 18.558902 47.113510 24.269643
2730   0  1 17.131069 45.685996 25.697350
2750   0  1 17.131349 48.540964 25.697501
3130   0  1 19.986447 45.686089 25.697260
3150   0  1 19.986763 48.540953 25.697476
2731   0  1 17.131108 45.685973 28.552922
3131   0  1 19.986494 45.686034 28.552878
3151   0  1 19.986792 48.540913 28.552965
2751   0  1 17.131376 48.540942 28.552981
3530   0  1 22.842014 45.686008 25.697251
3550   0  1 22.842237 48.540887 25.697485
11129  0  1 21.414376 47.113494 24.269620
11130  0  1 21.414397 47.113424 27.125151
11529  0  1 24.269923 47.113428 24.269656
11530  0  1 24.269928 47.113315 27.125170
3531   0  1 22.842053 45.685899 28.552865
3551   0  1 22.842260 48.540824 28.552964
3930   0  1 25.697650 45.685902 25.697313
3950   0  1 25.697727 48.540831 25.697517
11929  0  1 27.125472 47.113385 24.269702
11930  0  1 27.125463 47.113255 27.125208
3931   0  1 25.697653 45.685744 28.552891
3951   0  1 25.697733 48.540752 28.552979
770    0  1  2.855205 51.395655 25.697715
8349   0  1  1.427596 49.967972 24.270049
8350   0  1  1.427611 49.967972 27.125399
8369   0  1  1.427577 52.823292 24.270040
8370   0  1  1.427589 52.823292 27.125394
771    0  1  2.855219 51.395651 28.553071
1170   0  1  5.710427 51.395724 25.697698
8749   0  1  4.282823 49.968027 24.270031
8750   0  1  4.282839 49.968025 27.125390
8769   0  1  4.282803 52.823337 24.270025
8770   0  1  4.282814 52.823336 27.125387
9149   0  1  7.138036 49.968123 24.269998
9150   0  1  7.138051 49.968121 27.125373
9169   0  1  7.138033 52.823408 24.270002
9170   0  1  7.138043 52.823407 27.125374
1171   0  1  5.710441 51.395719 28.553065
1570   0  1  8.565647 51.395822 25.697672
1970   0  1 11.420888 51.395926 25.697642
9549   0  1  9.993241 49.968253 24.269951
9550   0  1  9.993255 49.968251 27.125348
9569   0  1  9.993281 52.823489 24.269973
9570   0  1  9.993291 52.823487 27.125359
1571   0  1  8.565662 51.395817 28.553055
1971   0  1 11.420903 51.395919 28.553042
10350  0  1 15.703781 49.968461 27.125288
10349  0  1 15.703765 49.968471 24.269848
2370   0  1 14.276178 51.395999 25.697613
10370  0  1 15.703912 52.823571 27.125330
10369  0  1 15.703900 52.823581 24.269926
9949   0  1 12.848470 49.968384 24.269896
9950   0  1 12.848483 49.968382 27.125317
9969   0  1 12.848567 52.823553 24.269946
9970   0  1 12.848577 52.823549 27.125342
2371   0  1 14.276194 51.395989 28.553028
3170   0  1 19.986925 51.395992 25.697589
2770   0  1 17.131529 51.396018 25.697593
10749  0  1 18.559140 49.968488 24.269821
10750  0  1 18.559158 49.968462 27.125270
10769  0  1 18.559273 52.823574 24.269920
10770  0  1 18.559285 52.823554 27.125324
2771   0  1 17.131547 51.396001 28.553017
3171   0  1 19.986943 51.395965 28.553011
11570  0  1 24.270076 52.823488 27.125338
11569  0  1 24.270070 52.823524 24.269944
11550  0  1 24.270028 49.968349 27.125281
11549  0  1 24.270022 49.968413 24.269846
11170  0  1 21.414678 52.823519 27.125327
11169  0  1 21.414668 52.823549 24.269928
11150  0  1 21.414585 49.968408 27.125267
11149  0  1 21.414570 49.968455 24.269823
3570   0  1 22.842342 51.395950 25.697599
3571   0  1 22.842355 51.395914 28.553014
11970  0  1 27.125473 52.823474 27.125351
11969  0  1 27.125472 52.823512 24.269961
11950  0  1 27.125471 49.968321 27.125301
11949  0  1 27.125473 49.968390 24.269872
3970   0  1 25.697763 51.395920 25.697618
3971   0  1 25.697769 51.395878 28.553025
8390   0  1  1.427573 55.678596 27.125391
8389   0  1  1.427563 55.678597 24.270035
790    0  1  2.855188 54.250962 25.697710
791    0  1  2.855200 54.250959 28.553069
8789   0  1  4.282797 55.678623 24.270023
1190   0  1  5.710421 54.251009 25.697698
8790   0  1  4.282806 55.678622 27.125385
9190   0  1  7.138056 55.678662 27.125377
9189   0  1  7.138048 55.678663 24.270008
1191   0  1  5.710432 54.251006 28.553065
9590   0  1  9.993334 55.678700 27.125367
9589   0  1  9.993326 55.678703 24.269991
1990   0  1 11.420954 54.251120 25.697665
1590   0  1  8.565672 54.251069 25.697681
1591   0  1  8.565683 54.251065 28.553058
1991   0  1 11.420966 54.251115 28.553050
2390   0  1 14.276276 54.251147 25.697652
10389  0  1 15.703979 55.678735 24.269971
10390  0  1 15.703988 55.678726 27.125354
9989   0  1 12.848637 55.678729 24.269978
9990   0  1 12.848646 55.678724 27.125359
2391   0  1 14.276288 54.251138 28.553043
10790  0  1 18.559351 55.678712 27.125353
10789  0  1 18.559343 55.678726 24.269973
2790   0  1 17.131632 54.251144 25.697645
3190   0  1 19.987008 54.251124 25.697648
2791   0  1 17.131644 54.251132 28.553038
3191   0  1 19.987020 54.251107 28.553037
11189  0  1 21.414716 55.678710 24.269982
3590   0  1 22.842393 54.251100 25.697658
11190  0  1 21.414723 55.678692 27.125359
11589  0  1 24.270094 55.678697 24.269997
11590  0  1 24.270097 55.678677 27.125369
3591   0  1 22.842401 54.251079 28.553042
11990  0  1 27.125471 55.678671 27.125380
3990   0  1 25.697779 54.251084 25.697672
11989  0  1 27.125470 55.678692 24.270011
3991   0  1 25.697783 54.251062 28.553050
232    0  1  0.000068 31.408392 31.408386
632    0  1  2.855420 31.408383 31.408359
8211   0  1  1.427733 29.980730 29.980734
8212   0  1  1.427744 29.980729 32.836018
1032   0  1  5.710781 31.408370 31.408324
8611   0  1  4.283084 29.980714 29.980708
8612   0  1  4.283097 29.980716 32.835984
9011   0  1  7.138442 29.980689 29.980673
9012   0  1  7.138461 29.980694 32.835938
1432   0  1  8.566160 31.408351 31.408272
1832   0  1 11.421574 31.408320 31.408187
9411   0  1  9.993817 29.980647 29.980623
9412   0  1  9.993845 29.980661 32.835866
2232   0  1 14.277069 31.408263 31.408027
9811   0  1 12.849224 29.980570 29.980543
9812   0  1 12.849270 29.980606 32.835743
10211  0  1 15.704705 29.980405 29.980401
10212  0  1 15.704784 29.980512 32.835511
2632   0  1 17.132778 31.408142 31.407672
10611  0  1 18.560382 29.979975 29.980111
10612  0  1 18.560506 29.980354 32.835025
3032   0  1 19.989157 31.407813 31.406682
3432   0  1 22.848020 31.406362 31.402962
11011  0  1 21.416803 29.978504 29.979523
11012  0  1 21.416576 29.980026 32.834032
11411  0  1 24.279441 29.969290 29.978763
11412  0  1 24.269846 29.977286 32.835368
3431   0  1 22.845854 31.406796 28.554558
3832   0  1 25.702407 31.395914 31.398280
11811  0  1 27.168374 29.650468 29.877750
11812  0  1 27.122764 29.966413 32.825435
4211   0  2 27.655603 31.350022 29.989185
252    0  1  0.000071 34.263706 31.408387
652    0  1  2.855423 34.263701 31.408364
8231   0  1  1.427739 32.836048 29.980733
8232   0  1  1.427750 32.836042 32.836015
8251   0  1  1.427738 35.691364 29.980735
8252   0  1  1.427750 35.691354 32.836024
1052   0  1  5.710784 34.263699 31.408334
8631   0  1  4.283094 32.836043 29.980708
8632   0  1  4.283108 32.836033 32.835983
8651   0  1  4.283088 35.691367 29.980716
8652   0  1  4.283103 35.691350 32.836000
9031   0  1  7.138461 32.836038 29.980676
9032   0  1  7.138480 32.836022 32.835936
9051   0  1  7.138445 35.691380 29.980692
9052   0  1  7.138466 35.691350 32.835969
1452   0  1  8.566161 34.263701 31.408294
1852   0  1 11.421571 34.263709 31.408235
9431   0  1  9.993849 32.836036 29.980631
9432   0  1  9.993878 32.836005 32.835864
9451   0  1  9.993814 35.691409 29.980661
9452   0  1  9.993845 35.691355 32.835930
2252   0  1 14.277040 34.263734 31.408147
9831   0  1 12.849285 32.836041 29.980562
9832   0  1 12.849329 32.835971 32.835741
9851   0  1 12.849197 35.691471 29.980618
9852   0  1 12.849245 35.691369 32.835884
10231  0  1 15.704833 32.836070 29.980448
10232  0  1 15.704895 32.835886 32.835508
10251  0  1 15.704572 35.691627 29.980556
10252  0  1 15.704643 35.691425 32.835863
2652   0  1 17.132609 34.263816 31.408029
10631  0  1 18.560674 32.836214 29.980235
10632  0  1 18.560703 32.835619 32.835020
10651  0  1 18.559730 35.692135 29.980450
10652  0  1 18.559803 35.691737 32.836058
3052   0  1 19.988129 34.264251 31.408028
3452   0  1 22.841011 34.267753 31.409943
11031  0  1 21.417240 32.837090 29.979743
11032  0  1 21.416898 32.834587 32.833969
11051  0  1 21.413360 35.694411 29.980229
11052  0  1 21.413181 35.693769 32.837671
11431  0  1 24.272757 32.846709 29.978267
11432  0  1 24.271291 32.831910 32.834225
11451  0  1 24.260269 35.705245 29.979911
11452  0  1 24.257924 35.705805 32.847464
3852   0  1 25.668168 34.298312 31.435206
11831  0  1 27.068646 33.024883 29.977869
11832  0  1 27.122741 32.848281 32.834353
11851  0  1 27.121966 35.706217 29.980363
11852  0  1 27.126408 35.702060 32.842059
272    0  1  0.000070 37.119017 31.408391
292    0  1  0.000065 39.974329 31.408398
672    0  1  2.855413 37.119016 31.408376
692    0  1  2.855391 39.974333 31.408391
8271   0  1  1.427728 38.546677 29.980738
8272   0  1  1.427742 38.546665 32.836039
1072   0  1  5.710761 37.119025 31.408358
1092   0  1  5.710713 39.974354 31.408384
8671   0  1  4.283062 38.546689 29.980726
8672   0  1  4.283079 38.546668 32.836027
9071   0  1  7.138394 38.546718 29.980712
9072   0  1  7.138416 38.546684 32.836016
1472   0  1  8.566114 37.119047 31.408337
1492   0  1  8.566018 39.974404 31.408381
1872   0  1 11.421466 37.119097 31.408318
1892   0  1 11.421271 39.974516 31.408387
9471   0  1  9.993709 38.546779 29.980695
9472   0  1  9.993742 38.546724 32.836014
2272   0  1 14.276778 37.119219 31.408312
2292   0  1 14.276373 39.974787 31.408419
9871   0  1 12.848969 38.546914 29.980672
9872   0  1 12.849017 38.546826 32.836038
10271  0  1 15.704032 38.547262 29.980638
10272  0  1 15.704104 38.547122 32.836149
2672   0  1 17.131869 37.119599 31.408372
2692   0  1 17.131090 39.975477 31.408511
10671  0  1 18.558475 38.548275 29.980578
10672  0  1 18.558578 38.548067 32.836522
3072   0  1 19.985971 37.121035 31.408696
3092   0  1 19.985213 39.976957 31.408724
3472   0  1 22.837189 37.125999 31.409924
3492   0  1 22.840406 39.977681 31.408946
11071  0  1 21.411664 38.550888 29.980492
11072  0  1 21.411792 38.550628 32.837549
11471  0  1 24.267317 38.551581 29.980414
11472  0  1 24.267227 38.551746 32.838729
3872   0  1 25.693748 37.126494 31.411616
3892   0  1 25.696896 39.976983 31.408992
11871  0  1 27.124864 38.550036 29.980500
11872  0  1 27.125576 38.550728 32.837851
8291   0  1  1.427711 41.401992 29.980742
8292   0  1  1.427725 41.401980 32.836057
712    0  1  2.855356 42.829655 31.408405
8311   0  1  1.427685 44.257313 29.980745
8312   0  1  1.427700 44.257301 32.836074
312    0  1  0.000056 42.829644 31.408406
8691   0  1  4.283019 41.402014 29.980736
8692   0  1  4.283037 41.401993 32.836055
9091   0  1  7.138309 41.402065 29.980729
9092   0  1  7.138332 41.402034 32.836060
1112   0  1  5.710642 42.829695 31.408406
8711   0  1  4.282962 44.257347 29.980743
8712   0  1  4.282980 44.257329 32.836078
9111   0  1  7.138208 44.257425 29.980740
9112   0  1  7.138231 44.257398 32.836092
9491   0  1  9.993551 41.402173 29.980720
9492   0  1  9.993584 41.402126 32.836081
1512   0  1  8.565889 42.829782 31.408412
1912   0  1 11.421051 42.829964 31.408428
9511   0  1  9.993391 44.257578 29.980735
9512   0  1  9.993421 44.257540 32.836120
9891   0  1 12.848675 41.402405 29.980706
9892   0  1 12.848722 41.402337 32.836135
10291  0  1 15.703551 41.402913 29.980684
10292  0  1 15.703621 41.402817 32.836261
2312   0  1 14.276054 42.830328 31.408462
9911   0  1 12.848468 44.257856 29.980725
9912   0  1 12.848511 44.257805 32.836172
10311  0  1 15.703454 44.258276 29.980708
10312  0  1 15.703510 44.258212 32.836254
10691  0  1 18.558125 41.403838 29.980649
10692  0  1 18.558225 41.403714 32.836503
2712   0  1 17.130897 42.830928 31.408521
10711  0  1 18.558586 44.258620 29.980685
10712  0  1 18.558647 44.258559 32.836341
3112   0  1 19.986002 42.831379 31.408579
11091  0  1 21.413227 41.404416 29.980604
11092  0  1 21.413317 41.404326 32.836765
11491  0  1 24.269182 41.404076 29.980578
11492  0  1 24.269246 41.404141 32.836844
3512   0  1 22.841643 42.831291 31.408595
11111  0  1 21.414065 44.258626 29.980661
11112  0  1 21.414115 44.258599 32.836384
11511  0  1 24.269746 44.258386 29.980652
11512  0  1 24.269790 44.258417 32.836362
11891  0  1 27.125324 41.403553 29.980612
11892  0  1 27.125504 41.403818 32.836671
3912   0  1 25.697505 42.830946 31.408565
11911  0  1 27.125435 44.258211 29.980671
11912  0  1 27.125498 44.258290 32.836320
332    0  1  0.000042 45.684965 31.408413
352    0  1  0.000024 48.540292 31.408419
732    0  1  2.855312 45.684985 31.408415
752    0  1  2.855268 48.540318 31.408422
8331   0  1  1.427655 47.112640 29.980747
8332   0  1  1.427670 47.112630 32.836087
1132   0  1  5.710562 45.685044 31.408420
1152   0  1  5.710496 48.540388 31.408428
8731   0  1  4.282903 47.112686 29.980747
8732   0  1  4.282920 47.112670 32.836095
9131   0  1  7.138120 47.112782 29.980746
9132   0  1  7.138141 47.112760 32.836110
1532   0  1  8.565768 45.685163 31.408429
1552   0  1  8.565695 48.540510 31.408436
1932   0  1 11.420905 45.685370 31.408445
1952   0  1 11.420877 48.540676 31.408445
9531   0  1  9.993292 47.112944 29.980741
9532   0  1  9.993319 47.112915 32.836134
2332   0  1 14.275989 45.685668 31.408466
2352   0  1 14.276093 48.540838 31.408453
9931   0  1 12.848432 47.113167 29.980733
9932   0  1 12.848466 47.113132 32.836169
10331  0  1 15.703624 47.113374 29.980721
10332  0  1 15.703662 47.113337 32.836204
2732   0  1 17.131156 45.685932 31.408485
2752   0  1 17.131406 48.540918 31.408455
10731  0  1 18.558963 47.113449 29.980706
10732  0  1 18.558999 47.113421 32.836225
3132   0  1 19.986543 45.685993 31.408490
3152   0  1 19.986821 48.540890 31.408449
3532   0  1 22.842096 45.685861 31.408479
3552   0  1 22.842284 48.540804 31.408440
11131  0  1 21.414436 47.113374 29.980693
11132  0  1 21.414465 47.113366 32.836223
11531  0  1 24.269954 47.113249 29.980691
11532  0  1 24.269980 47.113262 32.836205
3932   0  1 25.697683 45.685710 31.408466
3952   0  1 25.697751 48.540734 31.408437
11931  0  1 27.125468 47.113180 29.980704
11932  0  1 27.125496 47.113206 32.836196
372    0  1  0.000005 51.395617 31.408424
772    0  1  2.855234 51.395644 31.408426
8351   0  1  1.427626 49.967967 29.980749
8352   0  1  1.427640 49.967959 32.836097
8371   0  1  1.427602 52.823287 29.980749
8372   0  1  1.427616 52.823280 32.836103
1172   0  1  5.710457 51.395709 31.408431
8751   0  1  4.282855 49.968018 29.980749
8752   0  1  4.282871 49.968005 32.836104
8771   0  1  4.282828 52.823330 29.980749
8772   0  1  4.282843 52.823320 32.836109
9151   0  1  7.138069 49.968111 29.980747
9152   0  1  7.138088 49.968094 32.836117
9171   0  1  7.138057 52.823400 29.980747
9172   0  1  7.138074 52.823387 32.836117
1572   0  1  8.565679 51.395804 31.408435
1972   0  1 11.420922 51.395905 31.408439
9551   0  1  9.993274 49.968239 29.980744
9552   0  1  9.993296 49.968218 32.836133
9571   0  1  9.993306 52.823479 29.980744
9572   0  1  9.993323 52.823464 32.836125
2372   0  1 14.276214 51.395974 31.408440
9951   0  1 12.848505 49.968368 29.980737
9952   0  1 12.848529 49.968345 32.836149
9971   0  1 12.848593 52.823539 29.980739
9972   0  1 12.848610 52.823524 32.836131
10351  0  1 15.703804 49.968444 29.980729
10352  0  1 15.703828 49.968423 32.836160
10371  0  1 15.703928 52.823558 29.980733
10372  0  1 15.703944 52.823547 32.836132
2772   0  1 17.131567 51.395986 31.408437
10751  0  1 18.559183 49.968439 29.980720
10752  0  1 18.559204 49.968425 32.836161
10771  0  1 18.559301 52.823539 29.980729
10772  0  1 18.559316 52.823533 32.836129
3172   0  1 19.986961 51.395952 31.408431
3572   0  1 22.842371 51.395902 31.408427
11151  0  1 21.414608 49.968379 29.980714
11152  0  1 21.414626 49.968375 32.836154
11171  0  1 21.414692 52.823502 29.980727
11172  0  1 21.414705 52.823500 32.836123
11551  0  1 24.270044 49.968314 29.980715
11552  0  1 24.270061 49.968319 32.836145
11571  0  1 24.270086 52.823468 29.980730
11572  0  1 24.270098 52.823470 32.836120
3972   0  1 25.697781 51.395868 31.408428
11951  0  1 27.125478 49.968283 29.980724
11952  0  1 27.125494 49.968293 32.836145
11971  0  1 27.125479 52.823454 29.980738
11972  0  1 27.125490 52.823457 32.836123
792    0  1  2.855213 54.250952 31.408428
8391   0  1  1.427586 55.678592 29.980749
8392   0  1  1.427599 55.678586 32.836106
1192   0  1  5.710446 54.250998 31.408431
8791   0  1  4.282818 55.678617 29.980748
8792   0  1  4.282831 55.678610 32.836110
9191   0  1  7.138067 55.678656 29.980747
9192   0  1  7.138081 55.678648 32.836115
1592   0  1  8.565697 54.251056 31.408433
1992   0  1 11.420980 54.251105 31.408433
9591   0  1  9.993345 55.678694 29.980744
9592   0  1  9.993359 55.678685 32.836118
2392   0  1 14.276302 54.251129 31.408431
9991   0  1 12.848657 55.678717 29.980740
9992   0  1 12.848670 55.678708 32.836119
10391  0  1 15.704000 55.678718 29.980737
10392  0  1 15.704012 55.678711 32.836117
2792   0  1 17.131658 54.251123 31.408428
10791  0  1 18.559362 55.678703 29.980735
10792  0  1 18.559373 55.678698 32.836113
3192   0  1 19.987032 54.251099 31.408425
3592   0  1 22.842412 54.251072 31.408424
11191  0  1 21.414732 55.678682 29.980736
11192  0  1 21.414742 55.678680 32.836110
11591  0  1 24.270104 55.678665 29.980740
11592  0  1 24.270114 55.678666 32.836110
3992   0  1 25.697793 54.251055 31.408427
11991  0  1 27.125476 55.678659 29.980747
11992  0  1 27.125486 55.678661 32.836114
233    0  1  0.000077 31.408389 34.263673
234    0  1  0.000086 31.408386 37.118969
633    0  1  2.855428 31.408379 34.263642
634    0  1  2.855430 31.408377 37.118937
8213   0  1  1.427751 29.980731 35.691308
1033   0  1  5.710789 31.408366 34.263599
1034   0  1  5.710784 31.408365 37.118894
8613   0  1  4.283100 29.980721 35.691273
9013   0  1  7.138459 29.980705 35.691223
1433   0  1  8.566167 31.408346 34.263534
1434   0  1  8.566148 31.408345 37.118835
1833   0  1 11.421577 31.408311 34.263429
1834   0  1 11.421528 31.408311 37.118751
9413   0  1  9.993833 29.980682 35.691151
2233   0  1 14.277048 31.408246 34.263246
2234   0  1 14.276923 31.408248 37.118637
9813   0  1 12.849231 29.980646 35.691040
10213  0  1 15.704660 29.980585 35.690875
2633   0  1 17.132628 31.408102 34.262918
2634   0  1 17.132313 31.408122 37.118514
10613  0  1 18.560090 29.980455 35.690677
3033   0  1 19.988310 31.407744 34.262409
3034   0  1 19.987684 31.407885 37.118431
3433   0  1 22.843499 31.406961 34.262378
3434   0  1 22.843667 31.407673 37.117707
11013  0  1 21.415394 29.980108 35.690626
11413  0  1 24.271870 29.979927 35.689249
3833   0  1 25.702745 31.405817 34.257607
3834   0  1 25.699429 31.407641 37.116750
11813  0  1 27.126546 29.978680 35.688730
253    0  1  0.000081 34.263697 34.263676
254    0  1  0.000090 34.263687 37.118974
653    0  1  2.855432 34.263688 34.263648
654    0  1  2.855434 34.263675 37.118943
8233   0  1  1.427758 32.836035 35.691305
8253   0  1  1.427758 35.691339 35.691318
1053   0  1  5.710793 34.263678 34.263611
1054   0  1  5.710788 34.263659 37.118905
8633   0  1  4.283111 32.836023 35.691269
8653   0  1  4.283107 35.691328 35.691289
9033   0  1  7.138478 32.836007 35.691217
9053   0  1  7.138466 35.691314 35.691254
1453   0  1  8.566170 34.263664 34.263558
1454   0  1  8.566152 34.263633 37.118854
1853   0  1 11.421576 34.263635 34.263479
1854   0  1 11.421528 34.263586 37.118785
9433   0  1  9.993864 32.835977 35.691141
9453   0  1  9.993836 35.691292 35.691208
2253   0  1 14.277027 34.263571 34.263357
2254   0  1 14.276906 34.263497 37.118703
9833   0  1 12.849281 32.835920 35.691023
9853   0  1 12.849213 35.691251 35.691155
10233  0  1 15.704736 32.835795 35.690847
10253  0  1 15.704559 35.691178 35.691121
2653   0  1 17.132522 34.263407 34.263179
2654   0  1 17.132237 34.263333 37.118647
10633  0  1 18.560179 32.835521 35.690647
10653  0  1 18.559699 35.691095 35.691239
3053   0  1 19.987894 34.263000 34.263036
3054   0  1 19.987433 34.263103 37.118707
3453   0  1 22.841968 34.262722 34.264000
3454   0  1 22.843095 34.262925 37.118148
11033  0  1 21.415397 32.835030 35.690664
11053  0  1 21.414081 35.691419 35.692015
11433  0  1 24.272011 32.834355 35.689023
11453  0  1 24.268079 35.694078 35.692990
3853   0  1 25.694826 34.268547 34.265457
3854   0  1 25.698013 34.264036 37.117837
11833  0  1 27.126275 32.836474 35.688551
11853  0  1 27.125311 35.694492 35.692785
273    0  1  0.000082 37.119006 34.263689
274    0  1  0.000092 37.118991 37.118991
293    0  1  0.000078 39.974317 34.263707
294    0  1  0.000090 39.974300 37.119017
673    0  1  2.855424 37.118998 34.263669
674    0  1  2.855428 37.118977 37.118969
693    0  1  2.855403 39.974313 34.263698
694    0  1  2.855409 39.974289 37.119006
8273   0  1  1.427752 38.546647 35.691342
1073   0  1  5.710772 37.118995 34.263648
1074   0  1  5.710770 37.118964 37.118945
1093   0  1  5.710726 39.974324 34.263694
1094   0  1  5.710728 39.974289 37.119001
8673   0  1  4.283086 38.546641 35.691327
9073   0  1  7.138420 38.546642 35.691317
1473   0  1  8.566126 37.118998 34.263626
1474   0  1  8.566114 37.118948 37.118922
1493   0  1  8.566034 39.974358 34.263702
1494   0  1  8.566031 39.974306 37.119013
1873   0  1 11.421479 37.119011 34.263611
1874   0  1 11.421448 37.118928 37.118907
1893   0  1 11.421292 39.974444 34.263739
1894   0  1 11.421286 39.974362 37.119064
9473   0  1  9.993742 38.546658 35.691320
2273   0  1 14.276787 37.119066 34.263639
2274   0  1 14.276730 37.118911 37.118932
2293   0  1 14.276405 39.974677 34.263853
2294   0  1 14.276411 39.974534 37.119216
9873   0  1 12.849011 38.546716 35.691366
10273  0  1 15.704095 38.546930 35.691557
2673   0  1 17.131859 37.119326 34.263858
2674   0  1 17.131839 37.118959 37.119095
2693   0  1 17.131150 39.975307 34.264165
2694   0  1 17.131236 39.975025 37.119621
10673  0  1 18.558623 38.547703 35.692208
3073   0  1 19.985910 37.120572 34.264906
3074   0  1 19.986539 37.119339 37.119619
3093   0  1 19.985329 39.976715 34.264866
3094   0  1 19.985687 39.976127 37.120471
3473   0  1 22.836979 37.125543 34.268919
3474   0  1 22.841160 37.120668 37.120212
3493   0  1 22.840474 39.977628 34.265629
3494   0  1 22.841433 39.976542 37.120603
11073  0  1 21.412104 38.549936 35.693975
11473  0  1 24.268828 38.550222 35.693808
3873   0  1 25.696609 37.124937 34.267578
3874   0  1 25.697338 37.121015 37.120064
3893   0  1 25.697317 39.977283 34.265288
3894   0  1 25.697529 39.976619 37.120556
11873  0  1 27.125642 38.550172 35.693685
8293   0  1  1.427736 41.401962 35.691371
313    0  1  0.000070 42.829632 34.263727
314    0  1  0.000082 42.829616 37.119047
713    0  1  2.855369 42.829636 34.263726
714    0  1  2.855378 42.829613 37.119045
8313   0  1  1.427713 44.257285 35.691399
8693   0  1  4.283046 41.401967 35.691370
9093   0  1  7.138342 41.401995 35.691382
1113   0  1  5.710657 42.829667 34.263735
1114   0  1  5.710664 42.829634 37.119057
8713   0  1  4.282992 44.257305 35.691408
9113   0  1  7.138246 44.257364 35.691433
9493   0  1  9.993595 41.402068 35.691422
1513   0  1  8.565909 42.829742 34.263761
1514   0  1  8.565918 42.829695 37.119094
1913   0  1 11.421080 42.829907 34.263819
1914   0  1 11.421099 42.829835 37.119179
9513   0  1  9.993443 44.257492 35.691486
9893   0  1 12.848743 41.402250 35.691524
10293  0  1 15.703673 41.402676 35.691760
2313   0  1 14.276102 42.830246 34.263938
2314   0  1 14.276150 42.830129 37.119353
9913   0  1 12.848548 44.257735 35.691588
10313  0  1 15.703572 44.258114 35.691750
10693  0  1 18.558342 41.403495 35.692218
2713   0  1 17.130971 42.830818 34.264145
2714   0  1 17.131080 42.830631 37.119652
10713  0  1 18.558718 44.258463 35.691929
3113   0  1 19.986077 42.831288 34.264372
3114   0  1 19.986235 42.831078 37.119962
11093  0  1 21.413463 41.404144 35.692701
11493  0  1 24.269520 41.404122 35.692624
3513   0  1 22.841694 42.831323 34.264470
3514   0  1 22.841901 42.831178 37.119992
11113  0  1 21.414172 44.258576 35.692026
11513  0  1 24.269857 44.258509 35.691983
11893  0  1 27.125591 41.404032 35.692557
3913   0  1 25.697610 42.831143 34.264366
3914   0  1 25.697678 42.831163 37.119960
11913  0  1 27.125546 44.258450 35.691955
333    0  1  0.000056 45.684955 34.263746
334    0  1  0.000068 45.684941 37.119075
353    0  1  0.000038 48.540283 34.263761
354    0  1  0.000050 48.540270 37.119099
733    0  1  2.855327 45.684969 34.263750
734    0  1  2.855338 45.684948 37.119080
753    0  1  2.855283 48.540304 34.263768
754    0  1  2.855297 48.540286 37.119107
8333   0  1  1.427683 47.112615 35.691423
1133   0  1  5.710579 45.685020 34.263765
1134   0  1  5.710592 45.684991 37.119101
1153   0  1  5.710513 48.540368 34.263783
1154   0  1  5.710530 48.540343 37.119130
8733   0  1  4.282934 47.112649 35.691436
9133   0  1  7.138159 47.112731 35.691464
1533   0  1  8.565790 45.685130 34.263796
1534   0  1  8.565809 45.685088 37.119147
1553   0  1  8.565717 48.540483 34.263809
1554   0  1  8.565740 48.540448 37.119170
1933   0  1 11.420937 45.685325 34.263849
1934   0  1 11.420969 45.685264 37.119228
1953   0  1 11.420905 48.540643 34.263845
1954   0  1 11.420937 48.540597 37.119227
9533   0  1  9.993345 47.112875 35.691512
2333   0  1 14.276034 45.685610 34.263929
2334   0  1 14.276087 45.685525 37.119351
2353   0  1 14.276124 48.540803 34.263885
2354   0  1 14.276162 48.540751 37.119291
9933   0  1 12.848503 47.113080 35.691582
10333  0  1 15.703704 47.113282 35.691659
2733   0  1 17.131205 45.685875 34.264016
2734   0  1 17.131272 45.685781 37.119488
2753   0  1 17.131435 48.540892 34.263912
2754   0  1 17.131469 48.540852 37.119341
10733  0  1 18.559034 47.113388 35.691713
3133   0  1 19.986582 45.685967 34.264070
3134   0  1 19.986643 45.685910 37.119574
3153   0  1 19.986843 48.540885 34.263919
3154   0  1 19.986869 48.540877 37.119359
3533   0  1 22.842126 45.685894 34.264066
3534   0  1 22.842180 45.685911 37.119569
3553   0  1 22.842303 48.540825 34.263906
3554   0  1 22.842323 48.540855 37.119348
11133  0  1 21.414491 47.113378 35.691723
11533  0  1 24.270007 47.113324 35.691699
3933   0  1 25.697725 45.685799 34.264028
3934   0  1 25.697753 45.685881 37.119549
3953   0  1 25.697773 48.540774 34.263891
3954   0  1 25.697788 48.540831 37.119337
11933  0  1 27.125522 47.113291 35.691690
373    0  1  0.000018 51.395609 34.263772
374    0  1  0.000031 51.395598 37.119117
773    0  1  2.855249 51.395632 34.263779
774    0  1  2.855263 51.395617 37.119125
8353   0  1  1.427654 49.967947 35.691441
8373   0  1  1.427630 52.823270 35.691453
1173   0  1  5.710474 51.395693 34.263791
1174   0  1  5.710492 51.395672 37.119144
8753   0  1  4.282887 49.967987 35.691454
8773   0  1  4.282858 52.823306 35.691463
9153   0  1  7.138107 49.968070 35.691478
9173   0  1  7.138091 52.823369 35.691480
1573   0  1  8.565699 51.395784 34.263809
1574   0  1  8.565720 51.395757 37.119172
1973   0  1 11.420943 51.395883 34.263828
1974   0  1 11.420968 51.395852 37.119204
9553   0  1  9.993320 49.968188 35.691511
9573   0  1  9.993342 52.823444 35.691498
2373   0  1 14.276235 51.395954 34.263843
2374   0  1 14.276258 51.395926 37.119231
9953   0  1 12.848556 49.968312 35.691547
9973   0  1 12.848629 52.823505 35.691514
10353  0  1 15.703854 49.968396 35.691577
10373  0  1 15.703960 52.823534 35.691522
2773   0  1 17.131584 51.395974 34.263849
2774   0  1 17.131603 51.395959 37.119246
10753  0  1 18.559223 49.968416 35.691589
10773  0  1 18.559328 52.823530 35.691521
3173   0  1 19.986975 51.395952 34.263845
3174   0  1 19.986989 51.395955 37.119245
3573   0  1 22.842384 51.395914 34.263836
3574   0  1 22.842395 51.395936 37.119236
11153  0  1 21.414641 49.968389 35.691583
11173  0  1 21.414715 52.823509 35.691514
11553  0  1 24.270076 49.968354 35.691569
11573  0  1 24.270108 52.823489 35.691508
3973   0  1 25.697794 51.395887 34.263830
3974   0  1 25.697805 51.395921 37.119231
11953  0  1 27.125509 49.968336 35.691567
11973  0  1 27.125501 52.823480 35.691508
414    0  1  2.855230 57.106228 37.119141
393    0  1  0.000000 54.250926 34.263779
394    0  1  0.000013 54.250917 37.119129
793    0  1  2.855227 54.250943 34.263785
794    0  1  2.855242 54.250932 37.119135
8393   0  1  1.427613 55.678578 35.691460
1193   0  1  5.710461 54.250986 34.263793
1194   0  1  5.710478 54.250971 37.119149
8793   0  1  4.282846 55.678600 35.691468
9193   0  1  7.138096 55.678636 35.691477
1593   0  1  8.565713 54.251042 34.263803
1594   0  1  8.565731 54.251024 37.119165
1993   0  1 11.420996 54.251092 34.263811
1994   0  1 11.421013 54.251073 37.119180
9593   0  1  9.993374 55.678673 35.691486
2393   0  1 14.276316 54.251118 34.263815
2394   0  1 14.276331 54.251104 37.119189
9993   0  1 12.848683 55.678698 35.691491
10393  0  1 15.704023 55.678705 35.691491
2793   0  1 17.131670 54.251117 34.263814
2794   0  1 17.131682 54.251112 37.119191
10793  0  1 18.559382 55.678698 35.691487
3193   0  1 19.987043 54.251099 34.263809
3194   0  1 19.987052 54.251104 37.119186
3593   0  1 22.842422 54.251078 34.263803
3594   0  1 22.842431 54.251091 37.119179
11193  0  1 21.414751 55.678685 35.691482
11593  0  1 24.270123 55.678675 35.691479
3993   0  1 25.697803 54.251064 34.263802
3994   0  1 25.697812 54.251083 37.119177
11993  0  1 27.125496 55.678672 35.691480
235    0  1  0.000093 31.408383 39.974278
635    0  1  2.855427 31.408376 39.974248
8214   0  1  1.427754 29.980733 38.546611
8215   0  1  1.427755 29.980736 41.401928
636    0  1  2.855421 31.408376 42.829573
236    0  1  0.000098 31.408382 42.829600
1035   0  1  5.710768 31.408365 39.974213
8614   0  1  4.283095 29.980727 38.546578
8615   0  1  4.283085 29.980732 41.401900
9014   0  1  7.138442 29.980716 38.546537
9015   0  1  7.138418 29.980723 41.401872
1036   0  1  5.710749 31.408367 42.829548
1435   0  1  8.566113 31.408347 39.974172
1835   0  1 11.421459 31.408317 39.974125
9414   0  1  9.993794 29.980698 38.546484
9415   0  1  9.993750 29.980709 41.401843
1436   0  1  8.566079 31.408352 42.829524
1836   0  1 11.421409 31.408329 42.829501
2235   0  1 14.276802 31.408267 39.974080
9814   0  1 12.849148 29.980669 38.546421
9815   0  1 12.849080 29.980684 41.401816
10214  0  1 15.704495 29.980614 38.546360
10215  0  1 15.704425 29.980646 41.401780
2236   0  1 14.276752 31.408296 42.829469
2635   0  1 17.132160 31.408187 39.974027
10614  0  1 18.559848 29.980515 38.546307
10615  0  1 18.559854 29.980605 41.401662
3035   0  1 19.987678 31.408104 39.973815
2636   0  1 17.132149 31.408260 42.829383
3036   0  1 19.987595 31.408231 42.829221
3435   0  1 22.843269 31.408056 39.973437
11014  0  1 21.415474 29.980423 38.545980
11015  0  1 21.415340 29.980567 41.401444
11414  0  1 24.271118 29.980318 38.545472
11415  0  1 24.270713 29.980509 41.401271
3436   0  1 22.842987 31.408218 42.829059
3835   0  1 25.698565 31.408075 39.973216
11814  0  1 27.126197 29.980073 38.545472
11815  0  1 27.125896 29.980440 41.401301
3836   0  1 25.698235 31.408231 42.829000
255    0  1  0.000098 34.263677 39.974283
655    0  1  2.855432 34.263664 39.974253
8234   0  1  1.427761 32.836028 38.546607
8235   0  1  1.427762 32.836023 41.401924
8254   0  1  1.427763 35.691324 38.546621
8255   0  1  1.427764 35.691312 41.401936
256    0  1  0.000103 34.263670 42.829604
656    0  1  2.855426 34.263657 42.829577
1055   0  1  5.710772 34.263646 39.974221
8634   0  1  4.283106 32.836016 38.546573
8635   0  1  4.283095 32.836011 41.401894
8654   0  1  4.283103 35.691308 38.546592
8655   0  1  4.283093 35.691295 41.401910
9034   0  1  7.138458 32.835997 38.546528
9035   0  1  7.138431 32.835994 41.401863
9054   0  1  7.138449 35.691287 38.546559
9055   0  1  7.138424 35.691272 41.401886
1056   0  1  5.710753 34.263640 42.829552
1455   0  1  8.566116 34.263618 39.974183
1855   0  1 11.421458 34.263574 39.974144
9434   0  1  9.993819 32.835965 38.546471
9435   0  1  9.993768 32.835966 41.401831
9454   0  1  9.993797 35.691252 38.546522
9455   0  1  9.993750 35.691240 41.401865
1456   0  1  8.566081 34.263617 42.829530
1856   0  1 11.421406 34.263583 42.829511
2255   0  1 14.276786 34.263503 39.974114
9834   0  1 12.849182 32.835909 38.546401
9835   0  1 12.849101 32.835923 41.401800
9854   0  1 12.849131 35.691196 38.546491
9855   0  1 12.849063 35.691194 41.401855
10234  0  1 15.704535 32.835807 38.546336
10235  0  1 15.704447 32.835862 41.401762
10254  0  1 15.704416 35.691114 38.546497
10255  0  1 15.704370 35.691140 41.401846
2256   0  1 14.276740 34.263540 42.829485
2655   0  1 17.132108 34.263404 39.974088
10634  0  1 18.559883 32.835646 38.546283
10635  0  1 18.559881 32.835795 41.401630
10654  0  1 18.559610 35.691037 38.546571
10655  0  1 18.559731 35.691100 41.401758
3055   0  1 19.987558 34.263313 39.973904
2656   0  1 17.132119 34.263494 42.829405
3056   0  1 19.987536 34.263471 42.829245
3455   0  1 22.843029 34.263336 39.973556
11034  0  1 21.415516 32.835486 38.545914
11035  0  1 21.415372 32.835760 41.401379
11054  0  1 21.414952 35.691064 38.546411
11055  0  1 21.415113 35.691134 41.401567
11434  0  1 24.271140 32.835495 38.545307
11435  0  1 24.270720 32.835810 41.401172
11454  0  1 24.270089 35.691659 38.546253
11455  0  1 24.270363 35.691326 41.401444
3456   0  1 22.842883 34.263513 42.829088
3855   0  1 25.698187 34.263643 39.973406
11834  0  1 27.126065 32.835939 38.545216
11835  0  1 27.125846 32.835953 41.401181
11854  0  1 27.125561 35.692035 38.546398
11855  0  1 27.125626 35.691515 41.401530
3856   0  1 25.698102 34.263633 42.829043
275    0  1  0.000100 37.118976 39.974302
295    0  1  0.000098 39.974282 39.974332
675    0  1  2.855427 37.118958 39.974278
695    0  1  2.855410 39.974266 39.974317
8274   0  1  1.427758 38.546628 38.546649
8275   0  1  1.427760 38.546610 41.401964
276    0  1  0.000106 37.118963 42.829622
676    0  1  2.855422 37.118945 42.829598
696    0  1  2.855408 39.974247 42.829634
296    0  1  0.000104 39.974265 42.829651
1075   0  1  5.710758 37.118940 39.974256
1095   0  1  5.710721 39.974257 39.974312
8674   0  1  4.283084 38.546614 38.546632
8675   0  1  4.283077 38.546593 41.401947
9074   0  1  7.138410 38.546603 38.546622
9075   0  1  7.138392 38.546576 41.401938
1076   0  1  5.710741 37.118925 42.829580
1096   0  1  5.710712 39.974234 42.829628
1475   0  1  8.566086 37.118916 39.974238
1495   0  1  8.566018 39.974259 39.974323
1875   0  1 11.421397 37.118885 39.974233
1895   0  1 11.421274 39.974286 39.974369
9474   0  1  9.993719 38.546597 38.546625
9475   0  1  9.993691 38.546562 41.401944
1476   0  1  8.566057 37.118903 42.829569
1496   0  1  8.566004 39.974229 42.829637
1876   0  1 11.421362 37.118876 42.829569
1896   0  1 11.421274 39.974237 42.829668
2275   0  1 14.276666 37.118853 39.974260
2295   0  1 14.276448 39.974375 39.974484
9874   0  1 12.848979 38.546611 38.546670
9875   0  1 12.848958 38.546557 41.401977
10274  0  1 15.704116 38.546697 38.546815
10275  0  1 15.704184 38.546586 41.402039
2276   0  1 14.276660 37.118851 42.829570
2675   0  1 17.131874 37.118850 39.974332
2695   0  1 17.131510 39.974604 39.974704
10674  0  1 18.559038 38.547007 38.547154
10675  0  1 18.559422 38.546684 41.402067
3075   0  1 19.987126 37.118941 39.974314
3095   0  1 19.986601 39.975020 39.974929
2676   0  1 17.131981 37.118842 42.829532
3076   0  1 19.987317 37.118881 42.829431
3475   0  1 22.842349 37.119285 39.974248
3495   0  1 22.842073 39.975260 39.974951
11074  0  1 21.413970 38.547723 38.547514
11075  0  1 21.414680 38.546900 41.402049
11474  0  1 24.269664 38.548020 38.547478
11475  0  1 24.270056 38.547069 41.402029
3476   0  1 22.842603 37.119005 42.829345
3875   0  1 25.697766 37.119529 39.974249
3895   0  1 25.697669 39.975401 39.974996
11874  0  1 27.125482 38.548199 38.547594
11875  0  1 27.125502 38.547212 41.402128
3876   0  1 25.697895 37.119136 42.829354
315    0  1  0.000091 42.829598 39.974367
8294   0  1  1.427744 41.401941 38.546685
8295   0  1  1.427748 41.401920 41.402001
715    0  1  2.855383 42.829589 39.974362
8314   0  1  1.427722 44.257265 38.546722
8315   0  1  1.427728 44.257244 41.402042
8694   0  1  4.283049 41.401938 38.546682
8695   0  1  4.283047 41.401911 41.401996
9094   0  1  7.138340 41.401953 38.546696
9095   0  1  7.138335 41.401916 41.402008
1115   0  1  5.710666 42.829600 39.974374
8714   0  1  4.282999 44.257277 38.546731
8715   0  1  4.283004 44.257249 41.402048
9114   0  1  7.138255 44.257325 38.546761
9115   0  1  7.138262 44.257283 41.402078
9494   0  1  9.993594 41.402005 38.546743
9495   0  1  9.993594 41.401945 41.402048
1515   0  1  8.565922 42.829644 39.974413
1915   0  1 11.421121 42.829749 39.974500
9514   0  1  9.993462 44.257432 38.546829
9515   0  1  9.993486 44.257362 41.402143
9894   0  1 12.848760 41.402140 38.546860
9895   0  1 12.848801 41.402024 41.402135
10294  0  1 15.703764 41.402461 38.547118
10295  0  1 15.703949 41.402190 41.402280
2315   0  1 14.276232 42.829965 39.974670
9914   0  1 12.848593 44.257637 38.546956
9915   0  1 12.848661 44.257513 41.402257
10314  0  1 15.703666 44.257960 38.547154
10315  0  1 15.703821 44.257737 41.402414
10694  0  1 18.558632 41.403058 38.547565
10695  0  1 18.559123 41.402450 41.402427
2715   0  1 17.131294 42.830319 39.974926
10714  0  1 18.558859 44.258269 38.547358
10715  0  1 18.559104 44.257933 41.402525
3115   0  1 19.986607 42.830586 39.975071
11094  0  1 21.414050 41.403412 38.547736
11095  0  1 21.414495 41.402636 41.402470
11494  0  1 24.269770 41.403537 38.547747
11495  0  1 24.269969 41.402753 41.402497
3515   0  1 22.842129 42.830716 39.975108
11114  0  1 21.414335 44.258400 38.547421
11115  0  1 21.414522 44.258051 41.402570
11514  0  1 24.269929 44.258431 38.547420
11515  0  1 24.270002 44.258117 41.402596
11915  0  1 27.125507 44.258158 41.402635
11914  0  1 27.125537 44.258436 38.547433
11894  0  1 27.125537 41.403589 38.547791
11895  0  1 27.125491 41.402838 41.402569
3915   0  1 25.697716 42.830780 39.975138
8335   0  1  1.427703 47.112577 41.402080
8334   0  1  1.427694 47.112597 38.546754
755    0  1  2.855309 48.540264 39.974439
735    0  1  2.855346 45.684924 39.974404
355    0  1  0.000061 48.540254 39.974432
335    0  1  0.000078 45.684923 39.974402
9135   0  1  7.138195 47.112653 41.402131
9134   0  1  7.138176 47.112695 38.546805
8735   0  1  4.282957 47.112596 41.402094
8734   0  1  4.282946 47.112624 38.546769
1155   0  1  5.710546 48.540312 39.974465
1135   0  1  5.710602 45.684958 39.974427
9535   0  1  9.993409 47.112757 41.402196
9534   0  1  9.993373 47.112823 38.546868
1955   0  1 11.420976 48.540534 39.974580
1935   0  1 11.421010 45.685184 39.974570
1555   0  1  8.565766 48.540403 39.974512
1535   0  1  8.565827 45.685038 39.974479
10335  0  1 15.703858 47.113062 41.402385
10334  0  1 15.703765 47.113196 38.547063
9935   0  1 12.848612 47.112906 41.402289
9934   0  1 12.848548 47.113006 38.546961
2355   0  1 14.276215 48.540675 39.974657
2335   0  1 14.276165 45.685400 39.974705
3155   0  1 19.986916 48.540828 39.974738
3135   0  1 19.986773 45.685744 39.974909
10735  0  1 18.559198 47.113171 41.402444
10734  0  1 18.559095 47.113316 38.547135
2755   0  1 17.131525 48.540779 39.974715
2735   0  1 17.131389 45.685618 39.974843
11535  0  1 24.270056 47.113259 41.402479
11534  0  1 24.270031 47.113347 38.547142
11135  0  1 21.414611 47.113230 41.402467
11134  0  1 21.414541 47.113351 38.547150
3555   0  1 22.842349 48.540841 39.974740
3535   0  1 22.842254 45.685795 39.974925
11935  0  1 27.125511 47.113275 41.402498
11934  0  1 27.125525 47.113341 38.547147
3955   0  1 25.697793 48.540844 39.974742
3935   0  1 25.697764 45.685815 39.974936
8375   0  1  1.427654 52.823241 41.402133
8374   0  1  1.427643 52.823257 38.546797
8355   0  1  1.427677 49.967912 41.402111
8354   0  1  1.427666 49.967931 38.546780
775    0  1  2.855277 51.395598 39.974463
375    0  1  0.000042 51.395584 39.974455
9175   0  1  7.138133 52.823317 41.402171
9174   0  1  7.138111 52.823346 38.546832
9155   0  1  7.138150 49.968002 41.402160
9154   0  1  7.138127 49.968039 38.546827
8775   0  1  4.282891 52.823267 41.402146
8774   0  1  4.282874 52.823288 38.546810
8755   0  1  4.282917 49.967939 41.402126
8754   0  1  4.282902 49.967965 38.546796
1175   0  1  5.710510 51.395646 39.974485
9575   0  1  9.993391 52.823381 41.402201
9574   0  1  9.993364 52.823416 38.546858
9555   0  1  9.993382 49.968095 41.402210
9554   0  1  9.993348 49.968147 38.546872
1975   0  1 11.420998 51.395810 39.974560
1575   0  1  8.565745 51.395722 39.974519
10375  0  1 15.704004 52.823483 41.402249
10374  0  1 15.703979 52.823515 38.546898
10355  0  1 15.703936 49.968285 41.402313
10354  0  1 15.703887 49.968354 38.546967
9975   0  1 12.848679 52.823441 41.402230
9974   0  1 12.848651 52.823478 38.546883
9955   0  1 12.848635 49.968199 41.402266
9954   0  1 12.848590 49.968265 38.546923
2375   0  1 14.276289 51.395885 39.974595
3175   0  1 19.987009 51.395944 39.974621
10775  0  1 18.559362 52.823505 41.402256
10774  0  1 18.559342 52.823525 38.546901
10755  0  1 18.559294 49.968337 41.402337
10754  0  1 18.559250 49.968393 38.546988
2775   0  1 17.131630 51.395929 39.974617
11575  0  1 24.270122 52.823516 41.402256
11574  0  1 24.270116 52.823510 38.546890
11555  0  1 24.270096 49.968371 41.402348
11554  0  1 24.270087 49.968384 38.546979
11175  0  1 21.414738 52.823513 41.402256
11174  0  1 21.414726 52.823519 38.546895
11155  0  1 21.414687 49.968361 41.402344
11154  0  1 21.414660 49.968395 38.546986
3575   0  1 22.842406 51.395945 39.974617
11975  0  1 27.125508 52.823519 41.402261
11974  0  1 27.125508 52.823507 38.546892
11955  0  1 27.125510 49.968377 41.402358
11954  0  1 27.125515 49.968378 38.546981
3975   0  1 25.697809 51.395943 39.974618
415    0  1  2.855244 57.106220 39.974486
15     0  1  0.000010 57.106216 39.974479
8395   0  1  1.427638 55.678558 41.402146
8394   0  1  1.427626 55.678569 38.546808
795    0  1  2.855256 54.250918 39.974478
395    0  1  0.000024 54.250906 39.974471
9195   0  1  7.138132 55.678604 41.402172
9194   0  1  7.138113 55.678622 38.546831
8795   0  1  4.282877 55.678574 41.402156
8794   0  1  4.282862 55.678588 38.546817
1195   0  1  5.710496 54.250952 39.974494
9594   0  1  9.993390 55.678657 38.546844
1995   0  1 11.421034 54.251049 39.974535
1595   0  1  8.565751 54.251001 39.974514
9595   0  1  9.993410 55.678638 41.402188
2395   0  1 14.276350 54.251084 39.974549
9994   0  1 12.848698 55.678684 38.546853
9995   0  1 12.848716 55.678666 41.402201
10394  0  1 15.704035 55.678697 38.546857
10395  0  1 15.704049 55.678684 41.402207
2795   0  1 17.131696 54.251100 39.974554
10794  0  1 18.559391 55.678698 38.546854
10795  0  1 18.559403 55.678692 41.402206
3195   0  1 19.987063 54.251104 39.974551
11194  0  1 21.414759 55.678693 38.546848
3595   0  1 22.842438 54.251101 39.974547
11595  0  1 24.270136 55.678696 41.402201
11594  0  1 24.270131 55.678688 38.546844
11195  0  1 21.414767 55.678695 41.402203
11995  0  1 27.125506 55.678698 41.402204
3995   0  1 25.697817 54.251100 39.974546
11994  0  1 27.125503 55.678687 38.546846
237    0  1  0.000102 31.408381 45.684930
637    0  1  2.855415 31.408377 45.684906
8216   0  1  1.427754 29.980738 44.257255
8217   0  1  1.427753 29.980740 47.112587
1037   0  1  5.710734 31.408369 45.684887
8616   0  1  4.283074 29.980735 44.257233
8617   0  1  4.283066 29.980738 47.112568
9016   0  1  7.138397 29.980729 44.257215
9017   0  1  7.138385 29.980733 47.112554
1437   0  1  8.566058 31.408358 45.684872
1837   0  1 11.421391 31.408343 45.684851
9416   0  1  9.993721 29.980717 44.257199
9417   0  1  9.993713 29.980725 47.112538
2237   0  1 14.276747 31.408326 45.684809
9816   0  1 12.849056 29.980700 44.257176
9817   0  1 12.849056 29.980716 47.112508
10216  0  1 15.704423 29.980680 44.257121
10217  0  1 15.704415 29.980705 47.112456
2637   0  1 17.132126 31.408309 45.684731
10616  0  1 18.559822 29.980661 44.257019
10617  0  1 18.559774 29.980693 47.112389
3037   0  1 19.987500 31.408298 45.684637
3437   0  1 22.842822 31.408294 45.684566
11016  0  1 21.415202 29.980638 44.256905
11017  0  1 21.415104 29.980679 47.112332
11416  0  1 24.270506 29.980608 44.256841
11417  0  1 24.270392 29.980663 47.112306
3837   0  1 25.698078 31.408301 45.684550
11816  0  1 27.125736 29.980584 44.256866
11817  0  1 27.125646 29.980654 47.112325
257    0  1  0.000106 34.263665 45.684933
657    0  1  2.855419 34.263653 45.684908
8236   0  1  1.427761 32.836020 44.257251
8237   0  1  1.427758 32.836018 47.112583
8256   0  1  1.427763 35.691304 44.257261
8257   0  1  1.427760 35.691299 47.112591
1057   0  1  5.710737 34.263640 45.684890
8636   0  1  4.283082 32.836010 44.257227
8637   0  1  4.283073 32.836010 47.112563
8656   0  1  4.283081 35.691288 44.257239
8657   0  1  4.283072 35.691285 47.112571
9036   0  1  7.138407 32.835995 44.257207
9037   0  1  7.138393 32.836000 47.112547
9056   0  1  7.138401 35.691268 44.257223
9057   0  1  7.138388 35.691271 47.112557
1457   0  1  8.566059 34.263622 45.684875
1857   0  1 11.421389 34.263601 45.684856
9436   0  1  9.993734 32.835975 44.257189
9437   0  1  9.993722 32.835986 47.112530
9456   0  1  9.993720 35.691244 44.257211
9457   0  1  9.993711 35.691255 47.112543
2257   0  1 14.276739 34.263578 45.684814
9836   0  1 12.849070 32.835948 44.257164
9837   0  1 12.849066 32.835971 47.112498
9856   0  1 12.849043 35.691215 44.257195
9857   0  1 12.849047 35.691239 47.112514
10236  0  1 15.704440 32.835917 44.257104
10237  0  1 15.704428 32.835958 47.112441
10256  0  1 15.704390 35.691187 44.257146
10257  0  1 15.704396 35.691228 47.112462
2657   0  1 17.132110 34.263561 45.684737
10636  0  1 18.559843 32.835894 44.256990
10637  0  1 18.559788 32.835951 47.112368
10656  0  1 18.559760 35.691176 44.257047
10657  0  1 18.559740 35.691230 47.112394
3057   0  1 19.987469 34.263561 45.684641
3457   0  1 22.842774 34.263592 45.684572
11036  0  1 21.415221 32.835891 44.256862
11037  0  1 21.415115 32.835955 47.112305
11056  0  1 21.415096 35.691209 44.256937
11057  0  1 21.415051 35.691255 47.112338
11436  0  1 24.270510 32.835924 44.256786
11437  0  1 24.270394 32.835974 47.112276
11456  0  1 24.270362 35.691295 44.256883
11457  0  1 24.270325 35.691302 47.112316
3857   0  1 25.698022 34.263649 45.684562
11836  0  1 27.125716 32.835983 44.256808
11837  0  1 27.125638 32.836003 47.112294
11856  0  1 27.125614 35.691391 44.256929
11857  0  1 27.125587 35.691353 47.112344
277    0  1  0.000108 37.118953 45.684948
297    0  1  0.000107 39.974251 45.684973
677    0  1  2.855416 37.118936 45.684925
697    0  1  2.855405 39.974233 45.684954
8276   0  1  1.427760 38.546596 44.257285
8277   0  1  1.427757 38.546587 47.112610
1077   0  1  5.710728 37.118920 45.684910
1097   0  1  5.710705 39.974220 45.684947
8676   0  1  4.283068 38.546579 44.257269
8677   0  1  4.283061 38.546572 47.112593
9076   0  1  7.138376 38.546563 44.257262
9077   0  1  7.138369 38.546559 47.112585
1477   0  1  8.566041 37.118902 45.684901
1497   0  1  8.566001 39.974213 45.684950
1877   0  1 11.421356 37.118884 45.684891
1897   0  1 11.421294 39.974214 45.684958
9476   0  1  9.993676 38.546549 44.257265
9477   0  1  9.993679 38.546548 47.112578
2277   0  1 14.276685 37.118869 45.684863
2296   0  1 14.276518 39.974276 42.829719
2297   0  1 14.276591 39.974229 45.684956
9876   0  1 12.848970 38.546540 44.257272
9877   0  1 12.848996 38.546542 47.112562
10276  0  1 15.704274 38.546548 44.257258
10277  0  1 15.704322 38.546547 47.112526
2677   0  1 17.132027 37.118868 45.684802
2696   0  1 17.131764 39.974363 42.829756
2697   0  1 17.131895 39.974266 45.684932
10676  0  1 18.559588 38.546587 44.257207
10677  0  1 18.559641 38.546570 47.112477
3077   0  1 19.987353 37.118895 45.684728
3096   0  1 19.987037 39.974509 42.829761
3097   0  1 19.987199 39.974329 45.684899
3477   0  1 22.842642 37.118957 45.684681
3496   0  1 22.842385 39.974633 42.829748
3497   0  1 22.842509 39.974398 45.684884
11076  0  1 21.414888 38.546673 44.257152
11077  0  1 21.414941 38.546616 47.112440
11476  0  1 24.270193 38.546766 44.257139
11477  0  1 24.270231 38.546671 47.112435
3877   0  1 25.697918 37.119030 45.684690
3896   0  1 25.697779 39.974737 42.829787
3897   0  1 25.697835 39.974465 45.684909
11876  0  1 27.125526 38.546856 44.257199
11877  0  1 27.125532 38.546726 47.112471
8296   0  1  1.427750 41.401903 44.257319
8297   0  1  1.427749 41.401889 47.112638
316    0  1  0.000098 42.829579 42.829687
317    0  1  0.000100 42.829562 45.685006
716    0  1  2.855384 42.829566 42.829678
717    0  1  2.855385 42.829547 45.684993
8316   0  1  1.427732 44.257223 44.257359
8317   0  1  1.427734 44.257206 47.112673
8696   0  1  4.283043 41.401890 44.257312
8697   0  1  4.283041 41.401876 47.112627
9096   0  1  7.138331 41.401888 44.257319
9097   0  1  7.138334 41.401872 47.112627
1116   0  1  5.710666 42.829569 42.829686
1117   0  1  5.710668 42.829545 45.684996
8716   0  1  4.283008 44.257222 44.257361
8717   0  1  4.283012 44.257200 47.112669
9116   0  1  7.138274 44.257242 44.257383
9117   0  1  7.138289 44.257210 47.112679
9496   0  1  9.993605 41.401902 44.257344
9497   0  1  9.993626 41.401877 47.112634
1516   0  1  8.565929 42.829596 42.829718
1517   0  1  8.565944 42.829558 45.685014
1916   0  1 11.421160 42.829660 42.829782
1917   0  1 11.421211 42.829593 45.685044
9516   0  1  9.993521 44.257293 44.257429
9517   0  1  9.993562 44.257238 47.112701
9896   0  1 12.848862 41.401941 44.257385
9897   0  1 12.848921 41.401895 47.112637
10296  0  1 15.704120 41.402014 44.257421
10297  0  1 15.704221 41.401928 47.112628
2316   0  1 14.276361 42.829782 42.829880
2317   0  1 14.276480 42.829651 45.685075
9916   0  1 12.848754 44.257382 44.257497
9917   0  1 12.848839 44.257285 47.112725
10316  0  1 15.704002 44.257502 44.257566
10317  0  1 15.704129 44.257345 47.112742
10696  0  1 18.559402 41.402118 44.257435
10697  0  1 18.559526 41.401977 47.112610
2716   0  1 17.131582 42.829954 42.829979
2717   0  1 17.131767 42.829730 45.685092
10716  0  1 18.559312 44.257611 44.257606
10717  0  1 18.559442 44.257405 47.112749
3116   0  1 19.986910 42.830096 42.830024
3117   0  1 19.987086 42.829804 45.685095
11096  0  1 21.414732 41.402213 44.257431
11097  0  1 21.414838 41.402030 47.112599
11496  0  1 24.270095 41.402293 44.257448
11497  0  1 24.270159 41.402082 47.112609
3516   0  1 22.842314 42.830194 42.830048
3517   0  1 22.842431 42.829868 45.685105
11116  0  1 21.414676 44.257693 44.257629
11117  0  1 21.414775 44.257457 47.112757
11516  0  1 24.270071 44.257753 44.257655
11517  0  1 24.270123 44.257502 47.112776
11896  0  1 27.125490 41.402362 44.257505
11897  0  1 27.125497 41.402131 47.112647
3916   0  1 25.697757 42.830265 42.830088
3917   0  1 25.697796 42.829922 45.685136
11916  0  1 27.125489 44.257799 44.257697
11917  0  1 27.125486 44.257540 47.112810
336    0  1  0.000085 45.684904 42.829724
337    0  1  0.000089 45.684885 45.685041
356    0  1  0.000069 48.540236 42.829758
357    0  1  0.000073 48.540216 45.685075
736    0  1  2.855353 45.684900 42.829723
737    0  1  2.855358 45.684877 45.685035
756    0  1  2.855319 48.540240 42.829762
757    0  1  2.855328 48.540215 45.685074
8336   0  1  1.427710 47.112555 44.257398
8337   0  1  1.427714 47.112535 47.112708
1136   0  1  5.710612 45.684923 42.829743
1137   0  1  5.710624 45.684889 45.685047
1156   0  1  5.710563 48.540277 42.829786
1157   0  1  5.710582 48.540240 45.685091
8736   0  1  4.282968 47.112566 44.257408
8737   0  1  4.282978 47.112539 47.112711
9136   0  1  7.138217 47.112607 44.257438
9137   0  1  7.138242 47.112564 47.112730
1536   0  1  8.565851 45.684982 42.829789
1537   0  1  8.565882 45.684927 45.685078
1556   0  1  8.565796 48.540350 42.829832
1557   0  1  8.565833 48.540292 45.685126
1936   0  1 11.421066 45.685088 42.829867
1937   0  1 11.421134 45.684992 45.685125
1956   0  1 11.421028 48.540455 42.829896
1957   0  1 11.421090 48.540366 45.685173
9536   0  1  9.993454 47.112682 44.257492
9537   0  1  9.993505 47.112611 47.112761
2336   0  1 14.276277 45.685238 42.829969
2337   0  1 14.276399 45.685078 45.685174
2356   0  1 14.276288 48.540568 42.829964
2357   0  1 14.276373 48.540445 45.685217
9936   0  1 12.848695 47.112787 44.257560
9937   0  1 12.848779 47.112674 47.112796
10336  0  1 15.703975 47.112893 44.257620
10337  0  1 15.704079 47.112739 47.112823
2736   0  1 17.131556 45.685382 42.830051
2737   0  1 17.131701 45.685162 45.685208
2756   0  1 17.131607 48.540658 42.830012
2757   0  1 17.131694 48.540512 45.685248
10736  0  1 18.559311 47.112977 44.257657
10737  0  1 18.559406 47.112795 47.112842
3136   0  1 19.986920 45.685483 42.830093
3137   0  1 19.987042 45.685230 45.685229
3156   0  1 19.986979 48.540716 42.830037
3157   0  1 19.987046 48.540563 45.685268
3536   0  1 22.842335 45.685546 42.830118
3537   0  1 22.842408 45.685282 45.685249
3556   0  1 22.842381 48.540749 42.830050
3557   0  1 22.842417 48.540599 45.685285
11136  0  1 21.414687 47.113034 44.257680
11137  0  1 21.414753 47.112840 47.112858
11536  0  1 24.270085 47.113073 44.257701
11537  0  1 24.270115 47.112875 47.112878
3936   0  1 25.697775 45.685586 42.830145
3937   0  1 25.697791 45.685322 45.685276
3956   0  1 25.697795 48.540769 42.830065
3957   0  1 25.697799 48.540625 45.685305
11936  0  1 27.125496 47.113100 44.257727
11937  0  1 27.125488 47.112902 47.112904
377    0  1  0.000055 51.395550 45.685102
776    0  1  2.855290 51.395577 42.829790
777    0  1  2.855302 51.395554 45.685104
8356   0  1  1.427686 49.967892 44.257432
8357   0  1  1.427692 49.967871 47.112740
8376   0  1  1.427665 52.823224 44.257456
8377   0  1  1.427672 52.823206 47.112765
376    0  1  0.000050 51.395568 42.829784
1176   0  1  5.710530 51.395616 42.829812
1177   0  1  5.710551 51.395582 45.685122
8756   0  1  4.282932 49.967911 44.257444
8757   0  1  4.282947 49.967882 47.112747
8776   0  1  4.282907 52.823243 44.257468
8777   0  1  4.282923 52.823218 47.112772
9156   0  1  7.138176 49.967959 44.257474
9157   0  1  7.138204 49.967915 47.112768
9176   0  1  7.138157 52.823284 44.257491
9177   0  1  7.138182 52.823248 47.112790
1576   0  1  8.565774 51.395679 42.829847
1577   0  1  8.565807 51.395631 45.685151
1976   0  1 11.421036 51.395756 42.829888
1977   0  1 11.421081 51.395691 45.685185
9556   0  1  9.993424 49.968032 44.257518
9557   0  1  9.993470 49.967966 47.112799
9576   0  1  9.993422 52.823337 44.257520
9577   0  1  9.993457 52.823289 47.112813
2376   0  1 14.276332 51.395825 42.829925
2377   0  1 14.276383 51.395747 45.685214
9956   0  1 12.848693 49.968115 44.257567
9957   0  1 12.848755 49.968024 47.112830
9976   0  1 12.848715 52.823390 44.257548
9977   0  1 12.848755 52.823331 47.112835
10356  0  1 15.704001 49.968187 44.257605
10357  0  1 15.704068 49.968078 47.112855
10376  0  1 15.704039 52.823432 44.257568
10377  0  1 15.704077 52.823368 47.112852
2776   0  1 17.131669 51.395873 42.829947
2777   0  1 17.131715 51.395792 45.685234
10756  0  1 18.559349 49.968239 44.257628
10757  0  1 18.559404 49.968121 47.112873
10776  0  1 18.559388 52.823461 44.257578
10777  0  1 18.559418 52.823397 47.112864
3176   0  1 19.987036 51.395902 42.829957
3177   0  1 19.987069 51.395824 45.685248
3576   0  1 22.842420 51.395917 42.829962
3577   0  1 22.842436 51.395847 45.685259
11156  0  1 21.414722 49.968274 44.257642
11157  0  1 21.414758 49.968154 47.112888
11176  0  1 21.414753 52.823479 44.257584
11177  0  1 21.414772 52.823418 47.112874
11556  0  1 24.270108 49.968296 44.257654
11557  0  1 24.270122 49.968179 47.112903
11576  0  1 24.270127 52.823491 44.257590
11577  0  1 24.270133 52.823434 47.112884
3976   0  1 25.697810 51.395926 42.829969
3977   0  1 25.697810 51.395863 45.685271
11956  0  1 27.125501 49.968310 44.257669
11957  0  1 27.125493 49.968197 47.112921
11976  0  1 27.125503 52.823499 44.257599
11977  0  1 27.125498 52.823445 47.112896
417    0  1  2.855270 57.106201 45.685136
416    0  1  2.855258 57.106211 42.829818
17     0  1  0.000026 57.106201 45.685133
16     0  1  0.000019 57.106208 42.829813
396    0  1  0.000033 54.250893 42.829803
397    0  1  0.000039 54.250879 45.685122
796    0  1  2.855270 54.250901 42.829809
797    0  1  2.855283 54.250884 45.685125
8396   0  1  1.427649 55.678547 44.257471
8397   0  1  1.427657 55.678535 47.112782
816    0  1  5.710510 57.106224 42.829829
817    0  1  5.710527 57.106212 45.685146
1196   0  1  5.710514 54.250930 42.829825
1197   0  1  5.710534 54.250906 45.685138
8796   0  1  4.282893 55.678559 44.257480
8797   0  1  4.282908 55.678543 47.112787
9196   0  1  7.138152 55.678584 44.257496
9197   0  1  7.138173 55.678562 47.112800
1217   0  1  8.565802 57.106228 45.685158
1596   0  1  8.565774 54.250973 42.829847
1597   0  1  8.565800 54.250940 45.685158
1996   0  1 11.421059 54.251017 42.829869
1997   0  1 11.421089 54.250978 45.685179
9596   0  1  9.993432 55.678613 44.257513
9597   0  1  9.993457 55.678586 47.112815
2396   0  1 14.276374 54.251053 42.829886
2397   0  1 14.276403 54.251012 45.685195
9996   0  1 12.848738 55.678641 44.257527
9997   0  1 12.848764 55.678610 47.112828
10396  0  1 15.704068 55.678661 44.257535
10397  0  1 15.704090 55.678630 47.112837
2796   0  1 17.131716 54.251077 42.829894
2797   0  1 17.131740 54.251037 45.685206
10796  0  1 18.559416 55.678675 44.257538
10797  0  1 18.559432 55.678646 47.112844
3196   0  1 19.987076 54.251090 42.829896
3197   0  1 19.987092 54.251056 45.685212
3596   0  1 22.842445 54.251097 42.829896
3597   0  1 22.842453 54.251069 45.685217
11196  0  1 21.414775 55.678684 44.257539
11197  0  1 21.414784 55.678659 47.112849
11596  0  1 24.270138 55.678691 44.257541
11597  0  1 24.270141 55.678668 47.112855
3996   0  1 25.697818 54.251101 42.829899
3997   0  1 25.697818 54.251078 45.685224
11996  0  1 27.125504 55.678696 44.257546
11997  0  1 27.125501 55.678675 47.112862
238    0  1  0.000101 31.408381 48.540263
239    0  1  0.000095 31.408381 51.395592
638    0  1  2.855410 31.408378 48.540239
639    0  1  2.855404 31.408379 51.395567
8218   0  1  1.427749 29.980742 49.967918
1038   0  1  5.710727 31.408372 48.540223
1039   0  1  5.710723 31.408375 51.395550
8618   0  1  4.283061 29.980740 49.967899
9018   0  1  7.138382 29.980737 49.967883
1438   0  1  8.566052 31.408365 48.540207
1439   0  1  8.566051 31.408371 51.395532
1838   0  1 11.421390 31.408356 48.540183
1839   0  1 11.421388 31.408366 51.395509
9418   0  1  9.993714 29.980733 49.967865
2238   0  1 14.276740 31.408348 48.540142
2239   0  1 14.276727 31.408362 51.395480
9818   0  1 12.849054 29.980727 49.967836
10218  0  1 15.704397 29.980721 49.967798
2638   0  1 17.132092 31.408340 48.540089
2639   0  1 17.132058 31.408359 51.395448
10618  0  1 18.559729 29.980713 49.967759
3038   0  1 19.987425 31.408335 48.540038
3039   0  1 19.987372 31.408357 51.395423
3438   0  1 22.842725 31.408334 48.540006
3439   0  1 22.842665 31.408357 51.395409
11018  0  1 21.415039 29.980704 49.967731
11418  0  1 24.270323 29.980696 49.967721
3838   0  1 25.697992 31.408339 48.540004
3839   0  1 25.697939 31.408361 51.395411
11818  0  1 27.125591 29.980692 49.967734
258    0  1  0.000105 34.263661 48.540265
259    0  1  0.000098 34.263659 51.395592
658    0  1  2.855413 34.263652 48.540240
659    0  1  2.855406 34.263652 51.395567
8238   0  1  1.427754 32.836018 49.967914
8258   0  1  1.427755 35.691296 49.967919
1058   0  1  5.710729 34.263642 48.540223
1059   0  1  5.710724 34.263646 51.395549
8638   0  1  4.283067 32.836012 49.967894
8658   0  1  4.283065 35.691286 49.967899
9038   0  1  7.138389 32.836005 49.967878
9058   0  1  7.138384 35.691276 49.967884
1458   0  1  8.566053 34.263631 48.540208
1459   0  1  8.566051 34.263639 51.395531
1858   0  1 11.421388 34.263619 48.540184
1859   0  1 11.421386 34.263633 51.395508
9438   0  1  9.993721 32.835997 49.967858
9458   0  1  9.993712 35.691267 49.967865
2258   0  1 14.276735 34.263608 48.540143
2259   0  1 14.276723 34.263630 51.395478
9838   0  1 12.849063 32.835990 49.967827
9858   0  1 12.849049 35.691260 49.967835
10238  0  1 15.704407 32.835985 49.967786
10258  0  1 15.704386 35.691258 49.967796
2658   0  1 17.132082 34.263604 48.540088
2659   0  1 17.132052 34.263631 51.395446
10638  0  1 18.559738 32.835984 49.967745
10658  0  1 18.559710 35.691265 49.967757
3058   0  1 19.987409 34.263611 48.540037
3059   0  1 19.987363 34.263639 51.395420
3458   0  1 22.842701 34.263631 48.540006
3459   0  1 22.842653 34.263653 51.395408
11038  0  1 21.415045 32.835989 49.967714
11058  0  1 21.415010 35.691283 49.967729
11438  0  1 24.270325 32.836001 49.967704
11458  0  1 24.270290 35.691311 49.967722
3858   0  1 25.697966 34.263662 48.540006
3859   0  1 25.697926 34.263670 51.395412
11838  0  1 27.125587 32.836016 49.967717
11858  0  1 27.125561 35.691340 49.967740
278    0  1  0.000107 37.118946 48.540276
279    0  1  0.000099 37.118942 51.395598
298    0  1  0.000105 39.974241 48.540295
299    0  1  0.000097 39.974234 51.395611
678    0  1  2.855410 37.118932 48.540252
679    0  1  2.855404 37.118931 51.395574
698    0  1  2.855401 39.974225 48.540274
699    0  1  2.855396 39.974221 51.395589
8278   0  1  1.427752 38.546582 49.967932
1078   0  1  5.710721 37.118920 48.540237
1079   0  1  5.710717 37.118922 51.395557
1098   0  1  5.710702 39.974214 48.540263
1099   0  1  5.710701 39.974212 51.395574
8678   0  1  4.283057 38.546570 49.967914
9078   0  1  7.138368 38.546560 49.967901
1478   0  1  8.566038 37.118908 48.540224
1479   0  1  8.566039 37.118915 51.395541
1498   0  1  8.566007 39.974207 48.540257
1499   0  1  8.566014 39.974208 51.395561
1878   0  1 11.421364 37.118897 48.540205
1879   0  1 11.421368 37.118911 51.395519
1898   0  1 11.421318 39.974206 48.540247
1899   0  1 11.421333 39.974208 51.395545
9478   0  1  9.993687 38.546553 49.967886
2278   0  1 14.276699 37.118891 48.540170
2279   0  1 14.276698 37.118911 51.395492
2298   0  1 14.276635 39.974214 48.540226
2299   0  1 14.276652 39.974215 51.395525
9878   0  1 12.849012 38.546551 49.967863
10278  0  1 15.704337 38.546557 49.967832
2678   0  1 17.132031 37.118896 48.540123
2679   0  1 17.132019 37.118918 51.395464
2698   0  1 17.131949 39.974236 48.540196
2699   0  1 17.131966 39.974231 51.395504
10678  0  1 18.559650 38.546575 49.967801
3078   0  1 19.987344 37.118917 48.540080
3079   0  1 19.987324 37.118935 51.395441
3098   0  1 19.987254 39.974271 48.540170
3099   0  1 19.987269 39.974255 51.395489
3478   0  1 22.842633 37.118954 48.540057
3479   0  1 22.842614 37.118959 51.395433
3498   0  1 22.842553 39.974314 48.540161
3499   0  1 22.842565 39.974283 51.395486
11078  0  1 21.414948 38.546604 49.967781
11478  0  1 24.270237 38.546639 49.967781
3878   0  1 25.697911 37.118996 48.540065
3879   0  1 25.697896 37.118985 51.395440
3898   0  1 25.697857 39.974357 48.540177
3899   0  1 25.697862 39.974312 51.395498
11878  0  1 27.125528 38.546673 49.967804
319    0  1  0.000091 42.829537 51.395630
8298   0  1  1.427745 41.401880 49.967953
318    0  1  0.000099 42.829548 48.540321
718    0  1  2.855384 42.829533 48.540305
719    0  1  2.855381 42.829525 51.395610
8318   0  1  1.427732 44.257192 49.967980
8698   0  1  4.283040 41.401868 49.967938
9098   0  1  7.138341 41.401863 49.967930
1118   0  1  5.710673 42.829528 48.540300
1119   0  1  5.710677 42.829519 51.395599
8718   0  1  4.283016 44.257185 49.967969
9118   0  1  7.138304 44.257188 49.967969
9498   0  1  9.993647 41.401865 49.967923
1518   0  1  8.565963 42.829534 48.540304
1519   0  1  8.565979 42.829521 51.395592
1918   0  1 11.421257 42.829551 48.540308
1919   0  1 11.421286 42.829531 51.395584
9518   0  1  9.993597 44.257203 49.967971
9898   0  1 12.848958 41.401875 49.967911
10298  0  1 15.704269 41.401894 49.967893
2318   0  1 14.276557 42.829580 48.540306
2319   0  1 14.276596 42.829548 51.395574
9918   0  1 12.848896 44.257228 49.967973
10318  0  1 15.704201 44.257260 49.967970
10698  0  1 18.559577 41.401923 49.967876
2718   0  1 17.131862 42.829620 48.540298
2719   0  1 17.131905 42.829572 51.395564
10718  0  1 18.559513 44.257295 49.967968
3118   0  1 19.987174 42.829662 48.540291
3119   0  1 19.987213 42.829600 51.395558
11098  0  1 21.414881 41.401957 49.967868
11498  0  1 24.270188 41.401991 49.967875
3518   0  1 22.842493 42.829704 48.540296
3519   0  1 22.842522 42.829628 51.395562
11118  0  1 21.414830 44.257329 49.967971
11518  0  1 24.270155 44.257361 49.967984
11898  0  1 27.125502 41.402024 49.967901
3918   0  1 25.697822 42.829743 48.540317
3919   0  1 25.697836 42.829655 51.395578
11918  0  1 27.125489 44.257390 49.968010
338    0  1  0.000088 45.684868 48.540351
339    0  1  0.000081 45.684854 51.395652
358    0  1  0.000073 48.540197 48.540381
359    0  1  0.000068 48.540182 51.395674
738    0  1  2.855361 45.684857 48.540340
739    0  1  2.855362 45.684844 51.395636
758    0  1  2.855336 48.540193 48.540374
759    0  1  2.855339 48.540175 51.395663
8338   0  1  1.427714 47.112518 49.968009
1138   0  1  5.710637 45.684862 48.540342
1139   0  1  5.710647 45.684844 51.395630
1158   0  1  5.710601 48.540207 48.540382
1159   0  1  5.710615 48.540181 51.395661
8738   0  1  4.282987 47.112516 49.968004
9138   0  1  7.138265 47.112530 49.968009
1538   0  1  8.565914 45.684883 48.540356
1539   0  1  8.565938 45.684855 51.395629
1558   0  1  8.565870 48.540239 48.540402
1559   0  1  8.565899 48.540200 51.395667
1938   0  1 11.421195 45.684919 48.540374
1939   0  1 11.421236 45.684875 51.395631
1958   0  1 11.421149 48.540285 48.540426
1959   0  1 11.421193 48.540226 51.395675
9538   0  1  9.993548 47.112557 49.968021
2338   0  1 14.276488 45.684966 48.540388
2339   0  1 14.276541 45.684901 51.395631
2358   0  1 14.276447 48.540334 48.540447
2359   0  1 14.276499 48.540257 51.395683
9938   0  1 12.848842 47.112592 49.968033
10338  0  1 15.704150 47.112631 49.968042
2738   0  1 17.131798 45.685014 48.540397
2739   0  1 17.131852 45.684930 51.395632
2758   0  1 17.131766 48.540380 48.540464
2759   0  1 17.131816 48.540286 51.395691
10738  0  1 18.559470 47.112667 49.968050
3138   0  1 19.987123 45.685057 48.540405
3139   0  1 19.987169 45.684959 51.395636
3158   0  1 19.987102 48.540418 48.540478
3159   0  1 19.987142 48.540313 51.395700
3538   0  1 22.842460 45.685095 48.540419
3539   0  1 22.842492 45.684986 51.395645
3558   0  1 22.842450 48.540449 48.540493
3559   0  1 22.842476 48.540337 51.395713
11138  0  1 21.414801 47.112699 49.968061
11538  0  1 24.270140 47.112726 49.968077
3938   0  1 25.697808 45.685127 48.540441
3939   0  1 25.697821 45.685009 51.395663
3958   0  1 25.697807 48.540473 48.540512
3959   0  1 25.697816 48.540357 51.395730
11938  0  1 27.125487 47.112749 49.968099
378    0  1  0.000057 51.395532 48.540406
379    0  1  0.000053 51.395517 51.395695
778    0  1  2.855312 51.395532 48.540403
779    0  1  2.855317 51.395513 51.395687
8358   0  1  1.427694 49.967852 49.968036
8378   0  1  1.427676 52.823189 49.968059
1178   0  1  5.710571 51.395550 48.540413
1179   0  1  5.710587 51.395523 51.395688
8758   0  1  4.282959 49.967856 49.968035
8778   0  1  4.282936 52.823196 49.968060
9158   0  1  7.138230 49.967876 49.968045
9178   0  1  7.138206 52.823215 49.968069
1578   0  1  8.565841 51.395583 48.540432
1579   0  1  8.565868 51.395543 51.395696
1978   0  1 11.421126 51.395625 48.540454
1979   0  1 11.421164 51.395570 51.395707
9558   0  1  9.993511 49.967908 49.968060
9578   0  1  9.993490 52.823243 49.968083
2378   0  1 14.276433 51.395666 48.540473
2379   0  1 14.276473 51.395598 51.395718
9958   0  1 12.848808 49.967945 49.968076
9978   0  1 12.848793 52.823273 49.968097
10358  0  1 15.704122 49.967982 49.968090
10378  0  1 15.704113 52.823301 49.968110
2778   0  1 17.131760 51.395702 48.540488
2779   0  1 17.131797 51.395624 51.395728
10758  0  1 18.559451 49.968014 49.968102
10778  0  1 18.559447 52.823326 49.968121
3178   0  1 19.987102 51.395731 48.540501
3179   0  1 19.987130 51.395647 51.395739
3578   0  1 22.842454 51.395753 48.540514
3579   0  1 22.842470 51.395666 51.395752
11158  0  1 21.414790 49.968040 49.968115
11178  0  1 21.414790 52.823346 49.968132
11558  0  1 24.270137 49.968062 49.968130
11578  0  1 24.270140 52.823362 49.968144
3978   0  1 25.697812 51.395771 48.540529
3979   0  1 25.697816 51.395681 51.395766
11958  0  1 27.125489 49.968079 49.968147
11978  0  1 27.125494 52.823374 49.968157
18     0  1  0.000029 57.106194 48.540437
419    0  1  2.855286 57.106186 51.395718
418    0  1  2.855280 57.106193 48.540436
19     0  1  0.000026 57.106189 51.395723
398    0  1  0.000041 54.250865 48.540425
399    0  1  0.000038 54.250854 51.395712
798    0  1  2.855293 54.250866 48.540424
799    0  1  2.855298 54.250852 51.395706
8398   0  1  1.427661 55.678524 49.968074
819    0  1  5.710555 57.106190 51.395719
818    0  1  5.710543 57.106200 48.540442
1198   0  1  5.710553 54.250881 48.540432
1199   0  1  5.710567 54.250860 51.395707
8798   0  1  4.282920 55.678528 49.968075
9198   0  1  7.138192 55.678541 49.968083
1619   0  1 11.421140 57.106208 51.395731
1618   0  1 11.421121 57.106226 48.540462
1219   0  1  8.565839 57.106198 51.395724
1218   0  1  8.565822 57.106212 48.540452
1598   0  1  8.565827 54.250906 48.540447
1599   0  1  8.565849 54.250877 51.395715
1998   0  1 11.421120 54.250936 48.540462
1999   0  1 11.421147 54.250897 51.395724
9598   0  1  9.993481 55.678559 49.968093
2019   0  1 14.276457 57.106219 51.395739
2398   0  1 14.276435 54.250963 48.540476
2399   0  1 14.276462 54.250918 51.395734
9998   0  1 12.848789 55.678577 49.968103
10398  0  1 15.704112 55.678595 49.968112
2419   0  1 17.131787 57.106230 51.395746
2798   0  1 17.131766 54.250987 48.540487
2799   0  1 17.131789 54.250937 51.395744
10798  0  1 18.559449 55.678610 49.968121
3198   0  1 19.987110 54.251006 48.540496
3199   0  1 19.987127 54.250954 51.395753
3598   0  1 22.842462 54.251021 48.540505
3599   0  1 22.842471 54.250968 51.395764
11198  0  1 21.414794 55.678623 49.968129
11598  0  1 24.270144 55.678633 49.968138
3998   0  1 25.697818 54.251032 48.540515
3999   0  1 25.697819 54.250979 51.395776
11998  0  1 27.125497 55.678641 49.968148
240    0  1  0.000081 31.408381 54.250911
640    0  1  2.855394 31.408380 54.250887
8219   0  1  1.427740 29.980743 52.823242
8220   0  1  1.427725 29.980744 55.678556
221    0  1  0.000059 31.408382 57.106220
621    0  1  2.855376 31.408381 57.106196
1040   0  1  5.710716 31.408378 54.250868
8619   0  1  4.283056 29.980742 52.823221
8620   0  1  4.283044 29.980743 55.678535
9019   0  1  7.138380 29.980740 52.823204
9020   0  1  7.138371 29.980742 55.678519
1021   0  1  5.710701 31.408380 57.106178
1440   0  1  8.566046 31.408376 54.250852
1840   0  1 11.421379 31.408373 54.250836
9419   0  1  9.993712 29.980738 52.823187
9420   0  1  9.993703 29.980740 55.678507
1421   0  1  8.566032 31.408379 57.106166
1821   0  1 11.421363 31.408378 57.106159
2240   0  1 14.276709 31.408372 54.250819
9819   0  1 12.849047 29.980734 52.823166
9820   0  1 12.849033 29.980738 55.678496
10219  0  1 15.704376 29.980730 52.823144
10220  0  1 15.704356 29.980735 55.678488
2221   0  1 14.276690 31.408377 57.106156
2640   0  1 17.132030 31.408370 54.250805
10619  0  1 18.559694 29.980725 52.823124
10620  0  1 18.559666 29.980733 55.678483
3040   0  1 19.987335 31.408370 54.250795
2621   0  1 17.132005 31.408377 57.106156
3021   0  1 19.987308 31.408379 57.106158
3440   0  1 22.842625 31.408372 54.250792
11019  0  1 21.414994 29.980720 52.823112
11020  0  1 21.414963 29.980730 55.678481
11419  0  1 24.270279 29.980717 52.823110
11420  0  1 24.270247 29.980729 55.678485
3421   0  1 22.842597 31.408381 57.106163
3840   0  1 25.697903 31.408375 54.250796
11819  0  1 27.125553 29.980715 52.823120
11820  0  1 27.125525 29.980730 55.678494
3821   0  1 25.697876 31.408385 57.106171
260    0  1  0.000084 34.263658 54.250909
660    0  1  2.855396 34.263654 54.250885
8239   0  1  1.427745 32.836018 52.823238
8240   0  1  1.427729 32.836018 55.678552
8259   0  1  1.427746 35.691295 52.823240
8260   0  1  1.427730 35.691296 55.678551
241    0  1  0.000063 34.263658 57.106217
641    0  1  2.855378 34.263656 57.106193
1060   0  1  5.710717 34.263650 54.250866
8639   0  1  4.283060 32.836014 52.823217
8640   0  1  4.283048 32.836016 55.678531
8659   0  1  4.283059 35.691288 52.823219
8660   0  1  4.283047 35.691292 55.678530
9039   0  1  7.138385 32.836010 52.823200
9040   0  1  7.138375 32.836014 55.678515
9059   0  1  7.138381 35.691282 52.823202
9060   0  1  7.138371 35.691289 55.678514
1041   0  1  5.710702 34.263655 57.106175
1460   0  1  8.566046 34.263647 54.250849
1860   0  1 11.421378 34.263645 54.250833
9439   0  1  9.993718 32.836006 52.823181
9440   0  1  9.993707 32.836013 55.678502
9459   0  1  9.993710 35.691278 52.823184
9460   0  1  9.993700 35.691288 55.678501
1441   0  1  8.566031 34.263654 57.106163
1841   0  1 11.421362 34.263654 57.106155
2260   0  1 14.276707 34.263645 54.250816
9839   0  1 12.849053 32.836003 52.823159
9840   0  1 12.849038 32.836012 55.678491
9859   0  1 12.849042 35.691276 52.823162
9860   0  1 12.849029 35.691289 55.678490
10239  0  1 15.704383 32.836002 52.823135
10240  0  1 15.704361 32.836013 55.678482
10259  0  1 15.704369 35.691279 52.823139
10260  0  1 15.704349 35.691294 55.678481
2241   0  1 14.276687 34.263656 57.106152
2660   0  1 17.132025 34.263649 54.250802
10639  0  1 18.559700 32.836004 52.823114
10640  0  1 18.559671 32.836016 55.678476
10659  0  1 18.559682 35.691287 52.823119
10660  0  1 18.559658 35.691302 55.678476
3060   0  1 19.987329 34.263656 54.250792
2641   0  1 17.132002 34.263661 57.106152
3041   0  1 19.987304 34.263668 57.106155
3460   0  1 22.842619 34.263666 54.250790
11039  0  1 21.414999 32.836009 52.823102
11040  0  1 21.414966 32.836021 55.678475
11059  0  1 21.414978 35.691301 52.823108
11060  0  1 21.414954 35.691314 55.678476
11439  0  1 24.270281 32.836017 52.823100
11440  0  1 24.270250 32.836027 55.678479
11459  0  1 24.270262 35.691319 52.823108
11460  0  1 24.270240 35.691326 55.678481
3441   0  1 22.842594 34.263677 57.106160
3860   0  1 25.697897 34.263678 54.250796
11839  0  1 27.125552 32.836026 52.823110
11840  0  1 27.125526 32.836034 55.678488
11859  0  1 27.125539 35.691336 52.823121
11860  0  1 27.125521 35.691337 55.678493
3841   0  1 25.697875 34.263685 57.106169
280    0  1  0.000085 37.118940 54.250912
300    0  1  0.000083 39.974230 54.250918
680    0  1  2.855394 37.118933 54.250888
700    0  1  2.855386 39.974221 54.250895
8279   0  1  1.427743 38.546579 52.823248
8280   0  1  1.427728 38.546579 55.678554
261    0  1  0.000064 37.118939 57.106216
281    0  1  0.000062 39.974229 57.106216
661    0  1  2.855376 37.118936 57.106192
681    0  1  2.855369 39.974224 57.106193
1080   0  1  5.710711 37.118927 54.250869
1100   0  1  5.710697 39.974215 54.250878
8679   0  1  4.283051 38.546571 52.823228
8680   0  1  4.283040 38.546574 55.678533
9079   0  1  7.138367 38.546564 52.823212
9080   0  1  7.138359 38.546572 55.678517
1061   0  1  5.710695 37.118934 57.106174
1081   0  1  5.710682 39.974222 57.106175
1480   0  1  8.566035 37.118924 54.250853
1500   0  1  8.566014 39.974213 54.250864
1880   0  1 11.421363 37.118923 54.250837
1900   0  1 11.421335 39.974216 54.250850
9479   0  1  9.993690 38.546561 52.823195
9480   0  1  9.993683 38.546572 55.678504
1461   0  1  8.566021 37.118933 57.106162
1481   0  1  8.566002 39.974223 57.106163
1861   0  1 11.421348 37.118935 57.106154
1881   0  1 11.421323 39.974227 57.106156
2280   0  1 14.276687 37.118926 54.250822
2300   0  1 14.276653 39.974223 54.250838
9879   0  1 12.849015 38.546563 52.823177
9880   0  1 12.849006 38.546576 55.678494
10279  0  1 15.704334 38.546571 52.823157
10280  0  1 15.704323 38.546584 55.678487
2261   0  1 14.276670 37.118941 57.106151
2281   0  1 14.276642 39.974236 57.106154
2680   0  1 17.132002 37.118935 54.250809
2700   0  1 17.131965 39.974237 54.250828
10679  0  1 18.559643 38.546585 52.823141
10680  0  1 18.559631 38.546597 55.678484
3080   0  1 19.987305 37.118949 54.250801
3100   0  1 19.987268 39.974255 54.250823
2661   0  1 17.131984 37.118950 57.106151
2681   0  1 17.131954 39.974248 57.106155
3061   0  1 19.987286 37.118961 57.106155
3081   0  1 19.987259 39.974263 57.106160
3480   0  1 22.842596 37.118966 54.250801
3500   0  1 22.842565 39.974275 54.250826
11079  0  1 21.414940 38.546606 52.823134
11080  0  1 21.414929 38.546613 55.678486
11479  0  1 24.270230 38.546629 52.823137
11480  0  1 24.270221 38.546629 55.678493
3461   0  1 22.842580 37.118974 57.106162
3481   0  1 22.842558 39.974278 57.106169
3880   0  1 25.697881 37.118982 54.250809
3900   0  1 25.697860 39.974293 54.250837
11879  0  1 27.125520 38.546650 52.823153
11880  0  1 27.125511 38.546642 55.678506
3861   0  1 25.697867 37.118985 57.106172
3881   0  1 25.697855 39.974290 57.106181
8299   0  1  1.427736 41.401875 52.823261
8300   0  1  1.427721 41.401873 55.678559
320    0  1  0.000078 42.829531 54.250929
720    0  1  2.855373 42.829522 54.250907
8319   0  1  1.427724 44.257183 52.823278
8320   0  1  1.427711 44.257180 55.678568
301    0  1  0.000058 42.829529 57.106219
701    0  1  2.855357 42.829524 57.106197
8699   0  1  4.283037 41.401866 52.823242
8700   0  1  4.283026 41.401868 55.678539
9099   0  1  7.138344 41.401862 52.823229
9100   0  1  7.138338 41.401867 55.678525
1120   0  1  5.710675 42.829518 54.250892
8719   0  1  4.283016 44.257177 52.823263
8720   0  1  4.283008 44.257176 55.678550
9119   0  1  7.138314 44.257178 52.823254
9120   0  1  7.138312 44.257177 55.678537
1101   0  1  5.710663 42.829523 57.106180
9499   0  1  9.993658 41.401863 52.823217
9500   0  1  9.993655 41.401870 55.678514
1520   0  1  8.565984 42.829519 54.250881
1920   0  1 11.421297 42.829526 54.250871
9519   0  1  9.993617 44.257186 52.823248
9520   0  1  9.993621 44.257184 55.678529
1501   0  1  8.565975 42.829527 57.106169
1901   0  1 11.421291 42.829534 57.106163
9899   0  1 12.848974 41.401871 52.823204
9900   0  1 12.848972 41.401877 55.678506
10299  0  1 15.704287 41.401885 52.823191
10300  0  1 15.704286 41.401889 55.678501
2320   0  1 14.276610 42.829539 54.250864
9919   0  1 12.848925 44.257201 52.823242
9920   0  1 12.848933 44.257195 55.678524
10319  0  1 15.704235 44.257221 52.823237
10320  0  1 15.704245 44.257210 55.678522
2301   0  1 14.276606 42.829545 57.106161
10699  0  1 18.559594 41.401905 52.823181
10700  0  1 18.559595 41.401905 55.678501
2720   0  1 17.131920 42.829557 54.250859
10719  0  1 18.559546 44.257244 52.823235
10720  0  1 18.559557 44.257228 55.678525
3120   0  1 19.987228 42.829577 54.250859
3101   0  1 19.987228 42.829575 57.106171
2701   0  1 17.131918 42.829560 57.106164
11099  0  1 21.414896 41.401929 52.823179
11100  0  1 21.414898 41.401923 55.678505
11499  0  1 24.270198 41.401953 52.823186
11500  0  1 24.270199 41.401939 55.678514
3520   0  1 22.842534 42.829597 54.250865
11119  0  1 21.414858 44.257268 52.823238
11120  0  1 21.414868 44.257245 55.678532
11519  0  1 24.270172 44.257291 52.823249
11520  0  1 24.270180 44.257261 55.678543
3501   0  1 22.842535 42.829590 57.106181
11899  0  1 27.125503 41.401974 52.823205
11900  0  1 27.125502 41.401953 55.678529
3920   0  1 25.697842 42.829615 54.250878
11919  0  1 27.125493 44.257311 52.823268
11920  0  1 27.125494 44.257274 55.678559
3901   0  1 25.697843 42.829602 57.106194
340    0  1  0.000069 45.684845 54.250942
360    0  1  0.000057 48.540171 54.250956
740    0  1  2.855356 45.684837 54.250923
760    0  1  2.855336 48.540165 54.250941
8339   0  1  1.427709 47.112506 52.823298
8340   0  1  1.427697 47.112500 55.678578
321    0  1  0.000050 45.684842 57.106223
721    0  1  2.855342 45.684838 57.106203
741    0  1  2.855324 48.540164 57.106211
341    0  1  0.000040 48.540168 57.106229
1140   0  1  5.710649 45.684836 54.250911
1160   0  1  5.710621 48.540168 54.250932
8739   0  1  4.282991 47.112502 52.823287
8740   0  1  4.282986 47.112498 55.678563
9139   0  1  7.138280 47.112509 52.823283
9140   0  1  7.138281 47.112502 55.678553
1121   0  1  5.710640 45.684839 57.106188
1141   0  1  5.710614 48.540167 57.106197
1540   0  1  8.565949 45.684842 54.250904
1560   0  1  8.565914 48.540178 54.250929
1940   0  1 11.421255 45.684855 54.250899
1960   0  1 11.421216 48.540195 54.250929
9539   0  1  9.993576 47.112524 52.823283
9540   0  1  9.993584 47.112513 55.678548
1521   0  1  8.565944 45.684845 57.106178
1541   0  1  8.565912 48.540176 57.106189
1921   0  1 11.421254 45.684855 57.106173
1941   0  1 11.421219 48.540188 57.106185
2340   0  1 14.276565 45.684872 54.250897
2360   0  1 14.276526 48.540214 54.250931
9939   0  1 12.848880 47.112545 52.823284
9940   0  1 12.848893 47.112527 55.678546
10339  0  1 15.704191 47.112569 52.823286
10340  0  1 15.704207 47.112544 55.678548
2321   0  1 14.276568 45.684869 57.106173
2341   0  1 14.276532 48.540203 57.106187
2740   0  1 17.131878 45.684892 54.250897
2760   0  1 17.131843 48.540234 54.250936
10739  0  1 18.559507 47.112593 52.823291
10740  0  1 18.559524 47.112561 55.678553
3140   0  1 19.987192 45.684912 54.250902
3160   0  1 19.987165 48.540254 54.250944
2721   0  1 17.131882 45.684884 57.106177
2741   0  1 17.131851 48.540218 57.106192
3121   0  1 19.987198 45.684899 57.106185
3141   0  1 19.987173 48.540232 57.106201
3540   0  1 22.842509 45.684931 54.250911
3560   0  1 22.842492 48.540271 54.250955
11139  0  1 21.414829 47.112616 52.823299
11140  0  1 21.414843 47.112578 55.678562
11539  0  1 24.270156 47.112636 52.823312
11540  0  1 24.270165 47.112592 55.678575
3521   0  1 22.842515 45.684913 57.106196
3541   0  1 22.842499 48.540245 57.106213
3940   0  1 25.697829 45.684948 54.250926
3960   0  1 25.697822 48.540285 54.250970
11939  0  1 27.125488 47.112653 52.823330
11940  0  1 27.125491 47.112604 55.678590
3921   0  1 25.697833 45.684924 57.106210
3941   0  1 25.697826 48.540255 57.106227
380    0  1  0.000043 51.395506 54.250971
780    0  1  2.855315 51.395502 54.250958
8359   0  1  1.427691 49.967838 52.823319
8360   0  1  1.427681 49.967832 55.678590
8379   0  1  1.427674 52.823177 52.823337
8380   0  1  1.427665 52.823171 55.678602
761    0  1  2.855305 51.395500 57.106220
1180   0  1  5.710595 51.395507 54.250952
8759   0  1  4.282965 49.967839 52.823311
8760   0  1  4.282962 49.967831 55.678577
8779   0  1  4.282943 52.823179 52.823331
8780   0  1  4.282941 52.823171 55.678591
9159   0  1  7.138247 49.967849 52.823310
9160   0  1  7.138252 49.967838 55.678570
9179   0  1  7.138222 52.823190 52.823332
9180   0  1  7.138227 52.823178 55.678585
1161   0  1  5.710590 51.395504 57.106208
1580   0  1  8.565884 51.395519 54.250951
1980   0  1 11.421185 51.395536 54.250954
9559   0  1  9.993540 49.967868 52.823314
9560   0  1  9.993551 49.967851 55.678567
9579   0  1  9.993514 52.823208 52.823338
9580   0  1  9.993524 52.823190 55.678584
1561   0  1  8.565884 51.395514 57.106201
1961   0  1 11.421189 51.395527 57.106198
10380  0  1 15.704153 52.823219 55.678592
10379  0  1 15.704140 52.823249 52.823354
10360  0  1 15.704175 49.967883 55.678572
10359  0  1 15.704159 49.967916 52.823327
9980   0  1 12.848834 52.823205 55.678586
9979   0  1 12.848821 52.823228 52.823345
9960   0  1 12.848859 49.967867 55.678568
2380   0  1 14.276498 51.395555 54.250959
9959   0  1 12.848844 49.967892 52.823320
2361   0  1 14.276504 51.395541 57.106201
3180   0  1 19.987148 51.395590 54.250976
10780  0  1 18.559481 52.823233 55.678600
10779  0  1 18.559469 52.823267 52.823363
10760  0  1 18.559498 49.967900 55.678580
10759  0  1 18.559482 49.967938 52.823336
2780   0  1 17.131819 51.395574 54.250966
2761   0  1 17.131827 51.395555 57.106207
3161   0  1 19.987155 51.395568 57.106216
11580  0  1 24.270152 52.823257 55.678623
11579  0  1 24.270147 52.823297 52.823387
11560  0  1 24.270156 49.967927 55.678603
11559  0  1 24.270149 49.967975 52.823360
11180  0  1 21.414814 52.823246 55.678610
11179  0  1 21.414805 52.823283 52.823374
11160  0  1 21.414825 49.967914 55.678590
11159  0  1 21.414813 49.967958 52.823347
3580   0  1 22.842482 51.395605 54.250988
3561   0  1 22.842488 51.395578 57.106227
11980  0  1 27.125491 52.823265 55.678636
11979  0  1 27.125492 52.823308 52.823400
11960  0  1 27.125490 49.967937 55.678618
11959  0  1 27.125489 49.967989 52.823377
3980   0  1 25.697820 51.395617 54.251002
420    0  1  2.855285 57.106183 54.250983
20     0  1  0.000019 57.106186 54.250992
8400   0  1  1.427652 55.678513 55.678612
8399   0  1  1.427659 55.678516 52.823350
800    0  1  2.855298 54.250843 54.250972
400    0  1  0.000030 54.250846 54.250983
781    0  1  2.855289 54.250841 57.106228
820    0  1  5.710560 57.106184 54.250978
9200   0  1  7.138209 55.678517 55.678597
9199   0  1  7.138205 55.678525 52.823347
8800   0  1  4.282925 55.678512 55.678602
8799   0  1  4.282927 55.678517 52.823346
1200   0  1  5.710574 54.250847 54.250968
801    0  1  5.710556 57.106184 57.106225
1181   0  1  5.710570 54.250845 57.106217
1620   0  1 11.421153 57.106196 54.250981
1220   0  1  8.565849 57.106189 54.250978
9600   0  1  9.993507 55.678525 55.678596
9599   0  1  9.993499 55.678537 52.823351
2000   0  1 11.421164 54.250871 54.250971
1600   0  1  8.565862 54.250857 54.250968
1201   0  1  8.565849 57.106188 57.106220
1601   0  1 11.421155 57.106194 57.106218
1581   0  1  8.565862 54.250852 57.106211
1981   0  1 11.421168 54.250863 57.106210
2020   0  1 14.276470 57.106205 54.250987
10400  0  1 15.704140 55.678546 55.678604
10399  0  1 15.704130 55.678564 52.823366
10000  0  1 12.848818 55.678535 55.678598
9999   0  1 12.848808 55.678550 52.823358
2400   0  1 14.276480 54.250886 54.250977
2001   0  1 14.276474 57.106201 57.106221
2381   0  1 14.276485 54.250875 57.106212
2820   0  1 19.987135 57.106221 54.251003
2420   0  1 17.131798 57.106213 54.250994
3200   0  1 19.987139 54.250914 54.250995
10800  0  1 18.559471 55.678556 55.678613
10799  0  1 18.559463 55.678577 52.823375
2800   0  1 17.131805 54.250901 54.250985
2401   0  1 17.131802 57.106208 57.106228
2781   0  1 17.131811 54.250886 57.106219
3181   0  1 19.987144 54.250897 57.106228
11600  0  1 24.270150 55.678574 55.678634
3220   0  1 22.842476 57.106229 54.251014
11599  0  1 24.270147 55.678597 52.823395
11200  0  1 21.414809 55.678566 55.678623
3600   0  1 22.842478 54.250925 54.251006
11199  0  1 21.414803 55.678588 52.823384
12000  0  1 27.125493 55.678581 55.678646
11999  0  1 27.125494 55.678605 52.823406
4000   0  1 25.697820 54.250935 54.251018
4001   0  1 28.553166  0.000002  0.000040
4022   0  1 28.553168  2.855316  2.855280
4401   0  1 31.408509  0.000006  0.000052
4402   0  1 31.408509  0.000015  2.855281
4421   0  1 31.408510  2.855308  0.000060
4422   0  1 31.408509  2.855321  2.855294
12001  0  1 29.980838  1.427660  1.427666
12002  0  1 29.980840  1.427675  4.282896
4002   0  1 28.553166  0.000011  2.855268
4021   0  1 28.553167  2.855304  0.000048
4801   0  1 34.263849  0.000009  0.000063
4802   0  1 34.263847  0.000017  2.855293
4821   0  1 34.263850  2.855313  0.000071
4822   0  1 34.263846  2.855326  2.855307
12401  0  1 32.836179  1.427665  1.427678
12402  0  1 32.836180  1.427679  4.282910
12801  0  1 35.691515  1.427668  1.427689
12802  0  1 35.691515  1.427682  4.282923
5201   0  1 37.119184  0.000010  0.000072
5202   0  1 37.119180  0.000018  2.855304
5221   0  1 37.119184  2.855316  0.000080
5222   0  1 37.119177  2.855330  2.855319
5601   0  1 39.974512  0.000008  0.000077
5602   0  1 39.974504  0.000016  2.855313
5621   0  1 39.974510  2.855319  0.000086
5622   0  1 39.974500  2.855333  2.855327
13201  0  1 38.546845  1.427669  1.427698
13202  0  1 38.546842  1.427684  4.282934
6001   0  1 42.829829  0.000004  0.000079
6002   0  1 42.829818  0.000011  2.855318
6021   0  1 42.829826  2.855319  0.000087
6022   0  1 42.829812  2.855334  2.855332
13601  0  1 41.402165  1.427668  1.427703
13602  0  1 41.402159  1.427682  4.282942
14001  0  1 44.257473  1.427665  1.427703
14002  0  1 44.257464  1.427678  4.282947
6402   0  1 45.685120  0.000002  2.855318
6421   0  1 45.685129  2.855318  0.000082
6422   0  1 45.685112  2.855332  2.855331
6821   0  1 48.540418  2.855315  0.000072
6822   0  1 48.540399  2.855327  2.855325
14401  0  1 47.112769  1.427659  1.427698
14402  0  1 47.112757  1.427671  4.282946
7221   0  1 51.395695  2.855310  0.000058
7222   0  1 51.395676  2.855320  2.855312
14801  0  1 49.968052  1.427650  1.427688
14802  0  1 49.968037  1.427661  4.282939
15201  0  1 52.823324  1.427641  1.427673
15202  0  1 52.823308  1.427650  4.282926
7621   0  1 54.250964  2.855304  0.000041
7622   0  1 54.250945  2.855311  2.855295
15601  0  1 55.678592  1.427633  1.427656
15602  0  1 55.678574  1.427640  4.282909
21     0  1 57.106231  2.855297  0.000023
22     0  1 57.106213  2.855303  2.855275
4042   0  1 28.553167  5.710616  2.855292
4441   0  1 31.408507  5.710605  0.000068
4442   0  1 31.408507  5.710623  2.855308
12021  0  1 29.980838  4.282962  1.427676
12022  0  1 29.980840  4.282974  4.282912
12041  0  1 29.980835  7.138262  1.427685
12042  0  1 29.980838  7.138273  4.282928
4041   0  1 28.553165  5.710600  0.000055
4841   0  1 34.263846  5.710610  0.000080
4842   0  1 34.263842  5.710630  2.855322
12421  0  1 32.836178  4.282968  1.427689
12422  0  1 32.836178  4.282981  4.282928
12441  0  1 32.836172  7.138269  1.427699
12442  0  1 32.836172  7.138283  4.282944
12821  0  1 35.691512  4.282973  1.427701
12822  0  1 35.691510  4.282989  4.282942
12841  0  1 35.691505  7.138277  1.427712
12842  0  1 35.691500  7.138294  4.282959
5241   0  1 37.119179  5.710617  0.000090
5242   0  1 37.119170  5.710638  2.855334
5641   0  1 39.974504  5.710624  0.000096
5642   0  1 39.974490  5.710646  2.855343
13221  0  1 38.546840  4.282979  1.427710
13222  0  1 38.546834  4.282995  4.282953
13241  0  1 38.546831  7.138286  1.427722
13242  0  1 38.546821  7.138305  4.282972
6042   0  1 42.829801  5.710652  2.855348
13621  0  1 41.402159  4.282983  1.427715
13622  0  1 41.402149  4.283000  4.282962
13641  0  1 41.402148  7.138295  1.427728
13642  0  1 41.402133  7.138316  4.282981
14021  0  1 44.257466  4.282986  1.427715
14022  0  1 44.257452  4.283002  4.282965
14041  0  1 44.257455  7.138303  1.427728
14042  0  1 44.257435  7.138324  4.282984
6041   0  1 42.829819  5.710630  0.000097
6441   0  1 45.685121  5.710636  0.000093
6442   0  1 45.685100  5.710657  2.855346
6841   0  1 48.540411  5.710640  0.000081
6842   0  1 48.540388  5.710658  2.855338
14421  0  1 47.112761  4.282986  1.427710
14422  0  1 47.112744  4.283001  4.282962
14441  0  1 47.112750  7.138310  1.427722
14442  0  1 47.112728  7.138329  4.282980
7241   0  1 51.395689  5.710642  0.000065
7242   0  1 51.395666  5.710655  2.855323
14821  0  1 49.968043  4.282984  1.427698
14822  0  1 49.968025  4.282997  4.282953
14841  0  1 49.968034  7.138314  1.427708
14842  0  1 49.968011  7.138329  4.282968
15221  0  1 52.823317  4.282980  1.427681
15222  0  1 52.823297  4.282989  4.282936
15241  0  1 52.823310  7.138314  1.427689
15242  0  1 52.823287  7.138324  4.282948
7641   0  1 54.250959  5.710640  0.000046
7642   0  1 54.250938  5.710650  2.855303
15621  0  1 55.678585  4.282974  1.427662
15622  0  1 55.678566  4.282979  4.282916
15641  0  1 55.678582  7.138310  1.427667
15642  0  1 55.678560  7.138315  4.282925
41     0  1 57.106227  5.710636  0.000027
42     0  1 57.106208  5.710641  2.855281
4061   0  1 28.553162  8.565898  0.000060
4062   0  1 28.553165  8.565917  2.855302
4081   0  1 28.553156 11.421204  0.000057
4082   0  1 28.553160 11.421225  2.855307
4461   0  1 31.408501  8.565902  0.000074
4462   0  1 31.408501  8.565925  2.855318
4481   0  1 31.408493 11.421208  0.000073
4482   0  1 31.408491 11.421233  2.855324
12061  0  1 29.980829  9.993566  1.427689
12062  0  1 29.980832  9.993575  4.282939
4861   0  1 34.263838  8.565909  0.000087
4862   0  1 34.263832  8.565935  2.855334
4881   0  1 34.263827 11.421215  0.000088
4882   0  1 34.263818 11.421245  2.855341
12461  0  1 32.836163  9.993573  1.427705
12462  0  1 32.836162  9.993588  4.282957
12861  0  1 35.691493  9.993583  1.427719
12862  0  1 35.691486  9.993602  4.282973
5261   0  1 37.119170  8.565918  0.000099
5262   0  1 37.119158  8.565946  2.855347
5281   0  1 37.119157 11.421225  0.000102
5282   0  1 37.119140 11.421258  2.855356
5661   0  1 39.974495  8.565928  0.000106
5662   0  1 39.974476  8.565958  2.855358
5681   0  1 39.974481 11.421237  0.000111
5682   0  1 39.974456 11.421273  2.855368
13261  0  1 38.546817  9.993595  1.427731
13262  0  1 38.546803  9.993618  4.282988
6061   0  1 42.829809  8.565940  0.000108
6062   0  1 42.829785  8.565970  2.855363
6081   0  1 42.829796 11.421252  0.000115
6082   0  1 42.829765 11.421287  2.855374
13661  0  1 41.402133  9.993607  1.427739
13662  0  1 41.402113  9.993632  4.282998
14061  0  1 44.257440  9.993620  1.427739
14062  0  1 44.257415  9.993645  4.283001
6461   0  1 45.685112  8.565952  0.000103
6462   0  1 45.685084  8.565979  2.855361
6481   0  1 45.685101 11.421268  0.000110
6482   0  1 45.685067 11.421299  2.855373
6861   0  1 48.540403  8.565962  0.000090
6862   0  1 48.540374  8.565985  2.855351
6881   0  1 48.540395 11.421283  0.000097
6882   0  1 48.540361 11.421308  2.855363
14461  0  1 47.112738  9.993631  1.427732
14462  0  1 47.112710  9.993653  4.282996
7261   0  1 51.395683  8.565970  0.000072
7262   0  1 51.395656  8.565986  2.855334
7281   0  1 51.395679 11.421294  0.000076
7282   0  1 51.395648 11.421312  2.855344
14861  0  1 49.968025  9.993640  1.427717
14862  0  1 49.967997  9.993656  4.282982
15261  0  1 52.823305  9.993644  1.427695
15262  0  1 52.823279  9.993654  4.282960
7661   0  1 54.250957  8.565973  0.000050
7662   0  1 54.250932  8.565983  2.855311
7681   0  1 54.250957 11.421301  0.000051
7682   0  1 54.250930 11.421311  2.855319
15661  0  1 55.678582  9.993642  1.427671
15662  0  1 55.678557  9.993646  4.282933
62     0  1 57.106207  8.565976  2.855287
82     0  1 57.106211 11.421305  2.855291
61     0  1 57.106229  8.565971  0.000029
12081  0  1 29.980820 12.848877  1.427688
12082  0  1 29.980824 12.848885  4.282948
4101   0  1 28.553151 14.276519  0.000046
4102   0  1 28.553153 14.276538  2.855310
4502   0  1 31.408478 14.276548  2.855326
12101  0  1 29.980810 15.704194  1.427681
12102  0  1 29.980811 15.704200  4.282957
4501   0  1 31.408481 14.276522  0.000063
12481  0  1 32.836150 12.848885  1.427704
12482  0  1 32.836148 12.848899  4.282966
12881  0  1 35.691476 12.848895  1.427720
12882  0  1 35.691467 12.848916  4.282983
4901   0  1 34.263811 14.276528  0.000080
4902   0  1 34.263800 14.276560  2.855343
12902  0  1 35.691443 15.704232  4.282991
12901  0  1 35.691456 15.704212  1.427715
12501  0  1 32.836134 15.704202  1.427698
12502  0  1 32.836129 15.704215  4.282974
5301   0  1 37.119139 14.276539  0.000097
5302   0  1 37.119119 14.276574  2.855359
13281  0  1 38.546798 12.848908  1.427734
13282  0  1 38.546781 12.848933  4.282999
5702   0  1 39.974433 14.276589  2.855373
13301  0  1 38.546776 15.704225  1.427731
13302  0  1 38.546754 15.704249  4.283007
5701   0  1 39.974463 14.276552  0.000109
13681  0  1 41.402115 12.848923  1.427744
13682  0  1 41.402089 12.848949  4.283010
14081  0  1 44.257423 12.848937  1.427746
14082  0  1 44.257393 12.848963  4.283014
6101   0  1 42.829780 14.276567  0.000116
6102   0  1 42.829743 14.276604  2.855381
13701  0  1 41.402092 15.704239  1.427743
13702  0  1 41.402063 15.704265  4.283019
14101  0  1 44.257404 15.704253  1.427747
14102  0  1 44.257369 15.704278  4.283024
14481  0  1 47.112724 12.848950  1.427739
14482  0  1 47.112691 12.848973  4.283010
6501   0  1 45.685088 14.276584  0.000112
6502   0  1 45.685048 14.276616  2.855381
6901   0  1 48.540385 14.276600  0.000099
6902   0  1 48.540347 14.276626  2.855370
14501  0  1 47.112709 15.704266  1.427742
14502  0  1 47.112673 15.704287  4.283019
14881  0  1 49.968016 12.848961  1.427723
14882  0  1 49.967985 12.848977  4.282995
15281  0  1 52.823302 12.848967  1.427700
15282  0  1 52.823273 12.848977  4.282971
7302   0  1 51.395640 14.276631  2.855351
14901  0  1 49.968007 15.704277  1.427726
14902  0  1 49.967973 15.704292  4.283004
15301  0  1 52.823300 15.704284  1.427701
15302  0  1 52.823269 15.704292  4.282980
7301   0  1 51.395674 14.276614  0.000076
15681  0  1 55.678585 12.848968  1.427673
15682  0  1 55.678558 12.848970  4.282942
7701   0  1 54.250958 14.276623  0.000050
7702   0  1 54.250929 14.276632  2.855324
15702  0  1 55.678561 15.704288  4.282949
15701  0  1 55.678589 15.704287  1.427673
102    0  1 57.106217 14.276627  2.855295
4121   0  1 28.553146 17.131838  0.000027
4122   0  1 28.553145 17.131855  2.855311
4141   0  1 28.553143 19.987157  0.000006
4142   0  1 28.553137 19.987171  2.855313
4521   0  1 31.408469 17.131841  0.000045
4522   0  1 31.408462 17.131865  2.855327
4541   0  1 31.408457 19.987159  0.000023
4542   0  1 31.408445 19.987180  2.855327
12121  0  1 29.980800 18.559512  1.427671
12122  0  1 29.980796 18.559517  4.282968
12922  0  1 35.691416 18.559548  4.282998
12921  0  1 35.691432 18.559529  1.427706
4921   0  1 34.263793 17.131847  0.000064
4922   0  1 34.263778 17.131877  2.855343
4941   0  1 34.263774 19.987166  0.000044
4942   0  1 34.263755 19.987192  2.855342
12521  0  1 32.836116 18.559519  1.427688
12522  0  1 32.836107 18.559532  4.282983
5321   0  1 37.119118 17.131857  0.000084
5322   0  1 37.119093 17.131891  2.855359
5341   0  1 37.119094 19.987175  0.000066
5342   0  1 37.119066 19.987204  2.855358
5721   0  1 39.974441 17.131869  0.000100
5722   0  1 39.974407 17.131905  2.855374
5741   0  1 39.974416 19.987185  0.000086
5742   0  1 39.974380 19.987215  2.855372
13321  0  1 38.546750 18.559541  1.427723
13322  0  1 38.546725 18.559563  4.283013
6122   0  1 42.829719 17.131917  2.855383
6141   0  1 42.829738 19.987197  0.000099
6142   0  1 42.829695 19.987225  2.855382
13721  0  1 41.402068 18.559553  1.427737
13722  0  1 41.402036 18.559576  4.283024
14121  0  1 44.257383 18.559564  1.427744
14122  0  1 44.257347 18.559586  4.283029
6121   0  1 42.829760 17.131884  0.000110
6521   0  1 45.685072 17.131899  0.000109
6522   0  1 45.685029 17.131928  2.855384
6541   0  1 45.685055 19.987209  0.000102
6542   0  1 45.685010 19.987233  2.855384
6921   0  1 48.540375 17.131914  0.000097
6922   0  1 48.540334 17.131937  2.855375
6941   0  1 48.540365 19.987222  0.000091
6942   0  1 48.540322 19.987240  2.855376
14521  0  1 47.112694 18.559575  1.427740
14522  0  1 47.112657 18.559593  4.283025
7321   0  1 51.395670 17.131927  0.000074
7322   0  1 51.395634 17.131942  2.855355
7341   0  1 51.395666 19.987233  0.000069
7342   0  1 51.395630 19.987245  2.855356
14921  0  1 49.967999 18.559585  1.427725
14922  0  1 49.967964 18.559597  4.283010
15321  0  1 52.823298 18.559592  1.427700
15322  0  1 52.823267 18.559599  4.282986
15722  0  1 55.678566 18.559596  4.282955
15721  0  1 55.678595 18.559595  1.427672
7721   0  1 54.250961 17.131936  0.000046
7722   0  1 54.250930 17.131944  2.855328
7741   0  1 54.250964 19.987241  0.000041
7742   0  1 54.250933 19.987247  2.855329
122    0  1 57.106225 17.131941  2.855298
4162   0  1 28.553131 22.842482  2.855315
4561   0  1 31.408447 22.842474  0.000002
4562   0  1 31.408430 22.842491  2.855327
12141  0  1 29.980791 21.414826  1.427661
12142  0  1 29.980780 21.414832  4.282981
12161  0  1 29.980784 24.270135  1.427652
12162  0  1 29.980767 24.270142  4.282992
12962  0  1 35.691363 24.270162  4.283012
12961  0  1 35.691387 24.270149  1.427685
12942  0  1 35.691388 21.414859  4.283005
12941  0  1 35.691409 21.414842  1.427695
4961   0  1 34.263755 22.842480  0.000023
4962   0  1 34.263732 22.842501  2.855341
12562  0  1 32.836062 24.270152  4.283002
12561  0  1 32.836082 24.270141  1.427667
12541  0  1 32.836098 21.414833  1.427677
12542  0  1 32.836083 21.414846  4.282993
5361   0  1 37.119070 22.842488  0.000047
5362   0  1 37.119040 22.842510  2.855355
5761   0  1 39.974392 22.842496  0.000069
5762   0  1 39.974355 22.842518  2.855369
13341  0  1 38.546724 21.414852  1.427713
13342  0  1 38.546697 21.414870  4.283018
13361  0  1 38.546701 24.270156  1.427703
13362  0  1 38.546672 24.270168  4.283021
6161   0  1 42.829717 22.842504  0.000086
6162   0  1 42.829674 22.842524  2.855379
13741  0  1 41.402044 21.414861  1.427729
13742  0  1 41.402010 21.414879  4.283028
13761  0  1 41.402022 24.270162  1.427720
13762  0  1 41.401989 24.270173  4.283029
14141  0  1 44.257363 21.414870  1.427738
14142  0  1 44.257326 21.414885  4.283032
14161  0  1 44.257346 24.270167  1.427730
14162  0  1 44.257310 24.270176  4.283032
6561   0  1 45.685039 22.842513  0.000092
6562   0  1 45.684994 22.842529  2.855382
6961   0  1 48.540355 22.842522  0.000084
6962   0  1 48.540313 22.842534  2.855374
14541  0  1 47.112681 21.414878  1.427736
14542  0  1 47.112642 21.414890  4.283028
14561  0  1 47.112669 24.270172  1.427730
14562  0  1 47.112632 24.270178  4.283028
7361   0  1 51.395664 22.842530  0.000063
7362   0  1 51.395627 22.842538  2.855356
14941  0  1 49.967992 21.414885  1.427722
14942  0  1 49.967957 21.414894  4.283014
14961  0  1 49.967987 24.270176  1.427717
14962  0  1 49.967952 24.270181  4.283014
15341  0  1 52.823298 21.414891  1.427698
15342  0  1 52.823267 21.414895  4.282990
15361  0  1 52.823299 24.270181  1.427694
15362  0  1 52.823268 24.270183  4.282991
15762  0  1 55.678579 24.270183  4.282961
15761  0  1 55.678607 24.270184  1.427665
15742  0  1 55.678572 21.414894  4.282959
15741  0  1 55.678601 21.414894  1.427669
7761   0  1 54.250967 22.842536  0.000034
7762   0  1 54.250936 22.842540  2.855329
4182   0  1 28.553128 25.697789  2.855317
4582   0  1 31.408417 25.697796  2.855328
12181  0  1 29.980780 27.125440  1.427646
12182  0  1 29.980758 27.125446  4.283001
4202   0  1 28.553128 28.553093  2.855319
4602   0  1 31.408411 28.553097  2.855329
12982  0  1 35.691345 27.125456  4.283017
12981  0  1 35.691372 27.125449  1.427677
12582  0  1 32.836047 27.125453  4.283009
12581  0  1 32.836071 27.125444  1.427660
4981   0  1 34.263739 25.697788  0.000005
4982   0  1 34.263714 25.697803  2.855340
5002   0  1 34.263703 28.553099  2.855339
5381   0  1 37.119050 25.697794  0.000030
5382   0  1 37.119020 25.697809  2.855353
5781   0  1 39.974371 25.697799  0.000055
5782   0  1 39.974335 25.697812  2.855365
13381  0  1 38.546684 27.125452  1.427695
13382  0  1 38.546655 27.125458  4.283023
5401   0  1 37.119036 28.553094  0.000018
5402   0  1 37.119007 28.553100  2.855351
5801   0  1 39.974357 28.553096  0.000044
5802   0  1 39.974323 28.553100  2.855362
6182   0  1 42.829658 25.697815  2.855375
13781  0  1 41.402007 27.125455  1.427712
13782  0  1 41.401975 27.125458  4.283028
14181  0  1 44.257335 27.125456  1.427723
14182  0  1 44.257300 27.125458  4.283030
6181   0  1 42.829699 25.697804  0.000074
6201   0  1 42.829688 28.553097  0.000065
6202   0  1 42.829649 28.553099  2.855370
6581   0  1 45.685027 25.697809  0.000083
6582   0  1 45.684983 25.697817  2.855378
6981   0  1 48.540348 25.697814  0.000076
6982   0  1 48.540307 25.697820  2.855371
14581  0  1 47.112662 27.125458  1.427724
14582  0  1 47.112627 27.125459  4.283025
6601   0  1 45.685019 28.553098  0.000075
6602   0  1 45.684978 28.553099  2.855373
7001   0  1 48.540345 28.553100  0.000069
7002   0  1 48.540305 28.553100  2.855366
7381   0  1 51.395662 25.697819  0.000056
7382   0  1 51.395626 25.697823  2.855353
15382  0  1 52.823271 27.125464  4.282989
15381  0  1 52.823301 27.125464  1.427689
14981  0  1 49.967985 27.125461  1.427712
14982  0  1 49.967951 27.125461  4.283012
7402   0  1 51.395628 28.553102  2.855349
7401   0  1 51.395663 28.553102  0.000050
15782  0  1 55.678585 27.125465  4.282961
15781  0  1 55.678613 27.125466  1.427661
7781   0  1 54.250971 25.697823  0.000028
7782   0  1 54.250940 25.697825  2.855327
7801   0  1 54.250975 28.553104  0.000022
7802   0  1 54.250944 28.553104  2.855323
4004   0  1 28.553170  0.000065  8.565740
4023   0  1 28.553170  2.855328  5.710516
4024   0  1 28.553172  2.855335  8.565767
4403   0  1 31.408512  0.000038  5.710511
4404   0  1 31.408518  0.000068  8.565754
4423   0  1 31.408512  2.855334  5.710531
4424   0  1 31.408515  2.855343  8.565783
12003  0  1 29.980843  1.427694  7.138135
4003   0  1 28.553168  0.000034  5.710497
4803   0  1 34.263851  0.000039  5.710525
4804   0  1 34.263860  0.000068  8.565769
4823   0  1 34.263848  2.855340  5.710546
4824   0  1 34.263853  2.855350  8.565799
12403  0  1 32.836184  1.427698  7.138150
12803  0  1 35.691519  1.427702  7.138164
5203   0  1 37.119183  0.000039  5.710538
5204   0  1 37.119193  0.000067  8.565783
5223   0  1 37.119177  2.855345  5.710560
5224   0  1 37.119182  2.855356  8.565813
5603   0  1 39.974506  0.000035  5.710549
5604   0  1 39.974517  0.000061  8.565796
5623   0  1 39.974497  2.855349  5.710571
5624   0  1 39.974501  2.855361  8.565826
13203  0  1 38.546846  1.427703  7.138177
6004   0  1 42.829827  0.000052  8.565808
6023   0  1 42.829806  2.855349  5.710578
6024   0  1 42.829808  2.855362  8.565835
13603  0  1 41.402162  1.427701  7.138188
14003  0  1 44.257464  1.427695  7.138196
6003   0  1 42.829818  0.000028  5.710558
6403   0  1 45.685116  0.000018  5.710563
6404   0  1 45.685122  0.000038  8.565817
6423   0  1 45.685103  2.855346  5.710581
6424   0  1 45.685102  2.855358  8.565840
6803   0  1 48.540401  0.000004  5.710563
6804   0  1 48.540402  0.000021  8.565821
6823   0  1 48.540387  2.855339  5.710578
6824   0  1 48.540383  2.855350  8.565839
14403  0  1 47.112753  1.427685  7.138199
7204   0  1 51.395668  0.000004  8.565818
7223   0  1 51.395661  2.855330  5.710567
7224   0  1 51.395653  2.855338  8.565831
14803  0  1 49.968029  1.427673  7.138195
15203  0  1 52.823296  1.427659  7.138185
7623   0  1 54.250928  2.855318  5.710551
7624   0  1 54.250915  2.855324  8.565815
15603  0  1 55.678557  1.427648  7.138168
23     0  1 57.106193  2.855308  5.710529
24     0  1 57.106175  2.855312  8.565793
4043   0  1 28.553171  5.710619  5.710535
4044   0  1 28.553174  5.710609  8.565790
4443   0  1 31.408509  5.710629  5.710552
4444   0  1 31.408514  5.710621  8.565809
12023  0  1 29.980843  4.282978  7.138158
12043  0  1 29.980843  7.138266  7.138179
4843   0  1 34.263842  5.710639  5.710568
4844   0  1 34.263846  5.710635  8.565827
12423  0  1 32.836181  4.282987  7.138175
12443  0  1 32.836176  7.138280  7.138198
12823  0  1 35.691512  4.282997  7.138191
12843  0  1 35.691501  7.138296  7.138216
5243   0  1 37.119167  5.710650  5.710583
5244   0  1 37.119169  5.710650  8.565843
5643   0  1 39.974483  5.710660  5.710594
5644   0  1 39.974482  5.710663  8.565856
13223  0  1 38.546834  4.283005  7.138204
13243  0  1 38.546818  7.138311  7.138231
6043   0  1 42.829789  5.710668  5.710602
6044   0  1 42.829785  5.710674  8.565865
13623  0  1 41.402145  4.283012  7.138215
13643  0  1 41.402125  7.138325  7.138242
14023  0  1 44.257446  4.283015  7.138220
14043  0  1 44.257423  7.138335  7.138247
6443   0  1 45.685085  5.710672  5.710603
6444   0  1 45.685078  5.710679  8.565867
6843   0  1 48.540371  5.710671  5.710596
6844   0  1 48.540361  5.710677  8.565861
14423  0  1 47.112735  4.283013  7.138220
14443  0  1 47.112713  7.138339  7.138243
7243   0  1 51.395647  5.710665  5.710582
7244   0  1 51.395635  5.710669  8.565848
14823  0  1 49.968013  4.283006  7.138212
14843  0  1 49.967994  7.138337  7.138232
15223  0  1 52.823282  4.282996  7.138197
15243  0  1 52.823269  7.138328  7.138212
7643   0  1 54.250918  5.710655  5.710561
7644   0  1 54.250902  5.710655  8.565827
15623  0  1 55.678547  4.282982  7.138175
15643  0  1 55.678539  7.138313  7.138186
43     0  1 57.106187  5.710642  5.710537
44     0  1 57.106167  5.710638  8.565801
4063   0  1 28.553170  8.565914  5.710550
4064   0  1 28.553177  8.565890  8.565809
4083   0  1 28.553167 11.421216  5.710564
4084   0  1 28.553177 11.421182  8.565827
4463   0  1 31.408505  8.565927  5.710569
4464   0  1 31.408512  8.565909  8.565831
4483   0  1 31.408496 11.421232  5.710584
4484   0  1 31.408506 11.421206  8.565852
12063  0  1 29.980840  9.993561  7.138197
4863   0  1 34.263832  8.565942  5.710587
4864   0  1 34.263837  8.565930  8.565852
4883   0  1 34.263818 11.421250  5.710603
4884   0  1 34.263824 11.421233  8.565875
12463  0  1 32.836168  9.993580  7.138218
12863  0  1 35.691487  9.993601  7.138238
5263   0  1 37.119153  8.565958  5.710603
5264   0  1 37.119153  8.565952  8.565871
5283   0  1 37.119133 11.421270  5.710620
5284   0  1 37.119133 11.421262  8.565897
5663   0  1 39.974465  8.565973  5.710616
5664   0  1 39.974460  8.565973  8.565886
5683   0  1 39.974442 11.421289  5.710635
5684   0  1 39.974434 11.421288  8.565914
13263  0  1 38.546797  9.993622  7.138255
6063   0  1 42.829768  8.565986  5.710624
6064   0  1 42.829759  8.565990  8.565895
6083   0  1 42.829744 11.421305  5.710643
6084   0  1 42.829730 11.421309  8.565924
13663  0  1 41.402101  9.993641  7.138267
14063  0  1 44.257398  9.993656  7.138272
6463   0  1 45.685064  8.565995  5.710624
6464   0  1 45.685052  8.566000  8.565895
6483   0  1 45.685041 11.421316  5.710643
6484   0  1 45.685025 11.421321  8.565922
6863   0  1 48.540352  8.565999  5.710615
6864   0  1 48.540338  8.566002  8.565886
6883   0  1 48.540334 11.421322  5.710633
6884   0  1 48.540317 11.421324  8.565910
14463  0  1 47.112690  9.993663  7.138267
7263   0  1 51.395634  8.565995  5.710598
7264   0  1 51.395619  8.565996  8.565868
7283   0  1 51.395622 11.421321  5.710614
7284   0  1 51.395605 11.421319  8.565889
14863  0  1 49.967977  9.993663  7.138252
15263  0  1 52.823258  9.993655  7.138229
7663   0  1 54.250910  8.565987  5.710574
7664   0  1 54.250892  8.565983  8.565843
7683   0  1 54.250905 11.421313  5.710587
7684   0  1 54.250886 11.421306  8.565860
15663  0  1 55.678535  9.993641  7.138199
63     0  1 57.106184  8.565972  5.710546
64     0  1 57.106162  8.565962  8.565812
83     0  1 57.106185 11.421299  5.710556
84     0  1 57.106162 11.421285  8.565826
12083  0  1 29.980833 12.848864  7.138214
4103   0  1 28.553160 14.276526  5.710579
4104   0  1 28.553170 14.276485  8.565848
4503   0  1 31.408482 14.276543  5.710598
4504   0  1 31.408493 14.276513  8.565873
12103  0  1 29.980819 15.704177  7.138236
12483  0  1 32.836154 12.848887  7.138236
12883  0  1 35.691467 12.848912  7.138257
4903   0  1 34.263798 14.276564  5.710617
4904   0  1 34.263804 14.276545  8.565898
12903  0  1 35.691440 15.704228  7.138277
12503  0  1 32.836133 15.704202  7.138256
5303   0  1 37.119109 14.276585  5.710635
5304   0  1 37.119106 14.276577  8.565921
13283  0  1 38.546772 12.848937  7.138276
5703   0  1 39.974414 14.276605  5.710650
5704   0  1 39.974403 14.276605  8.565940
13303  0  1 38.546742 15.704254  7.138295
13683  0  1 41.402073 12.848959  7.138289
14083  0  1 44.257371 12.848974  7.138294
6103   0  1 42.829718 14.276622  5.710659
6104   0  1 42.829699 14.276626  8.565949
13703  0  1 41.402043 15.704274  7.138308
14103  0  1 44.257345 15.704288  7.138312
14483  0  1 47.112668 12.848982  7.138288
6503   0  1 45.685019 14.276633  5.710659
6504   0  1 45.684999 14.276637  8.565947
6903   0  1 48.540318 14.276639  5.710648
6904   0  1 48.540299 14.276640  8.565933
14503  0  1 47.112648 15.704295  7.138306
14883  0  1 49.967962 12.848983  7.138271
15283  0  1 52.823251 12.848977  7.138245
7303   0  1 51.395613 14.276639  5.710627
7304   0  1 51.395595 14.276637  8.565909
14903  0  1 49.967950 15.704296  7.138288
15303  0  1 52.823246 15.704292  7.138261
15683  0  1 55.678534 12.848964  7.138214
7703   0  1 54.250903 14.276633  5.710599
7704   0  1 54.250884 14.276625  8.565878
15703  0  1 55.678537 15.704281  7.138228
103    0  1 57.106190 14.276621  5.710566
104    0  1 57.106166 14.276606  8.565842
4123   0  1 28.553148 17.131842  5.710598
4143   0  1 28.553133 19.987161  5.710622
4144   0  1 28.553132 19.987124  8.565922
4523   0  1 31.408462 17.131860  5.710615
4524   0  1 31.408470 17.131830  8.565902
4543   0  1 31.408439 19.987179  5.710635
4544   0  1 31.408438 19.987154  8.565939
12123  0  1 29.980798 18.559497  7.138264
4124   0  1 28.553155 17.131800  8.565879
12923  0  1 35.691408 18.559546  7.138298
4923   0  1 34.263772 17.131881  5.710632
4924   0  1 34.263775 17.131863  8.565924
4943   0  1 34.263743 19.987197  5.710649
4944   0  1 34.263738 19.987184  8.565957
12523  0  1 32.836105 18.559521  7.138281
5323   0  1 37.119079 17.131902  5.710648
5324   0  1 37.119073 17.131894  8.565946
5343   0  1 37.119048 19.987215  5.710662
5344   0  1 37.119036 19.987210  8.565973
5723   0  1 39.974385 17.131920  5.710662
5724   0  1 39.974370 17.131919  8.565963
5743   0  1 39.974355 19.987228  5.710674
5744   0  1 39.974337 19.987227  8.565986
13323  0  1 38.546709 18.559568  7.138314
6123   0  1 42.829691 17.131934  5.710671
6124   0  1 42.829670 17.131936  8.565972
6143   0  1 42.829665 19.987238  5.710680
6144   0  1 42.829643 19.987238  8.565991
13723  0  1 41.402013 18.559583  7.138325
14123  0  1 44.257320 18.559593  7.138328
6523   0  1 45.684997 17.131943  5.710671
6524   0  1 45.684976 17.131945  8.565968
6543   0  1 45.684978 19.987244  5.710680
6544   0  1 45.684956 19.987244  8.565985
6923   0  1 48.540303 17.131948  5.710660
6924   0  1 48.540284 17.131948  8.565952
6943   0  1 48.540291 19.987248  5.710668
6944   0  1 48.540272 19.987247  8.565968
14523  0  1 47.112630 18.559599  7.138320
7323   0  1 51.395606 17.131949  5.710639
7324   0  1 51.395588 17.131946  8.565928
7343   0  1 51.395601 19.987249  5.710647
7344   0  1 51.395584 19.987246  8.565943
14923  0  1 49.967940 18.559601  7.138302
15323  0  1 52.823244 18.559598  7.138275
15723  0  1 55.678542 18.559590  7.138241
7723   0  1 54.250903 17.131945  5.710609
7724   0  1 54.250885 17.131938  8.565896
7743   0  1 54.250906 19.987247  5.710618
7744   0  1 54.250888 19.987241  8.565912
123    0  1 57.106197 17.131935  5.710576
124    0  1 57.106173 17.131921  8.565858
143    0  1 57.106206 19.987240  5.710584
144    0  1 57.106183 19.987230  8.565874
4163   0  1 28.553118 22.842477  5.710646
4563   0  1 31.408415 22.842493  5.710657
4564   0  1 31.408402 22.842478  8.565983
12143  0  1 29.980773 21.414818  7.138298
12163  0  1 29.980749 24.270135  7.138332
12963  0  1 35.691342 24.270164  7.138345
12943  0  1 35.691373 21.414860  7.138322
4963   0  1 34.263714 22.842508  5.710666
4964   0  1 34.263698 22.842501  8.565993
12563  0  1 32.836042 24.270152  7.138339
12543  0  1 32.836072 21.414840  7.138311
5363   0  1 37.119018 22.842519  5.710675
5364   0  1 37.119000 22.842517  8.566001
5763   0  1 39.974328 22.842527  5.710683
5764   0  1 39.974307 22.842525  8.566006
13343  0  1 38.546677 21.414875  7.138332
13363  0  1 38.546649 24.270171  7.138349
6163   0  1 42.829644 22.842532  5.710687
6164   0  1 42.829621 22.842530  8.566006
13743  0  1 41.401986 21.414884  7.138339
13763  0  1 41.401964 24.270173  7.138350
14143  0  1 44.257300 21.414890  7.138339
14163  0  1 44.257284 24.270176  7.138346
6563   0  1 45.684963 22.842536  5.710684
6564   0  1 45.684941 22.842533  8.565997
6963   0  1 48.540282 22.842538  5.710673
6964   0  1 48.540264 22.842536  8.565979
14543  0  1 47.112616 21.414893  7.138330
14563  0  1 47.112607 24.270178  7.138336
7363   0  1 51.395598 22.842540  5.710652
7364   0  1 51.395582 22.842537  8.565954
14943  0  1 49.967933 21.414895  7.138312
14963  0  1 49.967929 24.270181  7.138317
15343  0  1 52.823244 21.414894  7.138285
15363  0  1 52.823246 24.270182  7.138292
15763  0  1 55.678555 24.270180  7.138260
15743  0  1 55.678548 21.414890  7.138252
7763   0  1 54.250909 22.842540  5.710624
7764   0  1 54.250892 22.842536  8.565924
163    0  1 57.106215 22.842536  5.710591
164    0  1 57.106193 22.842529  8.565888
4583   0  1 31.408395 25.697800  5.710676
4584   0  1 31.408370 25.697795  8.566024
12183  0  1 29.980733 27.125446  7.138360
4604   0  1 31.408353 28.553100  8.566056
4603   0  1 31.408385 28.553101  5.710690
12983  0  1 35.691320 27.125457  7.138363
12583  0  1 32.836020 27.125454  7.138363
4983   0  1 34.263690 25.697809  5.710682
4984   0  1 34.263665 25.697807  8.566027
5004   0  1 34.263647 28.553099  8.566051
5003   0  1 34.263677 28.553102  5.710693
5383   0  1 37.118994 25.697814  5.710686
5384   0  1 37.118971 25.697811  8.566025
5783   0  1 39.974308 25.697816  5.710689
5784   0  1 39.974285 25.697811  8.566022
13383  0  1 38.546631 27.125456  7.138360
5804   0  1 39.974275 28.553087  8.566029
5803   0  1 39.974297 28.553097  5.710692
5404   0  1 37.118955 28.553093  8.566042
5403   0  1 37.118981 28.553100  5.710693
6183   0  1 42.829629 25.697817  5.710690
6184   0  1 42.829607 25.697810  8.566015
13783  0  1 41.401951 27.125454  7.138355
14183  0  1 44.257276 27.125453  7.138348
6204   0  1 42.829602 28.553084  8.566016
6203   0  1 42.829622 28.553095  5.710689
6583   0  1 45.684953 25.697818  5.710685
6584   0  1 45.684933 25.697813  8.566003
6983   0  1 48.540278 25.697820  5.710674
6984   0  1 48.540261 25.697816  8.565984
14583  0  1 47.112604 27.125455  7.138336
7004   0  1 48.540263 28.553091  8.565983
7003   0  1 48.540278 28.553097  5.710671
6604   0  1 45.684933 28.553086  8.566001
6603   0  1 45.684950 28.553095  5.710683
7383   0  1 51.395599 25.697823  5.710654
7384   0  1 51.395583 25.697820  8.565961
15383  0  1 52.823250 27.125462  7.138294
14983  0  1 49.967930 27.125459  7.138318
7404   0  1 51.395587 28.553097  8.565962
7403   0  1 51.395602 28.553100  5.710652
15783  0  1 55.678562 27.125464  7.138264
7783   0  1 54.250914 25.697824  5.710627
7784   0  1 54.250897 25.697822  8.565932
7804   0  1 54.250903 28.553102  8.565935
7803   0  1 54.250919 28.553103  5.710626
204    0  1 57.106210 28.553103  8.565902
203    0  1 57.106231 28.553105  5.710596
183    0  1 57.106224 25.697824  5.710595
184    0  1 57.106202 25.697820  8.565897
4005   0  1 28.553170  0.000092 11.421008
4025   0  1 28.553172  2.855335 11.421042
4405   0  1 31.408523  0.000094 11.421022
4425   0  1 31.408518  2.855343 11.421058
12004  0  1 29.980845  1.427710  9.993394
12005  0  1 29.980846  1.427718 12.848681
4006   0  1 28.553168  0.000107 14.276308
4026   0  1 28.553168  2.855326 14.276345
4426   0  1 31.408518  2.855335 14.276360
4406   0  1 31.408526  0.000109 14.276321
4805   0  1 34.263869  0.000095 11.421036
4825   0  1 34.263858  2.855352 11.421073
12404  0  1 32.836190  1.427715  9.993409
12405  0  1 32.836194  1.427723 12.848695
12804  0  1 35.691527  1.427718  9.993423
12805  0  1 35.691535  1.427728 12.848707
4806   0  1 34.263877  0.000111 14.276332
4826   0  1 34.263861  2.855344 14.276372
5205   0  1 37.119207  0.000093 11.421049
5225   0  1 37.119188  2.855360 11.421087
5206   0  1 37.119219  0.000110 14.276343
5226   0  1 37.119194  2.855354 14.276383
5605   0  1 39.974532  0.000087 11.421062
5625   0  1 39.974508  2.855366 11.421098
13204  0  1 38.546855  1.427720  9.993437
13205  0  1 38.546865  1.427730 12.848719
5626   0  1 39.974516  2.855363 14.276392
5606   0  1 39.974547  0.000105 14.276353
6005   0  1 42.829842  0.000076 11.421075
6025   0  1 42.829815  2.855369 11.421108
13604  0  1 41.402170  1.427718  9.993449
13605  0  1 41.402182  1.427729 12.848729
14004  0  1 44.257471  1.427711  9.993458
14005  0  1 44.257483  1.427723 12.848739
6006   0  1 42.829859  0.000094 14.276365
6026   0  1 42.829825  2.855368 14.276399
6405   0  1 45.685134  0.000059 11.421086
6425   0  1 45.685107  2.855366 11.421113
6805   0  1 48.540409  0.000038 11.421094
6825   0  1 48.540385  2.855357 11.421114
14404  0  1 47.112757  1.427700  9.993463
14405  0  1 47.112766  1.427710 12.848745
6406   0  1 45.685150  0.000076 14.276377
6426   0  1 45.685117  2.855367 14.276404
6806   0  1 48.540421  0.000052 14.276386
6826   0  1 48.540393  2.855359 14.276405
7205   0  1 51.395670  0.000017 11.421095
7225   0  1 51.395650  2.855343 11.421108
14804  0  1 49.968029  1.427684  9.993463
14805  0  1 49.968034  1.427693 12.848747
15204  0  1 52.823289  1.427668  9.993455
15205  0  1 52.823288  1.427675 12.848741
7226   0  1 51.395654  2.855345 14.276401
7206   0  1 51.395676  0.000028 14.276389
7625   0  1 54.250907  2.855328 11.421094
15604  0  1 55.678544  1.427655  9.993439
15605  0  1 55.678537  1.427660 12.848728
7606   0  1 54.250921  0.000009 14.276384
7626   0  1 54.250905  2.855328 14.276389
25     0  1 57.106161  2.855313 11.421073
6      0  1 57.106163  0.000000 14.276369
26     0  1 57.106152  2.855313 14.276371
4045   0  1 28.553176  5.710586 11.421064
4445   0  1 31.408517  5.710601 11.421084
12024  0  1 29.980846  4.282972  9.993423
12025  0  1 29.980846  4.282956 12.848711
12044  0  1 29.980848  7.138242  9.993445
12045  0  1 29.980850  7.138206 12.848728
4046   0  1 28.553173  5.710557 14.276362
4446   0  1 31.408517  5.710573 14.276382
4845   0  1 34.263850  5.710618 11.421103
12424  0  1 32.836185  4.282983  9.993440
12425  0  1 32.836187  4.282969 12.848727
12444  0  1 32.836181  7.138261  9.993466
12445  0  1 32.836185  7.138229 12.848750
12824  0  1 35.691516  4.282995  9.993456
12825  0  1 35.691520  4.282983 12.848742
12844  0  1 35.691505  7.138282  9.993486
12845  0  1 35.691510  7.138254 12.848770
4846   0  1 34.263852  5.710592 14.276399
5245   0  1 37.119173  5.710637 11.421119
5246   0  1 37.119177  5.710614 14.276413
5645   0  1 39.974485  5.710655 11.421132
13224  0  1 38.546837  4.283006  9.993470
13225  0  1 38.546843  4.282997 12.848755
13244  0  1 38.546819  7.138302  9.993502
13245  0  1 38.546823  7.138280 12.848787
5646   0  1 39.974491  5.710636 14.276424
6045   0  1 42.829787  5.710669 11.421141
13624  0  1 41.402148  4.283015  9.993481
13625  0  1 41.402154  4.283010 12.848764
13644  0  1 41.402123  7.138321  9.993514
13645  0  1 41.402126  7.138304 12.848797
14024  0  1 44.257446  4.283020  9.993488
14025  0  1 44.257452  4.283017 12.848770
14044  0  1 44.257418  7.138334  9.993519
14045  0  1 44.257421  7.138322 12.848801
6046   0  1 42.829794  5.710654 14.276430
6445   0  1 45.685078  5.710677 11.421143
6845   0  1 48.540359  5.710676 11.421138
14424  0  1 47.112733  4.283019  9.993488
14425  0  1 47.112737  4.283018 12.848770
14444  0  1 47.112706  7.138340  9.993516
14445  0  1 47.112708  7.138330 12.848798
6446   0  1 45.685085  5.710666 14.276431
6846   0  1 48.540365  5.710668 14.276427
7245   0  1 51.395630  5.710667 11.421126
14824  0  1 49.968008  4.283011  9.993482
14825  0  1 49.968009  4.283011 12.848765
14844  0  1 49.967986  7.138336  9.993504
14845  0  1 49.967986  7.138328 12.848787
15224  0  1 52.823273  4.282998  9.993468
15225  0  1 52.823270  4.282997 12.848753
15244  0  1 52.823258  7.138325  9.993485
15245  0  1 52.823254  7.138316 12.848770
7246   0  1 51.395633  5.710660 14.276417
7645   0  1 54.250893  5.710651 11.421106
15624  0  1 55.678533  4.282982  9.993447
15625  0  1 55.678524  4.282979 12.848735
15644  0  1 55.678523  7.138306  9.993459
15645  0  1 55.678514  7.138295 12.848747
7646   0  1 54.250891  5.710643 14.276401
45     0  1 57.106152  5.710631 11.421081
46     0  1 57.106142  5.710621 14.276378
4085   0  1 28.553187 11.421129 11.421096
4065   0  1 28.553182  8.565850 11.421080
4465   0  1 31.408518  8.565874 11.421106
4485   0  1 31.408518 11.421162 11.421128
12064  0  1 29.980849  9.993525  9.993465
12065  0  1 29.980857  9.993473 12.848742
4066   0  1 28.553182  8.565799 14.276366
4086   0  1 28.553195 11.421058 14.276371
4466   0  1 31.408522  8.565826 14.276394
4486   0  1 31.408529 11.421100 14.276410
4865   0  1 34.263843  8.565900 11.421130
4885   0  1 34.263834 11.421199 11.421158
12464  0  1 32.836176  9.993552  9.993490
12465  0  1 32.836185  9.993507 12.848772
12864  0  1 35.691492  9.993581  9.993514
12865  0  1 35.691498  9.993544 12.848800
4866   0  1 34.263849  8.565858 14.276420
4886   0  1 34.263844 11.421147 14.276447
5265   0  1 37.119157  8.565929 11.421151
5285   0  1 37.119136 11.421238 11.421185
5266   0  1 37.119162  8.565893 14.276441
5286   0  1 37.119142 11.421197 14.276477
5665   0  1 39.974461  8.565957 11.421167
5685   0  1 39.974430 11.421273 11.421204
13264  0  1 38.546797  9.993610  9.993534
13265  0  1 38.546800  9.993582 12.848821
5666   0  1 39.974466  8.565927 14.276456
5686   0  1 39.974431 11.421242 14.276497
6065   0  1 42.829757  8.565980 11.421175
6085   0  1 42.829722 11.421300 11.421213
13664  0  1 41.402094  9.993636  9.993547
13665  0  1 41.402094  9.993615 12.848835
14064  0  1 44.257388  9.993654  9.993551
14065  0  1 44.257387  9.993638 12.848837
6066   0  1 42.829762  8.565956 14.276463
6086   0  1 42.829723 11.421276 14.276503
6465   0  1 45.685048  8.565993 11.421174
6485   0  1 45.685017 11.421313 11.421208
6865   0  1 48.540334  8.565996 11.421165
6885   0  1 48.540312 11.421315 11.421193
14464  0  1 47.112679  9.993661  9.993545
14465  0  1 47.112680  9.993648 12.848828
6466   0  1 45.685054  8.565975 14.276461
6486   0  1 45.685021 11.421292 14.276495
6866   0  1 48.540340  8.565980 14.276452
6886   0  1 48.540318 11.421295 14.276480
7265   0  1 51.395613  8.565989 11.421147
7285   0  1 51.395599 11.421309 11.421171
14864  0  1 49.967967  9.993659  9.993529
14865  0  1 49.967967  9.993646 12.848813
15264  0  1 52.823246  9.993648  9.993505
15265  0  1 52.823243  9.993635 12.848791
7266   0  1 51.395616  8.565975 14.276438
7286   0  1 51.395604 11.421290 14.276462
86     0  1 57.106136 11.421243 14.276405
7665   0  1 54.250882  8.565973 11.421123
7685   0  1 54.250876 11.421293 11.421143
15664  0  1 55.678518  9.993629  9.993475
15665  0  1 55.678509  9.993612 12.848763
7666   0  1 54.250880  8.565958 14.276417
7686   0  1 54.250876 11.421274 14.276438
66     0  1 57.106136  8.565930 14.276389
85     0  1 57.106144 11.421266 11.421108
65     0  1 57.106146  8.565947 11.421093
12084  0  1 29.980846 12.848820  9.993486
12085  0  1 29.980862 12.848758 12.848763
4105   0  1 28.553187 14.276420 11.421118
4505   0  1 31.408510 14.276462 11.421154
4506   0  1 31.408531 14.276398 14.276442
4106   0  1 28.553205 14.276338 14.276390
12104  0  1 29.980833 15.704126  9.993512
12105  0  1 29.980857 15.704055 12.848790
12484  0  1 32.836166 12.848854  9.993515
12485  0  1 32.836181 12.848805 12.848802
12884  0  1 35.691472 12.848891  9.993542
12885  0  1 35.691480 12.848855 12.848837
4905   0  1 34.263816 14.276509 11.421189
4906   0  1 34.263829 14.276463 14.276491
12905  0  1 35.691449 15.704176 12.848878
12904  0  1 35.691444 15.704207  9.993570
12504  0  1 32.836145 15.704166  9.993542
12505  0  1 32.836164 15.704115 12.848836
5305   0  1 37.119107 14.276556 11.421220
5306   0  1 37.119107 14.276527 14.276531
13284  0  1 38.546769 12.848926  9.993565
13285  0  1 38.546768 12.848903 12.848865
5705   0  1 39.974393 14.276595 11.421243
5706   0  1 39.974382 14.276577 14.276554
13304  0  1 38.546735 15.704244  9.993595
13305  0  1 38.546725 15.704229 12.848911
13684  0  1 41.402062 12.848955  9.993580
13685  0  1 41.402054 12.848940 12.848879
14084  0  1 44.257356 12.848973  9.993583
14085  0  1 44.257350 12.848960 12.848877
6105   0  1 42.829685 14.276619 11.421250
6106   0  1 42.829677 14.276603 14.276552
13704  0  1 41.402027 15.704271  9.993610
13705  0  1 41.402009 15.704262 12.848924
14104  0  1 44.257327 15.704286  9.993611
14105  0  1 44.257318 15.704273 12.848913
14484  0  1 47.112655 12.848980  9.993573
14485  0  1 47.112654 12.848965 12.848861
6505   0  1 45.684988 14.276629 11.421240
6905   0  1 48.540293 14.276630 11.421221
6906   0  1 48.540301 14.276609 14.276510
6506   0  1 45.684992 14.276608 14.276531
14504  0  1 47.112634 15.704291  9.993598
14505  0  1 47.112633 15.704276 12.848891
14884  0  1 49.967951 12.848978  9.993553
14885  0  1 49.967951 12.848963 12.848840
15284  0  1 52.823238 12.848968  9.993526
15285  0  1 52.823237 12.848952 12.848815
7305   0  1 51.395590 14.276625 11.421196
7306   0  1 51.395596 14.276605 14.276489
14904  0  1 49.967938 15.704291  9.993576
14905  0  1 49.967940 15.704275 12.848868
15304  0  1 52.823234 15.704283  9.993548
15305  0  1 52.823234 15.704267 12.848841
106    0  1 57.106142 14.276561 14.276427
105    0  1 57.106149 14.276585 11.421128
15684  0  1 55.678517 12.848950  9.993493
15685  0  1 55.678509 12.848930 12.848784
7705   0  1 54.250875 14.276611 11.421166
7706   0  1 54.250876 14.276591 14.276463
15705  0  1 55.678513 15.704248 12.848808
15704  0  1 55.678520 15.704267  9.993513
4125   0  1 28.553172 17.131725 11.421149
4145   0  1 28.553140 19.987052 11.421202
4525   0  1 31.408488 17.131774 11.421186
4545   0  1 31.408447 19.987101 11.421232
12124  0  1 29.980807 18.559447  9.993551
12125  0  1 29.980830 18.559365 12.848826
4126   0  1 28.553201 17.131626 14.276417
4146   0  1 28.553165 19.986932 14.276458
4526   0  1 31.408517 17.131703 14.276479
4546   0  1 31.408471 19.987018 14.276516
12925  0  1 35.691404 18.559497 12.848916
12924  0  1 35.691406 18.559527  9.993602
4925   0  1 34.263785 17.131826 11.421222
4945   0  1 34.263739 19.987151 11.421262
12524  0  1 32.836112 18.559487  9.993577
12525  0  1 32.836128 18.559432 12.848872
4926   0  1 34.263796 17.131785 14.276537
5325   0  1 37.119069 17.131875 11.421254
5345   0  1 37.119025 19.987192 11.421290
5725   0  1 39.974354 17.131910 11.421277
5745   0  1 39.974318 19.987216 11.421309
13324  0  1 38.546697 18.559559  9.993624
13325  0  1 38.546678 18.559545 12.848951
6125   0  1 42.829653 17.131929 11.421282
6145   0  1 42.829625 19.987228 11.421310
13724  0  1 41.401995 18.559579  9.993637
13725  0  1 41.401973 18.559567 12.848961
14124  0  1 44.257302 18.559590  9.993635
14125  0  1 44.257291 18.559576 12.848945
6525   0  1 45.684965 17.131936 11.421269
6545   0  1 45.684945 19.987235 11.421294
6925   0  1 48.540278 17.131938 11.421247
6945   0  1 48.540267 19.987238 11.421269
14524  0  1 47.112616 18.559595  9.993620
14525  0  1 47.112616 18.559580 12.848920
6926   0  1 48.540288 17.131919 14.276540
7325   0  1 51.395584 17.131935 11.421221
7345   0  1 51.395580 19.987238 11.421243
14924  0  1 49.967928 18.559595  9.993597
14925  0  1 49.967931 18.559582 12.848894
15324  0  1 52.823233 18.559590  9.993568
15325  0  1 52.823233 18.559577 12.848868
7326   0  1 51.395591 17.131918 14.276518
7346   0  1 51.395587 19.987224 14.276545
146    0  1 57.106166 19.987197 14.276481
145    0  1 57.106169 19.987215 11.421173
125    0  1 57.106157 17.131903 11.421150
126    0  1 57.106153 17.131881 14.276453
15725  0  1 55.678521 18.559562 12.848834
15724  0  1 55.678526 18.559578  9.993533
7725   0  1 54.250877 17.131924 11.421189
7745   0  1 54.250881 19.987231 11.421212
7726   0  1 54.250879 17.131906 14.276490
7746   0  1 54.250884 19.987217 14.276518
4565   0  1 31.408393 22.842442 11.421297
12144  0  1 29.980770 21.414779  9.993605
12145  0  1 29.980778 21.414702 12.848889
12164  0  1 29.980730 24.270113  9.993666
12165  0  1 29.980711 24.270062 12.848982
12965  0  1 35.691299 24.270132 12.849017
12964  0  1 35.691321 24.270156  9.993680
12945  0  1 35.691350 21.414818 12.848960
12944  0  1 35.691362 21.414847  9.993640
4965   0  1 34.263685 22.842479 11.421315
12565  0  1 32.836002 24.270108 12.848999
12564  0  1 32.836022 24.270140  9.993675
12544  0  1 32.836067 21.414816  9.993623
12545  0  1 32.836069 21.414766 12.848924
5365   0  1 37.118982 22.842501 11.421331
5765   0  1 39.974286 22.842511 11.421340
13344  0  1 38.546660 21.414866  9.993655
13345  0  1 38.546638 21.414847 12.848988
13364  0  1 38.546628 24.270162  9.993683
13365  0  1 38.546603 24.270139 12.849027
6165   0  1 42.829602 22.842518 11.421333
13744  0  1 41.401965 21.414877  9.993661
13745  0  1 41.401943 21.414861 12.848993
13764  0  1 41.401943 24.270164  9.993680
13765  0  1 41.401920 24.270144 12.849019
14144  0  1 44.257280 21.414884  9.993655
14145  0  1 44.257270 21.414869 12.848973
14164  0  1 44.257266 24.270167  9.993669
14165  0  1 44.257255 24.270152 12.848992
6565   0  1 45.684930 22.842524 11.421313
6965   0  1 48.540259 22.842529 11.421287
14544  0  1 47.112602 21.414888  9.993638
14545  0  1 47.112602 21.414876 12.848944
14564  0  1 47.112594 24.270172  9.993649
14565  0  1 47.112594 24.270162 12.848961
7365   0  1 51.395578 22.842531 11.421261
14944  0  1 49.967922 21.414890  9.993614
14945  0  1 49.967925 21.414880 12.848918
14964  0  1 49.967919 24.270176  9.993625
14965  0  1 49.967922 24.270169 12.848935
15344  0  1 52.823233 21.414888  9.993586
15345  0  1 52.823234 21.414879 12.848891
15364  0  1 52.823236 24.270178  9.993598
15365  0  1 52.823237 24.270172 12.848910
166    0  1 57.106180 22.842507 14.276508
165    0  1 57.106180 22.842519 11.421193
15765  0  1 55.678539 24.270168 12.848879
15764  0  1 55.678541 24.270175  9.993565
15745  0  1 55.678530 21.414869 12.848859
15744  0  1 55.678533 21.414881  9.993551
7765   0  1 54.250886 22.842528 11.421231
7766   0  1 54.250889 22.842519 14.276544
4605   0  1 31.408311 28.553092 11.421429
4585   0  1 31.408341 25.697776 11.421369
12184  0  1 29.980700 27.125436  9.993720
12185  0  1 29.980657 27.125413 12.849080
5005   0  1 34.263610 28.553087 11.421416
12985  0  1 35.691259 27.125426 12.849069
12984  0  1 35.691291 27.125449  9.993714
12585  0  1 32.835948 27.125431 12.849079
12584  0  1 32.835988 27.125449  9.993721
4985   0  1 34.263638 25.697793 11.421372
5805   0  1 39.974254 28.553065 11.421373
5405   0  1 37.118927 28.553074 11.421395
5385   0  1 37.118946 25.697796 11.421370
5785   0  1 39.974263 25.697794 11.421363
13384  0  1 38.546607 27.125444  9.993703
13385  0  1 38.546580 27.125417 12.849055
6205   0  1 42.829587 28.553065 11.421349
6185   0  1 42.829588 25.697796 11.421347
13784  0  1 41.401930 27.125440  9.993690
13785  0  1 41.401909 27.125416 12.849032
14184  0  1 44.257260 27.125442  9.993674
14185  0  1 44.257250 27.125426 12.849000
6605   0  1 45.684925 28.553074 11.421323
7005   0  1 48.540259 28.553085 11.421298
6585   0  1 45.684923 25.697802 11.421323
6985   0  1 48.540256 25.697810 11.421297
14584  0  1 47.112592 27.125448  9.993653
14585  0  1 47.112592 27.125439 12.848969
7405   0  1 51.395584 28.553094 11.421276
7385   0  1 51.395580 25.697816 11.421272
15385  0  1 52.823240 27.125457 12.848922
15384  0  1 52.823240 27.125459  9.993605
14985  0  1 49.967922 27.125450 12.848945
14984  0  1 49.967921 27.125454  9.993630
7805   0  1 54.250897 28.553100 11.421251
186    0  1 57.106192 25.697807 14.276530
7785   0  1 54.250891 25.697818 11.421245
15784  0  1 55.678549 27.125461  9.993574
185    0  1 57.106191 25.697814 11.421209
15785  0  1 55.678546 27.125458 12.848893
205    0  1 57.106199 28.553102 11.421218
206    0  1 57.106202 28.553101 14.276544
4007   0  1 28.553164  0.000106 17.131638
4027   0  1 28.553162  2.855312 17.131672
4407   0  1 31.408526  0.000109 17.131649
4427   0  1 31.408515  2.855320 17.131685
12006  0  1 29.980844  1.427715 15.703997
12007  0  1 29.980839  1.427703 18.559336
4807   0  1 34.263881  0.000113 17.131657
4827   0  1 34.263861  2.855331 17.131695
12406  0  1 32.836196  1.427721 15.704009
12407  0  1 32.836194  1.427710 18.559345
12806  0  1 35.691540  1.427727 15.704018
12807  0  1 35.691543  1.427719 18.559350
5207   0  1 37.119228  0.000116 17.131663
5227   0  1 37.119198  2.855343 17.131701
5607   0  1 39.974560  0.000114 17.131670
5627   0  1 39.974525  2.855354 17.131706
13206  0  1 38.546874  1.427732 15.704025
13207  0  1 38.546881  1.427727 18.559353
6027   0  1 42.829836  2.855362 17.131709
13606  0  1 41.402194  1.427733 15.704033
13607  0  1 41.402205  1.427731 18.559356
14006  0  1 44.257496  1.427729 15.704040
14007  0  1 44.257510  1.427729 18.559360
6007   0  1 42.829874  0.000105 17.131678
6407   0  1 45.685166  0.000087 17.131688
6427   0  1 45.685130  2.855364 17.131712
6807   0  1 48.540435  0.000062 17.131697
6827   0  1 48.540405  2.855357 17.131713
14406  0  1 47.112779  1.427716 15.704046
14407  0  1 47.112793  1.427718 18.559364
7207   0  1 51.395685  0.000036 17.131701
7227   0  1 51.395663  2.855343 17.131710
14806  0  1 49.968043  1.427699 15.704048
14807  0  1 49.968055  1.427700 18.559366
15206  0  1 52.823293  1.427679 15.704045
15207  0  1 52.823301  1.427681 18.559365
7607   0  1 54.250925  0.000015 17.131698
7627   0  1 54.250908  2.855326 17.131702
15606  0  1 55.678535  1.427664 15.704034
15607  0  1 55.678538  1.427665 18.559357
7      0  1 57.106161  0.000007 17.131686
27     0  1 57.106149  2.855311 17.131687
4047   0  1 28.553164  5.710529 17.131682
4447   0  1 31.408512  5.710544 17.131701
12026  0  1 29.980842  4.282935 15.704023
12027  0  1 29.980834  4.282915 18.559357
12046  0  1 29.980847  7.138167 15.704031
12047  0  1 29.980837  7.138134 18.559358
4847   0  1 34.263852  5.710563 17.131715
12426  0  1 32.836186  4.282948 15.704038
12427  0  1 32.836182  4.282928 18.559369
12446  0  1 32.836186  7.138190 15.704053
12447  0  1 32.836181  7.138155 18.559377
12826  0  1 35.691523  4.282964 15.704050
12827  0  1 35.691523  4.282943 18.559376
12846  0  1 35.691513  7.138218 15.704071
12847  0  1 35.691515  7.138182 18.559390
5247   0  1 37.119181  5.710586 17.131725
5647   0  1 39.974499  5.710611 17.131731
13226  0  1 38.546848  4.282981 15.704059
13227  0  1 38.546854  4.282962 18.559380
13246  0  1 38.546829  7.138248 15.704085
13247  0  1 38.546837  7.138213 18.559397
6047   0  1 42.829805  5.710634 17.131734
13626  0  1 41.402162  4.282997 15.704065
13627  0  1 41.402172  4.282980 18.559381
13646  0  1 41.402134  7.138277 15.704093
13647  0  1 41.402147  7.138246 18.559400
14026  0  1 44.257462  4.283008 15.704068
14027  0  1 44.257475  4.282994 18.559381
14046  0  1 44.257431  7.138301 15.704095
14047  0  1 44.257446  7.138274 18.559399
6447   0  1 45.685098  5.710649 17.131734
6847   0  1 48.540377  5.710654 17.131730
14426  0  1 47.112747  4.283011 15.704068
14427  0  1 47.112761  4.283000 18.559381
14446  0  1 47.112718  7.138313 15.704091
14447  0  1 47.112733  7.138291 18.559397
7247   0  1 51.395642  5.710649 17.131723
14826  0  1 49.968017  4.283005 15.704064
14827  0  1 49.968029  4.282997 18.559378
14846  0  1 49.967994  7.138314 15.704083
14847  0  1 49.968008  7.138296 18.559392
15226  0  1 52.823274  4.282992 15.704055
15227  0  1 52.823282  4.282985 18.559372
15246  0  1 52.823258  7.138303 15.704070
15247  0  1 52.823268  7.138288 18.559384
7647   0  1 54.250894  5.710633 17.131711
15626  0  1 55.678522  4.282974 15.704040
15627  0  1 55.678525  4.282967 18.559361
15646  0  1 55.678512  7.138282 15.704050
15647  0  1 55.678516  7.138268 18.559369
47     0  1 57.106140  5.710610 17.131692
4087   0  1 28.553191 11.420979 17.131657
4467   0  1 31.408519  8.565777 17.131702
4487   0  1 31.408533 11.421024 17.131701
12066  0  1 29.980858  9.993411 15.704031
12067  0  1 29.980850  9.993353 18.559343
4067   0  1 28.553173  8.565751 17.131674
4867   0  1 34.263850  8.565810 17.131726
4887   0  1 34.263851 11.421078 17.131740
12466  0  1 32.836190  9.993449 15.704065
12467  0  1 32.836189  9.993390 18.559375
12866  0  1 35.691505  9.993492 15.704093
12867  0  1 35.691510  9.993435 18.559399
5267   0  1 37.119168  8.565848 17.131744
5287   0  1 37.119150 11.421137 17.131771
5667   0  1 39.974476  8.565888 17.131754
5687   0  1 39.974442 11.421194 17.131788
13266  0  1 38.546807  9.993539 15.704114
13267  0  1 38.546819  9.993486 18.559414
6067   0  1 42.829775  8.565923 17.131758
6087   0  1 42.829738 11.421235 17.131789
13666  0  1 41.402102  9.993580 15.704125
13667  0  1 41.402119  9.993535 18.559419
14066  0  1 44.257397  9.993609 15.704125
14067  0  1 44.257417  9.993571 18.559419
6467   0  1 45.685068  8.565947 17.131756
6487   0  1 45.685039 11.421257 17.131782
6867   0  1 48.540353  8.565958 17.131750
6887   0  1 48.540335 11.421267 17.131773
14466  0  1 47.112691  9.993623 15.704118
14467  0  1 47.112710  9.993592 18.559415
7267   0  1 51.395626  8.565956 17.131740
7287   0  1 51.395617 11.421266 17.131762
14866  0  1 49.967976  9.993625 15.704106
14867  0  1 49.967993  9.993600 18.559410
15266  0  1 52.823249  9.993616 15.704090
15267  0  1 52.823260  9.993595 18.559400
7667   0  1 54.250885  8.565941 17.131725
7687   0  1 54.250883 11.421253 17.131745
15666  0  1 55.678508  9.993593 15.704066
15667  0  1 55.678514  9.993573 18.559383
67     0  1 57.106135  8.565912 17.131702
87     0  1 57.106136 11.421220 17.131718
4507   0  1 31.408548 14.276305 17.131723
4107   0  1 28.553217 14.276229 17.131655
12086  0  1 29.980874 12.848676 15.704040
12087  0  1 29.980873 12.848579 18.559326
12106  0  1 29.980886 15.703972 15.704076
12107  0  1 29.980906 15.703845 18.559341
4907   0  1 34.263841 14.276389 17.131785
12887  0  1 35.691498 12.848720 18.559423
12886  0  1 35.691489 12.848800 15.704132
12486  0  1 32.836194 12.848735 15.704090
12487  0  1 32.836200 12.848644 18.559380
12507  0  1 32.836201 15.703956 18.559431
12506  0  1 32.836185 15.704058 15.704144
12907  0  1 35.691449 15.704074 18.559503
12906  0  1 35.691450 15.704144 15.704203
5307   0  1 37.119108 14.276473 17.131831
5707   0  1 39.974379 14.276538 17.131850
13286  0  1 38.546769 12.848862 15.704163
13287  0  1 38.546782 12.848797 18.559449
13306  0  1 38.546705 15.704215 15.704240
13307  0  1 38.546693 15.704171 18.559537
6107   0  1 42.829690 14.276563 17.131834
13686  0  1 41.402054 12.848908 15.704173
13687  0  1 41.402076 12.848853 18.559452
14086  0  1 44.257359 12.848929 15.704163
14087  0  1 44.257384 12.848883 18.559445
13706  0  1 41.401992 15.704249 15.704239
13707  0  1 41.402011 15.704197 18.559508
14106  0  1 44.257325 15.704247 15.704206
14107  0  1 44.257358 15.704196 18.559479
6907   0  1 48.540322 14.276577 17.131801
6507   0  1 45.685014 14.276570 17.131814
14486  0  1 47.112667 12.848937 15.704148
14487  0  1 47.112692 12.848898 18.559438
14506  0  1 47.112649 15.704248 15.704180
14507  0  1 47.112679 15.704208 18.559466
7307   0  1 51.395611 14.276580 17.131788
14886  0  1 49.967964 12.848938 15.704132
14887  0  1 49.967984 12.848908 18.559431
15286  0  1 52.823244 12.848931 15.704114
15287  0  1 52.823258 12.848906 18.559422
15307  0  1 52.823259 15.704221 18.559449
15306  0  1 52.823243 15.704246 15.704142
14906  0  1 49.967954 15.704251 15.704162
14907  0  1 49.967977 15.704220 18.559459
7707   0  1 54.250885 14.276568 17.131769
15687  0  1 55.678518 12.848885 18.559403
15686  0  1 55.678510 12.848908 15.704087
15707  0  1 55.678527 15.704203 18.559429
15706  0  1 55.678516 15.704226 15.704113
107    0  1 57.106144 14.276537 17.131739
4127   0  1 28.553240 17.131521 17.131699
4147   0  1 28.553225 19.986783 17.131724
4527   0  1 31.408550 17.131636 17.131796
4547   0  1 31.408512 19.986936 17.131840
12126  0  1 29.980872 18.559265 15.704111
12127  0  1 29.980927 18.559191 18.559447
12527  0  1 32.836160 18.559363 18.559580
12526  0  1 32.836150 18.559376 15.704193
12927  0  1 35.691324 18.559521 18.559685
12926  0  1 35.691387 18.559481 15.704267
4927   0  1 34.263799 17.131757 17.131883
4947   0  1 34.263720 19.987090 17.131953
4946   0  1 34.263741 19.987105 14.276576
5327   0  1 37.119020 17.131860 17.131945
5347   0  1 37.118907 19.987199 17.132039
5727   0  1 39.974283 17.131907 17.131950
5747   0  1 39.974244 19.987181 17.132000
13326  0  1 38.546628 18.559548 15.704312
13327  0  1 38.546523 18.559601 18.559711
5326   0  1 37.119056 17.131858 14.276586
5346   0  1 37.118999 19.987172 14.276629
5726   0  1 39.974326 17.131904 14.276610
5746   0  1 39.974287 19.987198 14.276649
6127   0  1 42.829650 17.131882 17.131886
6147   0  1 42.829629 19.987174 17.131925
13726  0  1 41.401951 18.559550 15.704288
13727  0  1 41.401963 18.559517 18.559577
14126  0  1 44.257301 18.559549 15.704243
14127  0  1 44.257341 18.559503 18.559519
6126   0  1 42.829640 17.131913 14.276595
6146   0  1 42.829612 19.987209 14.276630
6527   0  1 45.684995 17.131880 17.131850
6547   0  1 45.684978 19.987185 17.131885
6927   0  1 48.540311 17.131889 17.131832
6947   0  1 48.540298 19.987199 17.131866
14526  0  1 47.112634 18.559556 15.704213
14527  0  1 47.112666 18.559520 18.559501
6526   0  1 45.684969 17.131916 14.276565
6546   0  1 45.684950 19.987216 14.276596
6946   0  1 48.540277 19.987222 14.276569
15327  0  1 52.823258 18.559538 18.559481
15326  0  1 52.823243 18.559559 15.704172
7327   0  1 51.395607 17.131894 17.131819
7347   0  1 51.395602 19.987206 17.131851
14926  0  1 49.967946 18.559561 15.704192
14927  0  1 49.967968 18.559535 18.559493
15727  0  1 55.678538 18.559523 18.559459
15726  0  1 55.678526 18.559543 15.704143
7727   0  1 54.250890 17.131885 17.131799
7747   0  1 54.250895 19.987199 17.131830
127    0  1 57.106158 17.131858 17.131767
147    0  1 57.106174 19.987178 17.131798
4167   0  1 28.553129 22.842076 17.131759
4567   0  1 31.408409 22.842240 17.131859
12167  0  1 29.980720 24.269718 18.559454
12166  0  1 29.980701 24.269952 15.704255
12146  0  1 29.980809 21.414572 15.704149
12147  0  1 29.980885 21.414433 18.559460
4566   0  1 31.408393 22.842368 14.276588
12547  0  1 32.836063 21.414666 18.559633
12967  0  1 35.691170 24.269982 18.559784
12966  0  1 35.691265 24.270080 15.704365
12546  0  1 32.836077 21.414692 15.704228
12947  0  1 35.691149 21.414856 18.559801
12946  0  1 35.691315 21.414788 15.704308
4967   0  1 34.263628 22.842380 17.131976
12567  0  1 32.835943 24.269922 18.559605
12566  0  1 32.835983 24.270042 15.704303
4966   0  1 34.263671 22.842436 14.276632
5367   0  1 37.118885 22.842422 17.132061
5767   0  1 39.974221 22.842443 17.132037
13346  0  1 38.546592 21.414820 15.704349
13347  0  1 38.546508 21.414797 18.559742
13366  0  1 38.546560 24.270096 15.704391
13367  0  1 38.546495 24.270025 18.559776
5366   0  1 37.118954 22.842469 14.276674
5766   0  1 39.974256 22.842485 14.276686
6167   0  1 42.829608 22.842464 17.131960
13746  0  1 41.401923 21.414833 15.704325
13747  0  1 41.401953 21.414786 18.559613
13766  0  1 41.401900 24.270113 15.704357
13767  0  1 41.401932 24.270069 18.559650
14146  0  1 44.257281 21.414844 15.704276
14147  0  1 44.257324 21.414807 18.559557
14166  0  1 44.257264 24.270132 15.704302
14167  0  1 44.257300 24.270110 18.559594
6166   0  1 42.829589 22.842496 14.276660
6567   0  1 45.684960 22.842487 17.131918
6967   0  1 48.540285 22.842503 17.131897
14546  0  1 47.112619 21.414857 15.704243
14547  0  1 47.112649 21.414832 18.559538
14566  0  1 47.112608 24.270150 15.704268
14567  0  1 47.112629 24.270137 18.559573
6566   0  1 45.684935 22.842508 14.276621
6966   0  1 48.540268 22.842517 14.276593
15367  0  1 52.823255 24.270155 18.559542
15366  0  1 52.823244 24.270164 15.704226
15347  0  1 52.823257 21.414850 18.559513
15346  0  1 52.823243 21.414866 15.704201
7367   0  1 51.395597 22.842510 17.131881
14946  0  1 49.967938 21.414866 15.704222
14947  0  1 49.967956 21.414847 18.559527
14966  0  1 49.967932 24.270161 15.704246
14967  0  1 49.967945 24.270152 18.559558
7366   0  1 51.395585 22.842522 14.276570
15767  0  1 55.678558 24.270148 18.559520
15766  0  1 55.678546 24.270159 15.704199
15747  0  1 55.678549 21.414839 18.559491
15746  0  1 55.678536 21.414855 15.704173
7767   0  1 54.250900 22.842507 17.131860
167    0  1 57.106190 22.842493 17.131829
12187  0  1 29.980533 27.125204 18.559664
12186  0  1 29.980599 27.125358 15.704421
4587   0  1 31.408276 25.697631 17.131976
4607   0  1 31.408179 28.553012 17.132188
4606   0  1 31.408253 28.553071 14.276810
4586   0  1 31.408308 25.697734 14.276698
12987  0  1 35.691137 27.125236 18.559857
12986  0  1 35.691219 27.125369 15.704435
12587  0  1 32.835864 27.125249 18.559770
12586  0  1 32.835903 27.125384 15.704431
4987   0  1 34.263570 25.697675 17.132061
5007   0  1 34.263516 28.552967 17.132167
5006   0  1 34.263565 28.553054 14.276786
4986   0  1 34.263607 25.697759 14.276714
5387   0  1 37.118853 25.697685 17.132113
5787   0  1 39.974198 25.697712 17.132071
13386  0  1 38.546538 27.125364 15.704424
13387  0  1 38.546475 27.125282 18.559811
5407   0  1 37.118837 28.552944 17.132147
5807   0  1 39.974196 28.552973 17.132080
5806   0  1 39.974228 28.553026 14.276725
5406   0  1 37.118893 28.553031 14.276757
5386   0  1 37.118914 25.697759 14.276724
5786   0  1 39.974232 25.697762 14.276715
6187   0  1 42.829590 25.697748 17.131987
13786  0  1 41.401890 27.125382 15.704374
13787  0  1 41.401913 27.125350 18.559675
14186  0  1 44.257257 27.125410 15.704316
14187  0  1 44.257282 27.125401 18.559619
6207   0  1 42.829587 28.553022 17.131994
6206   0  1 42.829576 28.553041 14.276681
6186   0  1 42.829575 25.697773 14.276679
6587   0  1 45.684945 25.697778 17.131943
6987   0  1 48.540275 25.697797 17.131921
14586  0  1 47.112602 27.125433 15.704282
14587  0  1 47.112614 27.125432 18.559596
6607   0  1 45.684940 28.553059 17.131953
7007   0  1 48.540270 28.553083 17.131933
7006   0  1 48.540264 28.553081 14.276615
6606   0  1 45.684927 28.553063 14.276640
6986   0  1 48.540263 25.697803 14.276609
6586   0  1 45.684926 25.697789 14.276638
7387   0  1 51.395593 25.697806 17.131904
15387  0  1 52.823254 27.125452 18.559562
15386  0  1 52.823246 27.125455 15.704242
14987  0  1 49.967936 27.125447 18.559580
14986  0  1 49.967929 27.125448 15.704261
7407   0  1 51.395592 28.553095 17.131917
7406   0  1 51.395587 28.553094 14.276595
7386   0  1 51.395585 25.697811 14.276587
15787  0  1 55.678566 27.125450 18.559541
15786  0  1 55.678553 27.125455 15.704217
7787   0  1 54.250904 25.697807 17.131884
187    0  1 57.106204 25.697799 17.131855
7807   0  1 54.250908 28.553099 17.131898
207    0  1 57.106214 28.553098 17.131872
7806   0  1 54.250900 28.553100 14.276574
7786   0  1 54.250895 25.697813 14.276563
4008   0  1 28.553159  0.000092 19.986989
4009   0  1 28.553154  0.000072 22.842350
4028   0  1 28.553153  2.855297 19.987017
4029   0  1 28.553146  2.855283 22.842371
4408   0  1 31.408523  0.000097 19.986998
4409   0  1 31.408519  0.000079 22.842357
4428   0  1 31.408509  2.855304 19.987028
4429   0  1 31.408504  2.855290 22.842380
12008  0  1 29.980833  1.427687 21.414689
4808   0  1 34.263882  0.000104 19.987002
4809   0  1 34.263881  0.000090 22.842359
4828   0  1 34.263859  2.855315 19.987034
4829   0  1 34.263857  2.855301 22.842383
12408  0  1 32.836191  1.427695 21.414695
12808  0  1 35.691543  1.427706 21.414696
5208   0  1 37.119233  0.000112 19.987004
5209   0  1 37.119236  0.000103 22.842358
5228   0  1 37.119201  2.855328 19.987036
5229   0  1 37.119205  2.855315 22.842381
5608   0  1 39.974570  0.000115 19.987006
5609   0  1 39.974578  0.000110 22.842357
5628   0  1 39.974533  2.855342 19.987036
5629   0  1 39.974540  2.855330 22.842377
13208  0  1 38.546886  1.427718 21.414695
6008   0  1 42.829888  0.000109 19.987011
6009   0  1 42.829899  0.000109 22.842357
6028   0  1 42.829848  2.855353 19.987035
6029   0  1 42.829860  2.855342 22.842374
13608  0  1 41.402215  1.427725 21.414694
14008  0  1 44.257523  1.427726 21.414695
6408   0  1 45.685181  0.000093 19.987017
6409   0  1 45.685195  0.000095 22.842360
6428   0  1 45.685144  2.855356 19.987035
6429   0  1 45.685158  2.855348 22.842372
6808   0  1 48.540450  0.000068 19.987024
6809   0  1 48.540464  0.000070 22.842364
6828   0  1 48.540418  2.855352 19.987036
6829   0  1 48.540433  2.855345 22.842371
14408  0  1 47.112808  1.427717 21.414696
7208   0  1 51.395697  0.000041 19.987028
7209   0  1 51.395710  0.000042 22.842367
7228   0  1 51.395674  2.855339 19.987034
7229   0  1 51.395687  2.855334 22.842371
14808  0  1 49.968069  1.427700 21.414698
15208  0  1 52.823312  1.427680 21.414698
7608   0  1 54.250932  0.000019 19.987027
7609   0  1 54.250943  0.000020 22.842367
7628   0  1 54.250916  2.855323 19.987029
7629   0  1 54.250926  2.855318 22.842368
15608  0  1 55.678545  1.427664 21.414693
8      0  1 57.106163  0.000010 19.987018
9      0  1 57.106170  0.000011 22.842362
28     0  1 57.106152  2.855308 19.987018
29     0  1 57.106159  2.855304 22.842362
4048   0  1 28.553152  5.710509 19.987023
4049   0  1 28.553140  5.710498 22.842375
4448   0  1 31.408505  5.710522 19.987039
4449   0  1 31.408497  5.710507 22.842388
12028  0  1 29.980825  4.282900 21.414705
12048  0  1 29.980825  7.138113 21.414703
4848   0  1 34.263849  5.710538 19.987048
4849   0  1 34.263848  5.710520 22.842393
12428  0  1 32.836178  4.282911 21.414714
12448  0  1 32.836175  7.138130 21.414717
12828  0  1 35.691524  4.282925 21.414716
12848  0  1 35.691517  7.138152 21.414723
5248   0  1 37.119185  5.710560 19.987053
5249   0  1 37.119191  5.710540 22.842391
5648   0  1 39.974509  5.710586 19.987053
5649   0  1 39.974521  5.710564 22.842386
13228  0  1 38.546860  4.282943 21.414714
13248  0  1 38.546847  7.138182 21.414722
6048   0  1 42.829819  5.710611 19.987051
6049   0  1 42.829835  5.710590 22.842381
13628  0  1 41.402184  4.282963 21.414711
13648  0  1 41.402164  7.138216 21.414719
14028  0  1 44.257490  4.282979 21.414709
14048  0  1 44.257465  7.138247 21.414717
6448   0  1 45.685113  5.710630 19.987050
6449   0  1 45.685131  5.710611 22.842378
6848   0  1 48.540392  5.710639 19.987047
6849   0  1 48.540409  5.710623 22.842377
14428  0  1 47.112776  4.282988 21.414707
14448  0  1 47.112752  7.138269 21.414716
7248   0  1 51.395654  5.710636 19.987043
7249   0  1 51.395669  5.710623 22.842376
14828  0  1 49.968043  4.282987 21.414706
14848  0  1 49.968024  7.138278 21.414714
15228  0  1 52.823293  4.282977 21.414702
15248  0  1 52.823281  7.138273 21.414710
7648   0  1 54.250903  5.710623 19.987036
7649   0  1 54.250914  5.710612 22.842372
15628  0  1 55.678532  4.282960 21.414695
15648  0  1 55.678525  7.138255 21.414702
48     0  1 57.106143  5.710600 19.987022
49     0  1 57.106151  5.710591 22.842364
4068   0  1 28.553157  8.565717 19.987008
4088   0  1 28.553172 11.420913 19.986974
4468   0  1 31.408510  8.565739 19.987033
4469   0  1 31.408499  8.565717 22.842383
4488   0  1 31.408525 11.420954 19.987017
4489   0  1 31.408510 11.420909 22.842364
12068  0  1 29.980832  9.993315 21.414685
4069   0  1 28.553138  8.565703 22.842363
4089   0  1 28.553142 11.420880 22.842330
4868   0  1 34.263849  8.565768 19.987051
4869   0  1 34.263850  8.565739 22.842391
4888   0  1 34.263854 11.421007 19.987050
4889   0  1 34.263860 11.420952 22.842381
12468  0  1 32.836183  9.993345 21.414709
12868  0  1 35.691518  9.993385 21.414721
5268   0  1 37.119176  8.565805 19.987060
5269   0  1 37.119188  8.565771 22.842390
5288   0  1 37.119165 11.421070 19.987070
5289   0  1 37.119190 11.421011 22.842383
5668   0  1 39.974491  8.565847 19.987063
5669   0  1 39.974511  8.565811 22.842385
5688   0  1 39.974466 11.421134 19.987078
5689   0  1 39.974500 11.421077 22.842381
13268  0  1 38.546838  9.993436 21.414724
6068   0  1 42.829795  8.565887 19.987063
6069   0  1 42.829818  8.565853 22.842382
6088   0  1 42.829765 11.421185 19.987078
6089   0  1 42.829800 11.421134 22.842381
13668  0  1 41.402145  9.993488 21.414724
14068  0  1 44.257443  9.993531 21.414724
6468   0  1 45.685088  8.565917 19.987062
6469   0  1 45.685111  8.565887 22.842381
6488   0  1 45.685066 11.421215 19.987077
6489   0  1 45.685097 11.421173 22.842385
6868   0  1 48.540371  8.565933 19.987060
6869   0  1 48.540392  8.565908 22.842382
6888   0  1 48.540358 11.421233 19.987076
6889   0  1 48.540384 11.421200 22.842390
14468  0  1 47.112734  9.993559 21.414725
7268   0  1 51.395641  8.565936 19.987056
7269   0  1 51.395659  8.565916 22.842383
7288   0  1 51.395635 11.421240 19.987072
7289   0  1 51.395655 11.421215 22.842394
14868  0  1 49.968013  9.993573 21.414725
15268  0  1 52.823276  9.993574 21.414722
7668   0  1 54.250896  8.565924 19.987047
7669   0  1 54.250909  8.565908 22.842380
7688   0  1 54.250896 11.421231 19.987063
7689   0  1 54.250911 11.421212 22.842392
15668  0  1 55.678525  9.993556 21.414713
68     0  1 57.106139  8.565896 19.987031
69     0  1 57.106149  8.565882 22.842371
88     0  1 57.106142 11.421200 19.987044
89     0  1 57.106154 11.421184 22.842382
4509   0  1 31.408534 14.276078 22.842333
4508   0  1 31.408550 14.276182 19.987005
4108   0  1 28.553204 14.276104 19.986930
12088  0  1 29.980853 12.848498 21.414648
12108  0  1 29.980894 15.703677 21.414609
4109   0  1 28.553160 14.276014 22.842267
4909   0  1 34.263867 14.276169 22.842371
4908   0  1 34.263850 14.276279 19.987069
12888  0  1 35.691515 12.848634 21.414723
12488  0  1 32.836197 12.848557 21.414694
12508  0  1 32.836208 15.703799 21.414702
12908  0  1 35.691469 15.703944 21.414764
5309   0  1 37.119171 14.276283 22.842382
5308   0  1 37.119124 14.276384 19.987109
5709   0  1 39.974465 14.276379 22.842382
5708   0  1 39.974411 14.276464 19.987113
13288  0  1 38.546815 12.848719 21.414732
13308  0  1 38.546742 15.704065 21.414771
6109   0  1 42.829776 14.276432 22.842384
6108   0  1 42.829727 14.276502 19.987104
13688  0  1 41.402114 12.848788 21.414733
14088  0  1 44.257421 12.848829 21.414734
13708  0  1 41.402065 15.704114 21.414758
14108  0  1 44.257406 15.704130 21.414752
6909   0  1 48.540380 14.276499 22.842404
6908   0  1 48.540350 14.276539 19.987097
6509   0  1 45.685089 14.276466 22.842393
6508   0  1 45.685048 14.276520 19.987098
14488  0  1 47.112723 12.848855 21.414737
14508  0  1 47.112716 15.704159 21.414758
7309   0  1 51.395654 14.276522 22.842412
7308   0  1 51.395632 14.276551 19.987095
14888  0  1 49.968008 12.848875 21.414741
15288  0  1 52.823276 12.848881 21.414740
15308  0  1 52.823277 15.704196 21.414764
14908  0  1 49.968003 15.704185 21.414764
7709   0  1 54.250917 14.276523 22.842410
7708   0  1 54.250900 14.276545 19.987086
15688  0  1 55.678531 12.848865 21.414730
15708  0  1 55.678541 15.704183 21.414752
109    0  1 57.106167 14.276497 22.842398
108    0  1 57.106153 14.276515 19.987064
4128   0  1 28.553259 17.131338 19.986929
4129   0  1 28.553214 17.131102 22.842174
4148   0  1 28.553320 19.986710 19.987096
4149   0  1 28.553345 19.986288 22.842174
4528   0  1 31.408573 17.131488 19.987062
4529   0  1 31.408566 17.131254 22.842312
4548   0  1 31.408548 19.986965 19.987306
4549   0  1 31.408557 19.986646 22.842479
12128  0  1 29.980958 18.558953 21.414659
12528  0  1 32.836161 18.559196 21.414844
12928  0  1 35.691247 18.559455 21.414979
4928   0  1 34.263797 17.131656 19.987176
4929   0  1 34.263824 17.131453 22.842409
4948   0  1 34.263623 19.987215 19.987485
4949   0  1 34.263471 19.987095 22.842747
5328   0  1 37.118986 17.131809 19.987244
5329   0  1 37.119069 17.131650 22.842421
5348   0  1 37.118646 19.987389 19.987586
5349   0  1 37.118800 19.987170 22.842557
5728   0  1 39.974315 17.131835 19.987188
5729   0  1 39.974396 17.131720 22.842403
5748   0  1 39.974262 19.987149 19.987282
5749   0  1 39.974398 19.986999 22.842443
13328  0  1 38.546587 18.559488 21.414874
6128   0  1 42.829700 17.131814 19.987141
6129   0  1 42.829769 17.131725 22.842399
6148   0  1 42.829691 19.987115 19.987186
6149   0  1 42.829779 19.987021 22.842435
13728  0  1 41.402044 18.559419 21.414798
14128  0  1 44.257402 18.559434 21.414784
6528   0  1 45.685038 17.131827 19.987128
6529   0  1 45.685086 17.131765 22.842414
6548   0  1 45.685023 19.987142 19.987167
6549   0  1 45.685072 19.987086 22.842453
6928   0  1 48.540341 17.131852 19.987127
6929   0  1 48.540372 17.131810 22.842429
6948   0  1 48.540326 19.987170 19.987164
6949   0  1 48.540353 19.987135 22.842466
14528  0  1 47.112705 18.559474 21.414791
15328  0  1 52.823276 18.559515 21.414794
7328   0  1 51.395628 17.131866 19.987125
7329   0  1 51.395649 17.131838 22.842437
7348   0  1 51.395620 19.987184 19.987159
7349   0  1 51.395638 19.987159 22.842469
14928  0  1 49.967992 18.559504 21.414797
15728  0  1 55.678553 18.559503 21.414779
7728   0  1 54.250905 17.131863 19.987114
7729   0  1 54.250922 17.131842 22.842434
7748   0  1 54.250909 19.987181 19.987145
7749   0  1 54.250925 19.987162 22.842462
128    0  1 57.106170 17.131836 19.987090
129    0  1 57.106186 17.131818 22.842419
148    0  1 57.106189 19.987159 19.987120
149    0  1 57.106207 19.987141 22.842444
4168   0  1 28.553256 22.841802 19.987016
4169   0  1 28.553555 22.842176 22.842997
4568   0  1 31.408426 22.842158 19.987278
4569   0  1 31.408428 22.842840 22.843516
12168  0  1 29.980805 24.269438 21.414812
12148  0  1 29.980993 21.414566 21.415091
12548  0  1 32.835950 21.414970 21.415396
12968  0  1 35.690883 24.269797 21.415392
12948  0  1 35.690479 21.415425 21.415745
4968   0  1 34.263342 22.842505 19.987595
4969   0  1 34.261559 22.844136 22.844646
12568  0  1 32.835519 24.270055 21.415354
5368   0  1 37.118728 22.842367 19.987531
5369   0  1 37.118835 22.842355 22.842750
5768   0  1 39.974279 22.842373 19.987305
5769   0  1 39.974455 22.842263 22.842503
13348  0  1 38.546545 21.414773 21.415009
13368  0  1 38.546619 24.269911 21.414993
6168   0  1 42.829674 22.842419 19.987229
6169   0  1 42.829759 22.842356 22.842497
13748  0  1 41.402056 21.414707 21.414850
13768  0  1 41.402034 24.270016 21.414900
14148  0  1 44.257386 21.414755 21.414832
14168  0  1 44.257347 24.270085 21.414886
6568   0  1 45.684998 22.842460 19.987211
6569   0  1 45.685035 22.842426 22.842508
6968   0  1 48.540305 22.842486 19.987203
6969   0  1 48.540323 22.842464 22.842509
14548  0  1 47.112681 21.414800 21.414835
14568  0  1 47.112649 24.270123 21.414880
15368  0  1 52.823265 24.270144 21.414856
15348  0  1 52.823271 21.414832 21.414826
7368   0  1 51.395610 22.842496 19.987193
7369   0  1 51.395622 22.842480 22.842503
14948  0  1 49.967975 21.414825 21.414834
14968  0  1 49.967955 24.270140 21.414870
15768  0  1 55.678573 24.270136 21.414837
15748  0  1 55.678564 21.414822 21.414809
7768   0  1 54.250913 22.842494 19.987176
7769   0  1 54.250926 22.842479 22.842490
168    0  1 57.106207 22.842477 19.987151
169    0  1 57.106226 22.842462 22.842470
4189   0  1 28.553166 25.696319 22.842019
12188  0  1 29.980629 27.124594 21.414481
4588   0  1 31.408273 25.697361 19.987136
4589   0  1 31.407952 25.697095 22.842738
4609   0  1 31.408134 28.551894 22.842805
4608   0  1 31.408127 28.552812 19.987513
12988  0  1 35.690885 27.124966 21.415439
12588  0  1 32.835796 27.124801 21.415199
4988   0  1 34.263459 25.697460 19.987505
4989   0  1 34.262958 25.696819 22.843351
5008   0  1 34.263420 28.552725 19.987625
5009   0  1 34.262889 28.552144 22.843495
5388   0  1 37.118728 25.697552 19.987563
5389   0  1 37.119006 25.697360 22.842656
5788   0  1 39.974255 25.697652 19.987344
5789   0  1 39.974414 25.697596 22.842567
13388  0  1 38.546584 27.125198 21.415037
5409   0  1 37.118935 28.552690 22.842711
5408   0  1 37.118718 28.552796 19.987590
5808   0  1 39.974237 28.552932 19.987364
5809   0  1 39.974332 28.552941 22.842627
6188   0  1 42.829641 25.697726 19.987271
6189   0  1 42.829696 25.697709 22.842566
13788  0  1 41.401985 27.125336 21.414949
14188  0  1 44.257305 27.125403 21.414929
6208   0  1 42.829618 28.553020 19.987294
6209   0  1 42.829634 28.553040 22.842613
6588   0  1 45.684969 25.697770 19.987249
6589   0  1 45.684986 25.697761 22.842560
6988   0  1 48.540286 25.697792 19.987235
6989   0  1 48.540292 25.697785 22.842548
14588  0  1 47.112620 27.125433 21.414913
6608   0  1 45.684949 28.553066 19.987270
7008   0  1 48.540272 28.553088 19.987253
7009   0  1 48.540268 28.553094 22.842570
6609   0  1 45.684945 28.553079 22.842593
7388   0  1 51.395601 25.697801 19.987220
7389   0  1 51.395608 25.697793 22.842532
15388  0  1 52.823260 27.125449 21.414878
14988  0  1 49.967939 27.125446 21.414896
7408   0  1 51.395595 28.553097 19.987236
7409   0  1 51.395596 28.553098 22.842549
15788  0  1 55.678580 27.125444 21.414858
7788   0  1 54.250915 25.697799 19.987202
7789   0  1 54.250926 25.697790 22.842515
188    0  1 57.106222 25.697789 19.987178
7808   0  1 54.250917 28.553098 19.987218
7809   0  1 54.250925 28.553096 22.842530
4010   0  1 28.553151  0.000054 25.697713
4030   0  1 28.553142  2.855273 25.697728
4410   0  1 31.408518  0.000063 25.697719
4430   0  1 31.408502  2.855280 25.697735
12009  0  1 29.980828  1.427672 24.270047
12010  0  1 29.980829  1.427661 27.125405
4031   0  1 28.553145  2.855268 28.553085
4431   0  1 31.408506  2.855274 28.553090
4011   0  1 28.553154  0.000042 28.553075
4411   0  1 31.408520  0.000052 28.553081
4810   0  1 34.263881  0.000077 25.697721
4830   0  1 34.263859  2.855290 25.697736
12409  0  1 32.836189  1.427681 24.270051
12410  0  1 32.836190  1.427671 27.125409
12809  0  1 35.691544  1.427694 24.270051
12810  0  1 35.691548  1.427685 27.125408
4811   0  1 34.263885  0.000067 28.553084
4831   0  1 34.263865  2.855284 28.553091
5210   0  1 37.119239  0.000093 25.697719
5230   0  1 37.119210  2.855304 25.697733
5610   0  1 39.974584  0.000104 25.697716
5630   0  1 39.974549  2.855319 25.697727
13209  0  1 38.546892  1.427708 24.270047
13210  0  1 38.546898  1.427700 27.125404
5211   0  1 37.119244  0.000085 28.553083
5231   0  1 37.119218  2.855297 28.553088
5611   0  1 39.974591  0.000099 28.553079
5631   0  1 39.974559  2.855311 28.553082
6010   0  1 42.829909  0.000106 25.697714
6030   0  1 42.829872  2.855332 25.697721
13609  0  1 41.402224  1.427718 24.270043
13610  0  1 41.402233  1.427711 27.125399
14009  0  1 44.257535  1.427721 24.270041
14010  0  1 44.257547  1.427715 27.125395
6011   0  1 42.829919  0.000102 28.553075
6031   0  1 42.829884  2.855324 28.553076
6410   0  1 45.685208  0.000094 25.697713
6430   0  1 45.685172  2.855339 25.697718
6810   0  1 48.540478  0.000070 25.697714
6830   0  1 48.540448  2.855338 25.697717
14409  0  1 47.112822  1.427713 24.270040
14410  0  1 47.112835  1.427708 27.125393
6411   0  1 45.685220  0.000091 28.553072
6431   0  1 45.685185  2.855332 28.553071
6811   0  1 48.540491  0.000068 28.553070
6831   0  1 48.540462  2.855330 28.553069
7210   0  1 51.395724  0.000042 25.697716
7230   0  1 51.395702  2.855328 25.697717
14809  0  1 49.968083  1.427697 24.270041
14810  0  1 49.968097  1.427693 27.125392
15209  0  1 52.823324  1.427677 24.270041
15210  0  1 52.823337  1.427674 27.125392
7231   0  1 51.395716  2.855321 28.553069
7211   0  1 51.395737  0.000039 28.553070
7610   0  1 54.250955  0.000019 25.697716
7630   0  1 54.250939  2.855313 25.697716
15609  0  1 55.678555  1.427662 24.270039
15610  0  1 55.678567  1.427658 27.125392
10     0  1 57.106180  0.000010 25.697714
30     0  1 57.106169  2.855299 25.697713
7631   0  1 54.250952  2.855308 28.553069
7611   0  1 54.250967  0.000016 28.553070
31     0  1 57.106181  2.855295 28.553070
11     0  1 57.106192  0.000007 28.553070
4050   0  1 28.553134  5.710494 25.697733
4450   0  1 31.408494  5.710500 25.697743
12029  0  1 29.980819  4.282890 24.270059
12030  0  1 29.980819  4.282885 27.125414
12049  0  1 29.980814  7.138105 24.270060
12050  0  1 29.980812  7.138103 27.125419
4051   0  1 28.553136  5.710493 28.553091
4451   0  1 31.408500  5.710497 28.553097
4850   0  1 34.263851  5.710510 25.697743
12429  0  1 32.836175  4.282899 24.270065
12430  0  1 32.836178  4.282892 27.125418
12449  0  1 32.836172  7.138115 24.270068
12450  0  1 32.836177  7.138109 27.125421
12829  0  1 35.691526  4.282911 24.270063
12830  0  1 35.691533  4.282902 27.125415
12849  0  1 35.691523  7.138133 24.270066
12850  0  1 35.691535  7.138121 27.125415
4851   0  1 34.263860  5.710504 28.553095
5250   0  1 37.119200  5.710525 25.697737
5650   0  1 39.974535  5.710547 25.697728
13229  0  1 38.546868  4.282928 24.270058
13230  0  1 38.546878  4.282918 27.125408
13249  0  1 38.546861  7.138158 24.270059
13250  0  1 38.546878  7.138142 27.125404
5251   0  1 37.119212  5.710516 28.553088
5651   0  1 39.974550  5.710535 28.553078
6050   0  1 42.829851  5.710572 25.697722
13629  0  1 41.402196  4.282948 24.270052
13630  0  1 41.402209  4.282936 27.125401
13649  0  1 41.402182  7.138191 24.270051
13650  0  1 41.402202  7.138171 27.125395
14029  0  1 44.257504  4.282965 24.270047
14030  0  1 44.257519  4.282953 27.125395
14049  0  1 44.257485  7.138223 24.270047
14050  0  1 44.257506  7.138202 27.125389
6051   0  1 42.829868  5.710558 28.553071
6450   0  1 45.685149  5.710594 25.697718
6850   0  1 48.540426  5.710609 25.697717
14429  0  1 47.112792  4.282976 24.270045
14430  0  1 47.112808  4.282965 27.125392
14449  0  1 47.112772  7.138247 24.270047
14450  0  1 47.112792  7.138229 27.125388
6451   0  1 45.685166  5.710580 28.553066
6851   0  1 48.540443  5.710596 28.553065
7250   0  1 51.395685  5.710611 25.697718
14829  0  1 49.968059  4.282977 24.270044
14830  0  1 49.968074  4.282967 27.125392
14849  0  1 49.968042  7.138260 24.270047
14850  0  1 49.968061  7.138245 27.125390
15229  0  1 52.823307  4.282969 24.270043
15230  0  1 52.823321  4.282961 27.125392
15249  0  1 52.823296  7.138259 24.270047
15250  0  1 52.823312  7.138248 27.125393
7251   0  1 51.395701  5.710601 28.553067
7650   0  1 54.250928  5.710603 25.697718
15629  0  1 55.678543  4.282954 24.270040
15630  0  1 55.678555  4.282947 27.125392
15649  0  1 55.678537  7.138244 24.270044
15650  0  1 55.678551  7.138236 27.125394
50     0  1 57.106162  5.710584 25.697715
7651   0  1 54.250942  5.710595 28.553069
51     0  1 57.106175  5.710578 28.553070
4070   0  1 28.553125  8.565701 25.697729
4090   0  1 28.553116 11.420877 25.697712
4470   0  1 31.408494  8.565709 25.697742
4490   0  1 31.408503 11.420892 25.697733
12069  0  1 29.980815  9.993301 24.270048
12070  0  1 29.980809  9.993301 27.125419
4071   0  1 28.553126  8.565704 28.553096
4491   0  1 31.408516 11.420891 28.553105
4471   0  1 31.408502  8.565709 28.553102
4870   0  1 34.263857  8.565723 25.697741
4890   0  1 34.263875 11.420920 25.697729
12870  0  1 35.691553  9.993330 27.125407
12869  0  1 35.691532  9.993350 24.270058
12469  0  1 32.836180  9.993319 24.270060
12470  0  1 32.836188  9.993310 27.125419
4871   0  1 34.263872  8.565716 28.553095
4891   0  1 34.263902 11.420905 28.553089
5270   0  1 37.119205  8.565747 25.697731
5290   0  1 37.119221 11.420968 25.697715
5670   0  1 39.974534  8.565783 25.697721
5690   0  1 39.974537 11.421031 25.697704
13269  0  1 38.546864  9.993396 24.270050
13270  0  1 38.546892  9.993367 27.125391
5271   0  1 37.119226  8.565733 28.553082
5291   0  1 37.119257 11.420940 28.553066
5691   0  1 39.974576 11.420995 28.553049
5671   0  1 39.974558  8.565763 28.553068
6070   0  1 42.829843  8.565824 25.697715
6090   0  1 42.829836 11.421090 25.697702
13669  0  1 41.402175  9.993448 24.270044
13670  0  1 41.402205  9.993415 27.125381
14069  0  1 44.257472  9.993494 24.270044
14070  0  1 44.257501  9.993462 27.125379
6071   0  1 42.829867  8.565801 28.553060
6091   0  1 42.829873 11.421053 28.553044
6470   0  1 45.685135  8.565860 25.697714
6490   0  1 45.685129 11.421135 25.697708
6870   0  1 48.540414  8.565886 25.697717
6890   0  1 48.540410 11.421169 25.697718
14469  0  1 47.112760  9.993527 24.270047
14470  0  1 47.112786  9.993500 27.125383
6471   0  1 45.685159  8.565838 28.553058
6871   0  1 48.540435  8.565867 28.553061
6891   0  1 48.540436 11.421144 28.553057
6491   0  1 45.685160 11.421103 28.553048
7270   0  1 51.395677  8.565898 25.697720
7290   0  1 51.395676 11.421192 25.697726
14869  0  1 49.968035  9.993548 24.270052
14870  0  1 49.968057  9.993527 27.125390
15269  0  1 52.823294  9.993555 24.270055
15270  0  1 52.823312  9.993540 27.125396
7271   0  1 51.395696  8.565884 28.553065
7291   0  1 51.395697 11.421174 28.553066
7670   0  1 54.250925  8.565895 25.697722
15670  0  1 55.678553  9.993531 27.125398
7690   0  1 54.250928 11.421196 25.697729
15669  0  1 55.678538  9.993541 24.270052
70     0  1 57.106161  8.565872 25.697719
90     0  1 57.106168 11.421172 25.697727
7671   0  1 54.250941  8.565885 28.553070
7691   0  1 54.250945 11.421184 28.553073
91     0  1 57.106183 11.421165 28.553076
71     0  1 57.106175  8.565866 28.553073
4510   0  1 31.408524 14.276025 25.697710
12089  0  1 29.980824 12.848459 24.270019
12090  0  1 29.980811 12.848455 27.125411
12109  0  1 29.980850 15.703556 24.269963
12110  0  1 29.980823 15.703521 27.125391
4511   0  1 31.408548 14.276016 28.553103
4910   0  1 34.263905 14.276096 25.697705
12890  0  1 35.691586 12.848524 27.125385
12889  0  1 35.691545 12.848566 24.270042
12489  0  1 32.836197 12.848500 24.270043
12490  0  1 32.836216 12.848476 27.125408
12510  0  1 32.836268 15.703588 27.125380
12509  0  1 32.836221 15.703657 24.270018
12910  0  1 35.691621 15.703718 27.125342
12909  0  1 35.691537 15.703812 24.270026
4911   0  1 34.263958 14.276058 28.553069
5310   0  1 37.119232 14.276201 25.697686
5710   0  1 39.974526 14.276303 25.697681
13289  0  1 38.546861 12.848651 24.270034
13290  0  1 38.546910 12.848598 27.125365
13309  0  1 38.546820 15.703953 24.270022
13310  0  1 38.546904 15.703859 27.125325
5311   0  1 37.119296 14.276144 28.553033
5711   0  1 39.974588 14.276240 28.553018
6110   0  1 42.829829 14.276367 25.697690
13689  0  1 41.402160 12.848726 24.270033
13690  0  1 41.402207 12.848673 27.125360
14089  0  1 44.257461 12.848777 24.270040
14090  0  1 44.257501 12.848730 27.125367
13709  0  1 41.402133 15.704024 24.270027
13710  0  1 41.402203 15.703942 27.125336
14109  0  1 44.257460 15.704061 24.270043
14110  0  1 44.257512 15.703998 27.125361
6111   0  1 42.829880 14.276311 28.553025
6910   0  1 48.540410 14.276462 25.697725
6510   0  1 45.685130 14.276414 25.697707
14489  0  1 47.112755 12.848814 24.270051
14490  0  1 47.112787 12.848777 27.125380
14509  0  1 47.112754 15.704109 24.270064
14510  0  1 47.112790 15.704065 27.125386
6511   0  1 45.685169 14.276371 28.553042
6911   0  1 48.540438 14.276431 28.553059
7310   0  1 51.395676 14.276496 25.697737
14889  0  1 49.968033 12.848844 24.270061
14890  0  1 49.968057 12.848818 27.125393
15289  0  1 52.823295 12.848859 24.270067
15290  0  1 52.823315 12.848841 27.125402
15310  0  1 52.823315 15.704153 27.125414
15309  0  1 52.823296 15.704172 24.270085
14909  0  1 49.968029 15.704151 24.270079
14910  0  1 49.968053 15.704122 27.125404
7311   0  1 51.395697 14.276475 28.553071
7710   0  1 54.250934 14.276506 25.697742
15690  0  1 55.678563 12.848837 27.125405
15689  0  1 55.678546 12.848849 24.270064
15710  0  1 55.678574 15.704153 27.125416
15709  0  1 55.678558 15.704165 24.270082
110    0  1 57.106183 14.276484 25.697738
111    0  1 57.106199 14.276478 28.553081
7711   0  1 54.250951 14.276493 28.553079
4150   0  1 28.553171 19.985745 25.697393
4530   0  1 31.408565 17.131078 25.697666
4550   0  1 31.408632 19.986043 25.697590
12129  0  1 29.980907 18.558597 24.269883
12130  0  1 29.980870 18.558397 27.125332
4551   0  1 31.408788 19.985864 28.553011
4531   0  1 31.408624 17.131031 28.553085
12530  0  1 32.836337 18.558657 27.125318
12529  0  1 32.836202 18.558857 24.270028
12930  0  1 35.691571 18.559002 27.125268
12929  0  1 35.691399 18.559202 24.270054
4930   0  1 34.263921 17.131283 25.697668
4950   0  1 34.263751 19.986680 25.697657
4951   0  1 34.264014 19.986415 28.552875
4931   0  1 34.264037 17.131181 28.553013
5330   0  1 37.119184 17.131501 25.697652
5350   0  1 37.118997 19.986923 25.697637
5730   0  1 39.974491 17.131601 25.697660
5750   0  1 39.974542 19.986826 25.697658
13329  0  1 38.546712 18.559321 24.270034
13330  0  1 38.546848 18.559161 27.125280
5331   0  1 37.119301 17.131384 28.552970
5351   0  1 37.119198 19.986703 28.552882
5731   0  1 39.974586 17.131497 28.552981
5751   0  1 39.974673 19.986671 28.552966
6130   0  1 42.829840 17.131636 25.697687
6150   0  1 42.829862 19.986917 25.697713
13729  0  1 41.402144 18.559296 24.270035
13730  0  1 41.402239 18.559179 27.125326
14129  0  1 44.257466 18.559354 24.270065
14130  0  1 44.257524 18.559278 27.125375
6131   0  1 42.829907 17.131558 28.553016
6151   0  1 42.829935 19.986823 28.553036
6530   0  1 45.685133 17.131704 25.697719
6550   0  1 45.685116 19.987025 25.697754
6930   0  1 48.540402 17.131770 25.697743
6950   0  1 48.540377 19.987098 25.697775
14529  0  1 47.112742 18.559424 24.270092
14530  0  1 47.112776 18.559377 27.125407
6531   0  1 45.685177 17.131651 28.553049
6551   0  1 45.685156 19.986969 28.553075
6951   0  1 48.540400 19.987064 28.553094
6931   0  1 48.540430 17.131736 28.553071
15330  0  1 52.823309 18.559473 27.125431
15329  0  1 52.823293 18.559492 24.270110
7330   0  1 51.395669 17.131811 25.697756
7350   0  1 51.395654 19.987135 25.697782
14929  0  1 49.968015 18.559471 24.270107
14930  0  1 49.968037 18.559442 27.125425
7331   0  1 51.395689 17.131790 28.553083
7351   0  1 51.395670 19.987114 28.553100
15730  0  1 55.678586 18.559473 27.125428
15729  0  1 55.678570 18.559486 24.270103
7730   0  1 54.250939 17.131824 25.697759
7750   0  1 54.250940 19.987145 25.697780
130    0  1 57.106204 17.131805 25.697752
150    0  1 57.106225 19.987128 25.697768
131    0  1 57.106220 17.131798 28.553087
7731   0  1 54.250955 17.131810 28.553087
7751   0  1 54.250954 19.987132 28.553098
4170   0  1 28.553432 22.840585 25.697345
4570   0  1 31.408270 22.841654 25.697913
12170  0  1 29.982899 24.267238 27.123241
12169  0  1 29.981345 24.270909 24.272039
12150  0  1 29.981143 21.412805 27.125039
12149  0  1 29.980988 21.413882 24.270003
4571   0  1 31.408764 22.840864 28.552734
12550  0  1 32.836193 21.413986 27.125221
12549  0  1 32.835706 21.414631 24.270499
12970  0  1 35.691936 24.269055 27.125169
12969  0  1 35.691254 24.269757 24.270428
12950  0  1 35.691210 21.414549 27.125183
12949  0  1 35.690902 21.414915 24.270203
4970   0  1 34.262782 22.842793 25.697689
12570  0  1 32.834205 24.270960 27.124745
12569  0  1 32.830580 24.274750 24.275574
4971   0  1 34.263258 22.842257 28.552616
5370   0  1 37.119252 22.841933 25.697644
5770   0  1 39.974631 22.842080 25.697720
13349  0  1 38.546783 21.414526 24.270066
13350  0  1 38.546993 21.414276 27.125264
13369  0  1 38.546936 24.269749 24.270134
13370  0  1 38.547163 24.269497 27.125372
5371   0  1 37.119558 22.841569 28.552860
5771   0  1 39.974767 22.841899 28.553028
6170   0  1 42.829831 22.842270 25.697783
13749  0  1 41.402181 21.414577 24.270080
13750  0  1 41.402289 21.414439 27.125362
13769  0  1 41.402149 24.269944 24.270168
13770  0  1 41.402229 24.269837 27.125466
14149  0  1 44.257446 21.414686 24.270115
14150  0  1 44.257497 21.414611 27.125420
14169  0  1 44.257386 24.270050 24.270187
14170  0  1 44.257416 24.269997 27.125493
6171   0  1 42.829889 22.842179 28.553099
6570   0  1 45.685065 22.842380 25.697810
6970   0  1 48.540338 22.842436 25.697816
14549  0  1 47.112710 21.414760 24.270136
14550  0  1 47.112736 21.414717 27.125446
14569  0  1 47.112664 24.270102 24.270187
14570  0  1 47.112677 24.270072 27.125493
15370  0  1 52.823284 24.270118 27.125471
15369  0  1 52.823275 24.270131 24.270166
15350  0  1 52.823298 21.414796 27.125451
15349  0  1 52.823285 21.414813 24.270139
7370   0  1 51.395634 22.842461 25.697812
14949  0  1 49.967992 21.414799 24.270142
14950  0  1 49.968007 21.414773 27.125453
14969  0  1 49.967964 24.270125 24.270179
14970  0  1 49.967973 24.270106 27.125484
15770  0  1 55.678601 24.270113 27.125456
15769  0  1 55.678588 24.270123 24.270149
15750  0  1 55.678595 21.414794 27.125442
15749  0  1 55.678580 21.414806 24.270127
7770   0  1 54.250938 22.842464 25.697801
7771   0  1 54.250950 22.842453 28.553110
12190  0  1 29.940452 27.162803 27.165629
4190   0  1 28.554435 25.699030 25.701108
12189  0  1 29.982246 27.121643 24.269022
4590   0  1 31.393735 25.710887 25.712302
4591   0  1 31.404919 25.699548 28.551720
4610   0  1 31.407422 28.546941 25.699293
4611   0  1 31.453820 28.546291 28.552043
4191   0  1 28.553187 25.654855 28.552348
12990  0  1 35.692536 27.124261 27.125258
12989  0  1 35.691514 27.124670 24.270234
12590  0  1 32.839019 27.120183 27.122585
12589  0  1 32.834983 27.122781 24.271412
4990   0  1 34.264282 25.696454 25.697665
4991   0  1 34.265188 25.695635 28.552646
5010   0  1 34.264308 28.551783 25.697751
5390   0  1 37.119585 25.697109 25.697722
5790   0  1 39.974560 25.697519 25.697855
13389  0  1 38.546822 27.125162 24.270234
13390  0  1 38.546986 27.125099 27.125588
5391   0  1 37.119835 25.696790 28.553082
5410   0  1 37.119259 28.552746 25.697924
5810   0  1 39.974365 28.552985 25.697975
14190  0  1 44.257315 27.125389 27.125563
6190   0  1 42.829732 25.697676 25.697879
13789  0  1 41.402040 27.125337 24.270260
13790  0  1 41.402064 27.125313 27.125594
14189  0  1 44.257313 27.125404 24.270249
6210   0  1 42.829624 28.553059 25.697947
14590  0  1 47.112620 27.125421 27.125533
14589  0  1 47.112619 27.125432 24.270228
6990   0  1 48.540297 25.697771 25.697855
6590   0  1 45.684996 25.697742 25.697871
7010   0  1 48.540264 28.553095 25.697878
6610   0  1 45.684935 28.553086 25.697910
14989  0  1 49.967940 27.125442 24.270206
14990  0  1 49.967943 27.125434 27.125507
15389  0  1 52.823267 27.125443 24.270186
7410   0  1 51.395598 28.553097 25.697853
7390   0  1 51.395613 25.697782 25.697838
15390  0  1 52.823273 27.125436 27.125485
15789  0  1 55.678593 27.125436 24.270167
7790   0  1 54.250936 25.697780 25.697820
15790  0  1 55.678605 27.125429 27.125466
7810   0  1 54.250934 28.553093 25.697831
4032   0  1 28.553153  2.855265 31.408440
4412   0  1 31.408528  0.000048 31.408442
4432   0  1 31.408515  2.855272 31.408445
12011  0  1 29.980834  1.427655 29.980762
12012  0  1 29.980844  1.427655 32.836119
4012   0  1 28.553162  0.000039 31.408435
4812   0  1 34.263892  0.000064 31.408446
4832   0  1 34.263875  2.855281 31.408446
12411  0  1 32.836196  1.427665 29.980766
12412  0  1 32.836206  1.427665 32.836124
12811  0  1 35.691555  1.427679 29.980767
12812  0  1 35.691565  1.427678 32.836126
5212   0  1 37.119252  0.000081 31.408448
5232   0  1 37.119228  2.855293 31.408445
5612   0  1 39.974600  0.000095 31.408445
5632   0  1 39.974570  2.855306 31.408440
13211  0  1 38.546906  1.427694 29.980764
13212  0  1 38.546916  1.427692 32.836125
6032   0  1 42.829895  2.855318 31.408434
13611  0  1 41.402243  1.427706 29.980759
13612  0  1 41.402253  1.427702 32.836121
14011  0  1 44.257558  1.427710 29.980754
14012  0  1 44.257569  1.427705 32.836116
6012   0  1 42.829928  0.000098 31.408440
6412   0  1 45.685230  0.000087 31.408435
6432   0  1 45.685198  2.855325 31.408429
6812   0  1 48.540502  0.000064 31.408430
6832   0  1 48.540475  2.855324 31.408425
14411  0  1 47.112848  1.427703 29.980750
14412  0  1 47.112859  1.427698 32.836110
7212   0  1 51.395749  0.000035 31.408427
7232   0  1 51.395729  2.855315 31.408424
14811  0  1 49.968110  1.427688 29.980748
14812  0  1 49.968122  1.427683 32.836105
15211  0  1 52.823351  1.427669 29.980747
15212  0  1 52.823363  1.427664 32.836104
7612   0  1 54.250980  0.000012 31.408426
7632   0  1 54.250965  2.855303 31.408425
15611  0  1 55.678579  1.427654 29.980748
15612  0  1 55.678592  1.427650 32.836105
32     0  1 57.106194  2.855291 31.408428
12     0  1 57.106205  0.000002 31.408427
4052   0  1 28.553147  5.710492 31.408448
4452   0  1 31.408513  5.710496 31.408451
12031  0  1 29.980826  4.282882 29.980769
12032  0  1 29.980838  4.282882 32.836123
12051  0  1 29.980822  7.138103 29.980777
12052  0  1 29.980840  7.138102 32.836135
4852   0  1 34.263874  5.710501 31.408450
12431  0  1 32.836187  4.282888 29.980771
12432  0  1 32.836200  4.282887 32.836125
12451  0  1 32.836190  7.138107 29.980777
12452  0  1 32.836209  7.138106 32.836134
12831  0  1 35.691543  4.282898 29.980768
12832  0  1 35.691556  4.282896 32.836124
12851  0  1 35.691551  7.138115 29.980769
12852  0  1 35.691569  7.138111 32.836127
5252   0  1 37.119227  5.710511 31.408443
5652   0  1 39.974565  5.710527 31.408434
13231  0  1 38.546890  4.282911 29.980762
13232  0  1 38.546903  4.282907 32.836120
13251  0  1 38.546896  7.138131 29.980757
13252  0  1 38.546914  7.138124 32.836117
6052   0  1 42.829884  5.710548 31.408426
13631  0  1 41.402222  4.282927 29.980755
13632  0  1 41.402235  4.282921 32.836113
13651  0  1 41.402221  7.138156 29.980747
13652  0  1 41.402240  7.138146 32.836106
14031  0  1 44.257534  4.282944 29.980749
14032  0  1 44.257547  4.282936 32.836107
14051  0  1 44.257526  7.138186 29.980740
14052  0  1 44.257545  7.138175 32.836098
6452   0  1 45.685183  5.710569 31.408421
6852   0  1 48.540460  5.710586 31.408419
14431  0  1 47.112823  4.282955 29.980745
14432  0  1 47.112837  4.282947 32.836102
14451  0  1 47.112811  7.138214 29.980738
14452  0  1 47.112829  7.138202 32.836094
7252   0  1 51.395716  5.710593 31.408420
14831  0  1 49.968089  4.282959 29.980744
14832  0  1 49.968103  4.282952 32.836100
14851  0  1 49.968079  7.138232 29.980740
14852  0  1 49.968095  7.138223 32.836094
15231  0  1 52.823336  4.282954 29.980746
15232  0  1 52.823349  4.282948 32.836101
15251  0  1 52.823329  7.138238 29.980744
15252  0  1 52.823344  7.138232 32.836097
7652   0  1 54.250957  5.710589 31.408424
15631  0  1 55.678569  4.282942 29.980748
15632  0  1 55.678582  4.282938 32.836104
15651  0  1 55.678565  7.138230 29.980748
15652  0  1 55.678580  7.138227 32.836102
52     0  1 57.106188  5.710575 31.408428
4092   0  1 28.553140 11.420890 31.408481
4472   0  1 31.408522  8.565709 31.408462
4492   0  1 31.408547 11.420892 31.408479
12071  0  1 29.980824  9.993304 29.980787
12072  0  1 29.980852  9.993303 32.836156
4072   0  1 28.553142  8.565705 31.408461
4872   0  1 34.263893  8.565712 31.408455
4892   0  1 34.263936 11.420898 31.408461
12471  0  1 32.836210  9.993307 29.980782
12472  0  1 32.836238  9.993305 32.836150
12871  0  1 35.691578  9.993319 29.980766
12872  0  1 35.691606  9.993312 32.836135
5272   0  1 37.119248  8.565724 31.408441
5292   0  1 37.119293 11.420922 31.408435
5672   0  1 39.974581  8.565749 31.408427
5692   0  1 39.974612 11.420969 31.408413
13271  0  1 38.546921  9.993347 29.980747
13272  0  1 38.546949  9.993334 32.836115
6072   0  1 42.829891  8.565784 31.408416
6092   0  1 42.829907 11.421024 31.408402
13671  0  1 41.402235  9.993390 29.980733
13672  0  1 41.402263  9.993372 32.836098
14071  0  1 44.257530  9.993437 29.980728
14072  0  1 44.257556  9.993418 32.836088
6472   0  1 45.685181  8.565821 31.408411
6492   0  1 45.685190 11.421077 31.408401
6872   0  1 48.540455  8.565852 31.408412
6892   0  1 48.540460 11.421125 31.408406
14471  0  1 47.112811  9.993478 29.980730
14472  0  1 47.112834  9.993461 32.836085
7272   0  1 51.395713  8.565873 31.408416
7292   0  1 51.395716 11.421161 31.408413
14871  0  1 49.968077  9.993510 29.980736
14872  0  1 49.968097  9.993498 32.836088
15271  0  1 52.823329  9.993528 29.980742
15272  0  1 52.823346  9.993521 32.836093
7672   0  1 54.250956  8.565879 31.408422
7692   0  1 54.250961 11.421177 31.408420
15671  0  1 55.678569  9.993524 29.980748
15672  0  1 55.678584  9.993522 32.836100
92     0  1 57.106198 11.421164 31.408427
72     0  1 57.106189  8.565863 31.408428
12091  0  1 29.980835 12.848463 29.980802
12092  0  1 29.980883 12.848464 32.836193
4112   0  1 28.553145 14.276017 31.408517
4512   0  1 31.408603 14.276019 31.408505
12111  0  1 29.980866 15.703535 29.980824
12112  0  1 29.980955 15.703550 32.836259
12491  0  1 32.836253 12.848469 29.980786
12492  0  1 32.836298 12.848466 32.836176
12891  0  1 35.691631 12.848499 29.980753
12892  0  1 35.691675 12.848483 32.836143
4912   0  1 34.264016 14.276040 31.408463
12912  0  1 35.691782 15.703618 32.836143
12911  0  1 35.691705 15.703658 29.980718
12511  0  1 32.836339 15.703564 29.980778
12512  0  1 32.836417 15.703554 32.836216
5312   0  1 37.119358 14.276104 31.408417
13291  0  1 38.546958 12.848560 29.980725
13292  0  1 38.547004 12.848532 32.836109
5712   0  1 39.974648 14.276191 31.408391
13311  0  1 38.546986 15.703785 29.980684
13312  0  1 38.547064 15.703725 32.836091
13691  0  1 41.402253 12.848631 29.980712
13692  0  1 41.402297 12.848598 32.836087
14091  0  1 44.257540 12.848692 29.980714
14092  0  1 44.257577 12.848663 32.836079
6112   0  1 42.829930 14.276266 31.408387
13711  0  1 41.402271 15.703874 29.980687
13712  0  1 41.402336 15.703819 32.836075
14111  0  1 44.257561 15.703946 29.980707
14112  0  1 44.257607 15.703906 32.836077
14491  0  1 47.112818 12.848748 29.980724
14492  0  1 47.112846 12.848726 32.836080
6512   0  1 45.685206 14.276337 31.408395
6912   0  1 48.540465 14.276407 31.408405
14511  0  1 47.112823 15.704029 29.980726
14512  0  1 47.112854 15.704003 32.836081
14891  0  1 49.968080 12.848797 29.980735
14892  0  1 49.968101 12.848783 32.836084
15291  0  1 52.823333 12.848828 29.980744
15292  0  1 52.823350 12.848820 32.836089
7312   0  1 51.395716 14.276461 31.408412
14911  0  1 49.968076 15.704098 29.980739
14912  0  1 49.968098 15.704083 32.836083
15311  0  1 52.823332 15.704139 29.980748
15312  0  1 52.823349 15.704131 32.836086
112    0  1 57.106215 14.276477 31.408425
15691  0  1 55.678578 12.848830 29.980750
15692  0  1 55.678594 12.848829 32.836096
7712   0  1 54.250967 14.276486 31.408419
15712  0  1 55.678604 15.704145 32.836090
15711  0  1 55.678590 15.704146 29.980752
4152   0  1 28.553275 19.985801 31.408742
4132   0  1 28.553169 17.131029 31.408585
4532   0  1 31.408730 17.131031 31.408545
4552   0  1 31.409042 19.985796 31.408610
12131  0  1 29.980963 18.558406 29.980866
12132  0  1 29.981134 18.558499 32.836390
12932  0  1 35.691888 18.558748 32.836103
12931  0  1 35.691736 18.558858 29.980628
4932   0  1 34.264146 17.131126 31.408441
4952   0  1 34.264244 19.986242 31.408325
12531  0  1 32.836494 18.558565 29.980726
12532  0  1 32.836643 18.558523 32.836259
5332   0  1 37.119413 17.131294 31.408371
5352   0  1 37.119395 19.986519 31.408291
5732   0  1 39.974678 17.131412 31.408362
5752   0  1 39.974792 19.986550 31.408365
13331  0  1 38.546982 18.559026 29.980629
13332  0  1 38.547113 18.558914 32.836065
6132   0  1 42.829971 17.131496 31.408383
6152   0  1 42.830001 19.986749 31.408405
13731  0  1 41.402328 18.559082 29.980678
13732  0  1 41.402410 18.559008 32.836084
14131  0  1 44.257577 18.559216 29.980718
14132  0  1 44.257627 18.559169 32.836091
6532   0  1 45.685217 17.131610 31.408400
6552   0  1 45.685193 19.986925 31.408420
6932   0  1 48.540456 17.131710 31.408410
6952   0  1 48.540423 19.987037 31.408423
14531  0  1 47.112808 18.559337 29.980740
14532  0  1 47.112839 18.559309 32.836090
7332   0  1 51.395707 17.131774 31.408416
7352   0  1 51.395686 19.987099 31.408422
14931  0  1 49.968057 18.559417 29.980751
14932  0  1 49.968078 18.559401 32.836086
15331  0  1 52.823324 18.559458 29.980755
15332  0  1 52.823340 18.559451 32.836083
15732  0  1 55.678614 18.559466 32.836083
15731  0  1 55.678600 18.559467 29.980755
7732   0  1 54.250970 17.131803 31.408419
7752   0  1 54.250967 19.987125 31.408419
4172   0  1 28.553842 22.840232 31.408985
4572   0  1 31.409556 22.840462 31.408386
12151  0  1 29.981390 21.412702 29.981067
12152  0  1 29.981660 21.413253 32.836609
12171  0  1 29.983781 24.266145 29.982641
12172  0  1 29.984114 24.267652 32.836649
12972  0  1 35.692645 24.268272 32.836161
12971  0  1 35.692371 24.268540 29.980488
12952  0  1 35.691842 21.413957 32.836006
12951  0  1 35.691520 21.414233 29.980460
4972   0  1 34.263830 22.841720 31.408106
12572  0  1 32.833749 24.271528 32.832030
12571  0  1 32.835142 24.269973 29.980157
12551  0  1 32.836582 21.413653 29.980490
12552  0  1 32.836856 21.413534 32.836041
5372   0  1 37.119805 22.841308 31.408335
5772   0  1 39.974880 22.841761 31.408440
13351  0  1 38.547173 21.414072 29.980621
13352  0  1 38.547334 21.413926 32.836110
13371  0  1 38.547328 24.269264 29.980746
13372  0  1 38.547473 24.269099 32.836286
6172   0  1 42.829945 22.842102 31.408457
13751  0  1 41.402380 21.414324 29.980715
13752  0  1 41.402463 21.414241 32.836132
13771  0  1 41.402294 24.269725 29.980806
13772  0  1 41.402367 24.269635 32.836205
14151  0  1 44.257543 21.414545 29.980755
14152  0  1 44.257590 21.414496 32.836120
14171  0  1 44.257446 24.269938 29.980811
14172  0  1 44.257488 24.269887 32.836152
6572   0  1 45.685123 22.842286 31.408451
6972   0  1 48.540372 22.842381 31.408441
14551  0  1 47.112761 21.414678 29.980768
14552  0  1 47.112790 21.414648 32.836104
14571  0  1 47.112693 24.270038 29.980801
14572  0  1 47.112720 24.270009 32.836119
6571   0  1 45.685092 22.842330 28.553123
6971   0  1 48.540353 22.842407 28.553125
7371   0  1 51.395645 22.842442 28.553119
7372   0  1 51.395658 22.842428 31.408429
14951  0  1 49.968023 21.414749 29.980769
14952  0  1 49.968042 21.414733 32.836091
14971  0  1 49.967984 24.270086 29.980788
14972  0  1 49.968002 24.270070 32.836095
15351  0  1 52.823310 21.414782 29.980764
15352  0  1 52.823324 21.414775 32.836081
15371  0  1 52.823295 24.270106 29.980773
15372  0  1 52.823308 24.270099 32.836077
15772  0  1 55.678624 24.270107 32.836062
15771  0  1 55.678613 24.270107 29.980759
15752  0  1 55.678620 21.414788 32.836073
15751  0  1 55.678608 21.414788 29.980758
7772   0  1 54.250962 22.842446 31.408418
4192   0  1 28.557586 25.695418 31.408149
4592   0  1 31.398675 25.705854 31.395334
12191  0  1 29.947929 27.154403 29.942779
12192  0  1 29.996830 27.106967 32.850803
4212   0  1 28.581553 28.522203 31.480609
4612   0  1 31.412965 28.542131 31.408938
12992  0  1 35.692566 27.123555 32.836771
12991  0  1 35.692821 27.123781 29.981234
12592  0  1 32.839390 27.118800 32.837371
12591  0  1 32.840430 27.118608 29.982948
4992   0  1 34.265859 25.694700 31.408593
5012   0  1 34.264953 28.550933 31.409239
5011   0  1 34.267186 28.551806 28.553499
5812   0  1 39.974392 28.552872 31.408650
5811   0  1 39.974362 28.552979 28.553338
5392   0  1 37.120056 25.696461 31.408677
5791   0  1 39.974639 25.697388 28.553186
5792   0  1 39.974717 25.697246 31.408573
13391  0  1 38.547054 27.124926 29.980990
13392  0  1 38.547113 27.124753 32.836412
5412   0  1 37.119342 28.552490 31.408863
5411   0  1 37.119431 28.552763 28.553449
6212   0  1 42.829644 28.553000 31.408553
6211   0  1 42.829617 28.553049 28.553262
6191   0  1 42.829758 25.697614 28.553192
6192   0  1 42.829797 25.697543 31.408519
13791  0  1 41.402087 27.125237 29.980913
13792  0  1 41.402149 27.125148 32.836247
14191  0  1 44.257328 27.125350 29.980864
14192  0  1 44.257368 27.125304 32.836169
7012   0  1 48.540280 28.553075 31.408463
7011   0  1 48.540266 28.553089 28.553174
6612   0  1 45.684953 28.553052 31.408499
6611   0  1 45.684934 28.553077 28.553210
6591   0  1 45.685007 25.697709 28.553176
6592   0  1 45.685030 25.697670 31.408483
6992   0  1 48.540319 25.697729 31.408456
14591  0  1 47.112629 27.125399 29.980829
14592  0  1 47.112654 27.125374 32.836126
6991   0  1 48.540304 25.697751 28.553156
7412   0  1 51.395614 28.553084 31.408437
7411   0  1 51.395603 28.553092 28.553147
7391   0  1 51.395621 25.697769 28.553137
7392   0  1 51.395632 25.697757 31.408435
15392  0  1 52.823294 27.125421 32.836073
15391  0  1 52.823282 27.125428 29.980779
14991  0  1 49.967951 27.125421 29.980802
14992  0  1 49.967968 27.125407 32.836096
7812   0  1 54.250952 28.553084 31.408414
7811   0  1 54.250942 28.553088 28.553124
15792  0  1 55.678627 27.125423 32.836052
15791  0  1 55.678616 27.125424 29.980759
7791   0  1 54.250946 25.697772 28.553119
7792   0  1 54.250956 25.697766 31.408417
4013   0  1 28.553172  0.000043 34.263796
4014   0  1 28.553181  0.000053 37.119156
4033   0  1 28.553165  2.855266 34.263795
4034   0  1 28.553176  2.855270 37.119149
4413   0  1 31.408538  0.000052 34.263803
4414   0  1 31.408547  0.000060 37.119164
4433   0  1 31.408527  2.855273 34.263800
4434   0  1 31.408538  2.855276 37.119154
12013  0  1 29.980855  1.427660 35.691475
4813   0  1 34.263902  0.000066 34.263810
4814   0  1 34.263911  0.000072 37.119172
4833   0  1 34.263886  2.855281 34.263803
4834   0  1 34.263897  2.855284 37.119160
12413  0  1 32.836217  1.427669 35.691482
12813  0  1 35.691575  1.427680 35.691486
5213   0  1 37.119261  0.000081 34.263813
5214   0  1 37.119269  0.000084 37.119177
5233   0  1 37.119239  2.855292 34.263803
5234   0  1 37.119249  2.855293 37.119162
5613   0  1 39.974608  0.000093 34.263812
5614   0  1 39.974615  0.000091 37.119177
5633   0  1 39.974581  2.855303 34.263800
5634   0  1 39.974590  2.855302 37.119160
13213  0  1 38.546925  1.427691 35.691487
6013   0  1 42.829937  0.000094 34.263806
6014   0  1 42.829943  0.000089 37.119170
6033   0  1 42.829906  2.855313 34.263795
6034   0  1 42.829915  2.855310 37.119155
13613  0  1 41.402262  1.427699 35.691484
14013  0  1 44.257577  1.427700 35.691477
6413   0  1 45.685239  0.000082 34.263798
6414   0  1 45.685245  0.000076 37.119160
6433   0  1 45.685209  2.855319 34.263788
6434   0  1 45.685218  2.855314 37.119147
6813   0  1 48.540512  0.000058 34.263790
6814   0  1 48.540519  0.000052 37.119148
6833   0  1 48.540487  2.855318 34.263783
6834   0  1 48.540496  2.855312 37.119140
14413  0  1 47.112867  1.427692 35.691469
7213   0  1 51.395760  0.000030 34.263784
7214   0  1 51.395769  0.000024 37.119139
7233   0  1 51.395741  2.855310 34.263781
7234   0  1 51.395751  2.855305 37.119135
14813  0  1 49.968131  1.427677 35.691463
15213  0  1 52.823374  1.427659 35.691459
34     0  1 57.106220  2.855285 37.119137
33     0  1 57.106208  2.855288 34.263784
7613   0  1 54.250992  0.000007 34.263782
7614   0  1 54.251003  0.000001 37.119134
7633   0  1 54.250978  2.855299 34.263781
7634   0  1 54.250990  2.855295 37.119134
15613  0  1 55.678605  1.427645 35.691459
4053   0  1 28.553163  5.710490 34.263804
4054   0  1 28.553178  5.710488 37.119159
4453   0  1 31.408529  5.710495 34.263806
4454   0  1 31.408543  5.710494 37.119162
12033  0  1 29.980852  4.282882 35.691477
12053  0  1 29.980859  7.138098 35.691492
4853   0  1 34.263890  5.710500 34.263806
4854   0  1 34.263904  5.710499 37.119164
12433  0  1 32.836213  4.282888 35.691481
12453  0  1 32.836227  7.138103 35.691493
12833  0  1 35.691569  4.282895 35.691482
12853  0  1 35.691586  7.138109 35.691490
5253   0  1 37.119242  5.710508 34.263802
5254   0  1 37.119255  5.710507 37.119162
5653   0  1 39.974580  5.710522 34.263795
5654   0  1 39.974593  5.710519 37.119156
13233  0  1 38.546915  4.282905 35.691479
13253  0  1 38.546931  7.138120 35.691481
6053   0  1 42.829899  5.710541 34.263786
6054   0  1 42.829912  5.710537 37.119148
13633  0  1 41.402247  4.282918 35.691474
13653  0  1 41.402257  7.138140 35.691470
14033  0  1 44.257559  4.282931 35.691467
14053  0  1 44.257561  7.138167 35.691460
6453   0  1 45.685198  5.710561 34.263779
6454   0  1 45.685210  5.710556 37.119139
6853   0  1 48.540474  5.710578 34.263776
6854   0  1 48.540486  5.710573 37.119132
14433  0  1 47.112849  4.282941 35.691460
14453  0  1 47.112845  7.138194 35.691452
7253   0  1 51.395731  5.710587 34.263775
7254   0  1 51.395743  5.710583 37.119129
14833  0  1 49.968115  4.282946 35.691456
14853  0  1 49.968110  7.138216 35.691449
15233  0  1 52.823362  4.282944 35.691456
15253  0  1 52.823358  7.138229 35.691450
54     0  1 57.106216  5.710575 37.119136
53     0  1 57.106202  5.710574 34.263784
7653   0  1 54.250971  5.710586 34.263778
7654   0  1 54.250983  5.710584 37.119130
15633  0  1 55.678596  4.282936 35.691459
15653  0  1 55.678593  7.138227 35.691455
4074   0  1 28.553186  8.565692 37.119186
4094   0  1 28.553206 11.420867 37.119237
4473   0  1 31.408545  8.565706 34.263825
4474   0  1 31.408564  8.565699 37.119188
4493   0  1 31.408584 11.420888 34.263859
4494   0  1 31.408609 11.420877 37.119239
12073  0  1 29.980880  9.993295 35.691525
4073   0  1 28.553166  8.565701 34.263824
4093   0  1 28.553179 11.420882 34.263861
4873   0  1 34.263915  8.565709 34.263819
4874   0  1 34.263933  8.565704 37.119186
4893   0  1 34.263970 11.420891 34.263844
4894   0  1 34.263995 11.420883 37.119232
12473  0  1 32.836264  9.993299 35.691522
12873  0  1 35.691631  9.993305 35.691511
5273   0  1 37.119270  8.565718 34.263808
5274   0  1 37.119287  8.565714 37.119178
5293   0  1 37.119326 11.420909 34.263819
5294   0  1 37.119352 11.420899 37.119211
5673   0  1 39.974603  8.565739 34.263793
5674   0  1 39.974621  8.565733 37.119164
5693   0  1 39.974646 11.420949 34.263793
5694   0  1 39.974674 11.420935 37.119181
13273  0  1 38.546973  9.993324 35.691492
6073   0  1 42.829913  8.565772 34.263780
6074   0  1 42.829931  8.565764 37.119148
6093   0  1 42.829940 11.421003 34.263774
6094   0  1 42.829968 11.420989 37.119154
13673  0  1 41.402288  9.993359 35.691472
14073  0  1 44.257580  9.993404 35.691456
6473   0  1 45.685202  8.565808 34.263771
6474   0  1 45.685219  8.565801 37.119134
6493   0  1 45.685218 11.421059 34.263765
6494   0  1 45.685242 11.421048 37.119134
6873   0  1 48.540474  8.565842 34.263768
6874   0  1 48.540489  8.565836 37.119126
6893   0  1 48.540482 11.421112 34.263762
6894   0  1 48.540501 11.421106 37.119122
14473  0  1 47.112855  9.993451 35.691446
7273   0  1 51.395729  8.565867 34.263769
7274   0  1 51.395743  8.565864 37.119122
7293   0  1 51.395733 11.421154 34.263763
7294   0  1 51.395749 11.421152 37.119115
14873  0  1 49.968114  9.993492 35.691443
15273  0  1 52.823361  9.993519 35.691444
94     0  1 57.106227 11.421176 37.119123
93     0  1 57.106213 11.421167 34.263777
74     0  1 57.106218  8.565870 37.119131
73     0  1 57.106204  8.565865 34.263782
7673   0  1 54.250971  8.565876 34.263774
7674   0  1 54.250984  8.565877 37.119124
7693   0  1 54.250976 11.421175 34.263768
7694   0  1 54.250990 11.421178 37.119115
15673  0  1 55.678598  9.993524 35.691449
12093  0  1 29.980925 12.848451 35.691584
4114   0  1 28.553247 14.275987 37.119325
4513   0  1 31.408664 14.276017 34.263920
4514   0  1 31.408696 14.276001 37.119329
12113  0  1 29.981019 15.703537 35.691687
4113   0  1 28.553212 14.276007 34.263927
12493  0  1 32.836338 12.848457 35.691576
12893  0  1 35.691714 12.848469 35.691549
4913   0  1 34.264071 14.276025 34.263884
4914   0  1 34.264109 14.276012 37.119314
12913  0  1 35.691848 15.703586 35.691602
12513  0  1 32.836480 15.703548 35.691671
5313   0  1 37.119413 14.276073 34.263832
5314   0  1 37.119457 14.276050 37.119263
13293  0  1 38.547043 12.848510 35.691510
5713   0  1 39.974703 14.276151 34.263791
5714   0  1 39.974751 14.276123 37.119210
13313  0  1 38.547135 15.703678 35.691532
13693  0  1 41.402336 12.848573 35.691477
14093  0  1 44.257611 12.848642 35.691456
6113   0  1 42.829977 14.276232 34.263771
6114   0  1 42.830018 14.276209 37.119170
13713  0  1 41.402397 15.703778 35.691490
14113  0  1 44.257650 15.703880 35.691466
14493  0  1 47.112872 12.848712 35.691444
6513   0  1 45.685240 14.276312 34.263764
6514   0  1 45.685271 14.276299 37.119141
6913   0  1 48.540489 14.276392 34.263760
6914   0  1 48.540511 14.276386 37.119120
14513  0  1 47.112883 15.703988 35.691447
14893  0  1 49.968121 12.848776 35.691437
15293  0  1 52.823365 12.848819 35.691436
7313   0  1 51.395735 14.276453 34.263758
7314   0  1 51.395751 14.276452 37.119107
14913  0  1 49.968119 15.704075 35.691433
15313  0  1 52.823364 15.704130 35.691426
113    0  1 57.106229 14.276482 34.263768
15693  0  1 55.678608 12.848833 35.691440
7713   0  1 54.250982 14.276485 34.263761
7714   0  1 54.250996 14.276489 37.119103
15713  0  1 55.678618 15.704151 35.691427
4133   0  1 28.553294 17.131032 34.264043
4134   0  1 28.553321 17.131016 37.119466
4153   0  1 28.553498 19.985909 34.264212
4154   0  1 28.553440 19.985838 37.119725
4533   0  1 31.408834 17.131053 34.264029
4534   0  1 31.408859 17.131033 37.119487
4553   0  1 31.409236 19.985942 34.264214
4554   0  1 31.409178 19.985844 37.119815
12133  0  1 29.981212 18.558507 35.691857
12933  0  1 35.692010 18.558676 35.691628
4933   0  1 34.264243 17.131089 34.263932
4934   0  1 34.264321 17.131057 37.119458
4953   0  1 34.264419 19.986156 34.263866
4954   0  1 34.264757 19.985905 37.119770
12533  0  1 32.836771 18.558524 35.691837
5333   0  1 37.119516 17.131221 34.263834
5334   0  1 37.119598 17.131169 37.119326
5353   0  1 37.119590 19.986366 34.263822
5354   0  1 37.119728 19.986279 37.119363
5733   0  1 39.974767 17.131343 34.263793
5734   0  1 39.974845 17.131294 37.119253
5753   0  1 39.974901 19.986464 34.263836
5754   0  1 39.974990 19.986419 37.119341
13333  0  1 38.547236 18.558826 35.691562
6133   0  1 42.830030 17.131450 34.263782
6134   0  1 42.830081 17.131424 37.119201
6153   0  1 42.830064 19.986700 34.263814
6154   0  1 42.830121 19.986676 37.119247
13733  0  1 41.402486 18.558958 35.691528
14133  0  1 44.257674 18.559141 35.691487
6533   0  1 45.685255 17.131582 34.263771
6534   0  1 45.685289 17.131569 37.119154
6553   0  1 45.685232 19.986894 34.263786
6554   0  1 45.685272 19.986881 37.119166
6933   0  1 48.540481 17.131693 34.263761
6934   0  1 48.540505 17.131687 37.119119
6953   0  1 48.540449 19.987019 34.263764
6954   0  1 48.540477 19.987012 37.119114
14533  0  1 47.112870 18.559292 35.691452
7333   0  1 51.395725 17.131766 34.263754
7334   0  1 51.395743 17.131766 37.119096
7353   0  1 51.395704 19.987090 34.263750
7354   0  1 51.395723 19.987090 37.119083
14933  0  1 49.968100 18.559393 35.691428
15333  0  1 52.823355 18.559450 35.691415
15733  0  1 55.678626 18.559473 35.691410
7733   0  1 54.250984 17.131802 34.263752
7734   0  1 54.250998 17.131808 37.119086
7753   0  1 54.250981 19.987124 34.263741
7754   0  1 54.250994 19.987130 37.119066
4173   0  1 28.553977 22.840541 34.264267
4174   0  1 28.553565 22.839830 37.120768
4573   0  1 31.410535 22.840402 34.264601
4574   0  1 31.409846 22.839765 37.121088
12153  0  1 29.981619 21.413193 35.692170
12173  0  1 29.982498 24.265885 35.694471
12973  0  1 35.693083 24.267774 35.692463
12953  0  1 35.691975 21.413897 35.691406
4973   0  1 34.263694 22.841963 34.262741
4974   0  1 34.265742 22.840020 37.120940
12573  0  1 32.839529 24.265938 35.694733
12553  0  1 32.837492 21.413189 35.692226
5373   0  1 37.119977 22.841173 34.263934
5374   0  1 37.120281 22.840928 37.119895
5773   0  1 39.974985 22.841672 34.263939
5774   0  1 39.975079 22.841633 37.119488
13353  0  1 38.547459 21.413846 35.691664
13373  0  1 38.547572 24.269014 35.691901
6173   0  1 42.830008 22.842048 34.263855
6174   0  1 42.830076 22.842027 37.119279
13753  0  1 41.402541 21.414193 35.691596
13773  0  1 41.402451 24.269585 35.691646
14153  0  1 44.257642 21.414466 35.691511
14173  0  1 44.257548 24.269855 35.691517
6573   0  1 45.685162 22.842253 34.263800
6574   0  1 45.685212 22.842239 37.119165
6973   0  1 48.540398 22.842362 34.263766
6974   0  1 48.540431 22.842355 37.119102
14553  0  1 47.112824 21.414631 35.691455
14573  0  1 47.112759 24.269990 35.691450
7373   0  1 51.395676 22.842419 34.263744
7374   0  1 51.395698 22.842418 37.119066
14953  0  1 49.968066 21.414724 35.691422
14973  0  1 49.968027 24.270061 35.691411
15353  0  1 52.823340 21.414774 35.691401
15373  0  1 52.823324 24.270097 35.691386
15773  0  1 55.678635 24.270112 35.691368
15753  0  1 55.678631 21.414794 35.691390
7773   0  1 54.250975 22.842445 34.263729
7774   0  1 54.250988 22.842451 37.119044
4194   0  1 28.553662 25.694589 37.121165
4213   0  1 28.554965 28.545987 34.269774
4193   0  1 28.554807 25.690753 34.268592
4593   0  1 31.415262 25.689659 34.270486
4594   0  1 31.410701 25.694281 37.122186
12193  0  1 29.983582 27.120189 35.695768
4214   0  1 28.553867 28.551188 37.119321
4613   0  1 31.419694 28.543672 34.274336
4614   0  1 31.410950 28.550869 37.121382
12993  0  1 35.693007 27.123604 35.692620
12593  0  1 32.841785 27.120305 35.696743
4993   0  1 34.266108 25.693944 34.265027
4994   0  1 34.266887 25.694757 37.122014
5013   0  1 34.265501 28.550731 34.264984
5014   0  1 34.266541 28.551670 37.121544
5814   0  1 39.974786 28.552763 37.119392
5813   0  1 39.974540 28.552773 34.263981
5414   0  1 37.120083 28.552404 37.119864
5393   0  1 37.120080 25.696309 34.264321
5394   0  1 37.120350 25.696417 37.120068
5793   0  1 39.974805 25.697148 34.264018
5794   0  1 39.974955 25.697144 37.119490
13393  0  1 38.547315 27.124692 35.691876
5413   0  1 37.119574 28.552299 34.264241
6213   0  1 42.829729 28.552949 34.263858
6214   0  1 42.829864 28.552929 37.119207
6193   0  1 42.829864 25.697486 34.263875
6194   0  1 42.829964 25.697467 37.119258
13793  0  1 41.402276 27.125099 35.691617
14193  0  1 44.257445 27.125273 35.691498
6613   0  1 45.685001 28.553025 34.263795
7013   0  1 48.540309 28.553060 34.263757
7014   0  1 48.540354 28.553051 37.119066
6614   0  1 45.685079 28.553010 37.119117
6593   0  1 45.685072 25.697637 34.263804
6594   0  1 45.685136 25.697623 37.119145
6993   0  1 48.540346 25.697712 34.263764
6994   0  1 48.540386 25.697704 37.119084
14593  0  1 47.112700 27.125356 35.691436
7414   0  1 51.395659 28.553072 37.119032
7413   0  1 51.395632 28.553076 34.263729
7393   0  1 51.395650 25.697749 34.263737
7394   0  1 51.395674 25.697746 37.119047
15393  0  1 52.823311 27.125419 35.691372
14993  0  1 49.967996 27.125398 35.691399
7814   0  1 54.250980 28.553081 37.119005
7813   0  1 54.250965 28.553081 34.263705
15793  0  1 55.678637 27.125426 35.691349
7793   0  1 54.250968 25.697764 34.263716
7794   0  1 54.250983 25.697768 37.119022
4015   0  1 28.553187  0.000064 39.974514
4035   0  1 28.553184  2.855274 39.974502
4415   0  1 31.408552  0.000070 39.974522
4435   0  1 31.408545  2.855280 39.974507
12014  0  1 29.980863  1.427667 38.546831
12015  0  1 29.980867  1.427674 41.402183
4815   0  1 34.263915  0.000078 39.974531
4835   0  1 34.263903  2.855287 39.974514
12414  0  1 32.836225  1.427674 38.546839
12415  0  1 32.836228  1.427680 41.402191
12814  0  1 35.691583  1.427683 38.546845
12815  0  1 35.691584  1.427686 41.402198
5215   0  1 37.119272  0.000085 39.974537
5235   0  1 37.119255  2.855294 39.974518
5615   0  1 39.974617  0.000088 39.974537
5635   0  1 39.974595  2.855302 39.974517
13214  0  1 38.546932  1.427692 38.546847
13215  0  1 38.546933  1.427691 41.402201
6035   0  1 42.829919  2.855307 39.974511
13614  0  1 41.402267  1.427696 38.546844
13615  0  1 41.402267  1.427693 41.402198
14014  0  1 44.257582  1.427695 38.546836
14015  0  1 44.257582  1.427689 41.402188
6015   0  1 42.829944  0.000083 39.974529
6415   0  1 45.685246  0.000067 39.974516
6435   0  1 45.685222  2.855309 39.974502
6815   0  1 48.540521  0.000043 39.974501
6835   0  1 48.540501  2.855307 39.974492
14414  0  1 47.112873  1.427686 38.546826
14415  0  1 47.112873  1.427679 41.402176
7215   0  1 51.395774  0.000016 39.974487
7235   0  1 51.395758  2.855301 39.974484
14814  0  1 49.968138  1.427671 38.546816
14815  0  1 49.968141  1.427664 41.402162
15214  0  1 52.823383  1.427654 38.546810
15215  0  1 52.823388  1.427648 41.402153
7635   0  1 54.250999  2.855292 39.974480
15614  0  1 55.678616  1.427640 38.546809
15615  0  1 55.678625  1.427636 41.402149
4055   0  1 28.553186  5.710487 39.974511
4455   0  1 31.408551  5.710493 39.974515
12034  0  1 29.980863  4.282883 38.546830
12035  0  1 29.980867  4.282886 41.402180
12054  0  1 29.980872  7.138094 38.546849
12055  0  1 29.980875  7.138094 41.402201
4855   0  1 34.263911  5.710500 39.974520
12434  0  1 32.836223  4.282889 38.546835
12435  0  1 32.836227  4.282892 41.402186
12454  0  1 32.836239  7.138100 38.546852
12455  0  1 32.836242  7.138100 41.402206
12834  0  1 35.691579  4.282896 38.546839
12835  0  1 35.691582  4.282899 41.402191
12854  0  1 35.691598  7.138107 38.546852
12855  0  1 35.691601  7.138108 41.402209
5255   0  1 37.119262  5.710508 39.974520
5655   0  1 39.974600  5.710519 39.974516
13234  0  1 38.546924  4.282905 38.546838
13235  0  1 38.546927  4.282907 41.402192
13254  0  1 38.546943  7.138118 38.546846
13255  0  1 38.546947  7.138120 41.402205
6055   0  1 42.829920  5.710535 39.974506
13634  0  1 41.402256  4.282916 38.546833
13635  0  1 41.402259  4.282916 41.402187
13654  0  1 41.402269  7.138137 38.546835
13655  0  1 41.402275  7.138139 41.402195
14034  0  1 44.257567  4.282927 38.546825
14035  0  1 44.257571  4.282926 41.402178
14054  0  1 44.257574  7.138163 38.546822
14055  0  1 44.257580  7.138164 41.402179
6455   0  1 45.685218  5.710554 39.974495
6855   0  1 48.540494  5.710571 39.974485
14434  0  1 47.112857  4.282937 38.546816
14435  0  1 47.112861  4.282935 41.402167
14454  0  1 47.112858  7.138190 38.546811
14455  0  1 47.112864  7.138191 41.402164
7255   0  1 51.395751  5.710582 39.974478
14834  0  1 49.968124  4.282942 38.546810
14835  0  1 49.968129  4.282940 41.402156
14854  0  1 49.968122  7.138214 38.546803
14855  0  1 49.968129  7.138216 41.402151
15234  0  1 52.823372  4.282941 38.546806
15235  0  1 52.823379  4.282941 41.402150
15254  0  1 52.823369  7.138229 38.546801
15255  0  1 52.823378  7.138232 41.402144
55     0  1 57.106228  5.710579 39.974481
7655   0  1 54.250994  5.710586 39.974477
15634  0  1 55.678607  4.282935 38.546808
15635  0  1 55.678617  4.282936 41.402149
15654  0  1 55.678606  7.138230 38.546804
15655  0  1 55.678617  7.138236 41.402144
4075   0  1 28.553195  8.565687 39.974543
4095   0  1 28.553212 11.420859 39.974604
4475   0  1 31.408572  8.565695 39.974548
4495   0  1 31.408612 11.420868 39.974611
12074  0  1 29.980895  9.993285 38.546892
12075  0  1 29.980894  9.993283 41.402249
4875   0  1 34.263941  8.565702 39.974550
4895   0  1 34.264000 11.420877 39.974612
12474  0  1 32.836278  9.993292 38.546894
12475  0  1 32.836276  9.993290 41.402255
12874  0  1 35.691647  9.993300 38.546888
12875  0  1 35.691646  9.993301 41.402256
5275   0  1 37.119296  8.565712 39.974546
5295   0  1 37.119363 11.420894 39.974599
5675   0  1 39.974631  8.565732 39.974533
5695   0  1 39.974691 11.420931 39.974569
13274  0  1 38.546991  9.993319 38.546872
13275  0  1 38.546995  9.993321 41.402244
6075   0  1 42.829943  8.565762 39.974514
6095   0  1 42.829986 11.420984 39.974535
13674  0  1 41.402307  9.993353 38.546849
13675  0  1 41.402315  9.993355 41.402220
14074  0  1 44.257599  9.993398 38.546826
14075  0  1 44.257609  9.993400 41.402193
6475   0  1 45.685231  8.565799 39.974496
6495   0  1 45.685259 11.421046 39.974504
6875   0  1 48.540501  8.565836 39.974481
6895   0  1 48.540515 11.421107 39.974480
14474  0  1 47.112871  9.993446 38.546809
14475  0  1 47.112881  9.993450 41.402167
7275   0  1 51.395754  8.565866 39.974472
7295   0  1 51.395761 11.421157 39.974464
14874  0  1 49.968128  9.993490 38.546797
14875  0  1 49.968138  9.993496 41.402147
15274  0  1 52.823373  9.993521 38.546792
15275  0  1 52.823383  9.993529 41.402136
75     0  1 57.106231  8.565879 39.974474
7675   0  1 54.250996  8.565882 39.974469
7695   0  1 54.251002 11.421186 39.974458
15674  0  1 55.678611  9.993531 38.546795
15675  0  1 55.678622  9.993542 41.402133
12094  0  1 29.980939 12.848436 38.546967
12095  0  1 29.980924 12.848436 41.402334
4115   0  1 28.553240 14.275980 39.974706
4515   0  1 31.408682 14.275989 39.974721
12114  0  1 29.981015 15.703517 38.547096
12115  0  1 29.980969 15.703526 41.402478
12494  0  1 32.836352 12.848445 38.546971
12495  0  1 32.836335 12.848444 41.402345
12894  0  1 35.691736 12.848459 38.546956
12895  0  1 35.691726 12.848460 41.402343
4915   0  1 34.264104 14.276002 39.974724
12915  0  1 35.691858 15.703563 41.402497
12914  0  1 35.691891 15.703559 38.547075
12514  0  1 32.836484 15.703528 38.547107
12515  0  1 32.836430 15.703533 41.402502
5315   0  1 37.119478 14.276037 39.974694
13294  0  1 38.547071 12.848497 38.546918
13295  0  1 38.547078 12.848497 41.402316
5715   0  1 39.974780 14.276111 39.974629
13314  0  1 38.547186 15.703648 38.546986
13315  0  1 38.547209 15.703637 41.402438
13694  0  1 41.402367 12.848559 38.546875
13695  0  1 41.402381 12.848560 41.402267
14094  0  1 44.257638 12.848632 38.546839
14095  0  1 44.257653 12.848636 41.402218
6115   0  1 42.830046 14.276202 39.974570
13714  0  1 41.402445 15.703754 38.546918
13715  0  1 41.402468 15.703757 41.402337
14114  0  1 44.257684 15.703869 38.546863
14115  0  1 44.257703 15.703879 41.402255
14494  0  1 47.112892 12.848708 38.546812
14495  0  1 47.112905 12.848715 41.402176
6515   0  1 45.685292 14.276299 39.974520
6915   0  1 48.540528 14.276390 39.974481
14514  0  1 47.112908 15.703984 38.546818
14515  0  1 47.112924 15.703995 41.402186
14894  0  1 49.968137 12.848776 38.546792
14895  0  1 49.968148 12.848784 41.402144
15294  0  1 52.823379 12.848823 38.546782
15295  0  1 52.823389 12.848834 41.402123
7315   0  1 51.395765 14.276459 39.974454
14914  0  1 49.968137 15.704076 38.546786
14915  0  1 49.968151 15.704087 41.402137
15314  0  1 52.823379 15.704136 38.546768
15315  0  1 52.823391 15.704148 41.402106
15694  0  1 55.678620 12.848842 38.546782
15695  0  1 55.678631 12.848856 41.402117
7715   0  1 54.251008 14.276500 39.974441
15715  0  1 55.678641 15.704178 41.402094
15714  0  1 55.678630 15.704162 38.546762
4135   0  1 28.553275 17.131007 39.974882
4155   0  1 28.553306 19.985857 39.975231
4535   0  1 31.408795 17.131010 39.974922
4555   0  1 31.408970 19.985835 39.975338
12134  0  1 29.981140 18.558449 38.547338
12135  0  1 29.981025 18.558524 41.402720
12935  0  1 35.692068 18.558584 41.402770
12934  0  1 35.692172 18.558541 38.547309
4935   0  1 34.264284 17.131033 39.974933
4955   0  1 34.264595 19.985881 39.975371
12534  0  1 32.836726 18.558461 38.547380
12535  0  1 32.836574 18.558525 41.402778
5335   0  1 37.119667 17.131114 39.974864
5355   0  1 37.119975 19.986079 39.975201
5735   0  1 39.974896 17.131273 39.974718
5755   0  1 39.975074 19.986399 39.974890
13334  0  1 38.547328 18.558772 38.547079
13335  0  1 38.547399 18.558738 41.402640
6135   0  1 42.830117 17.131422 39.974622
6155   0  1 42.830166 19.986686 39.974682
13734  0  1 41.402545 18.558939 38.546987
13735  0  1 41.402579 18.558954 41.402443
14134  0  1 44.257714 18.559134 38.546894
14135  0  1 44.257739 18.559154 41.402293
6535   0  1 45.685316 17.131572 39.974540
6555   0  1 45.685308 19.986888 39.974550
6935   0  1 48.540526 17.131692 39.974479
6955   0  1 48.540505 19.987018 39.974468
14534  0  1 47.112900 18.559290 38.546822
14535  0  1 47.112923 18.559304 41.402189
7335   0  1 51.395759 17.131774 39.974440
7355   0  1 51.395743 19.987097 39.974420
14934  0  1 49.968121 18.559394 38.546776
14935  0  1 49.968140 18.559406 41.402123
15334  0  1 52.823371 18.559456 38.546749
15335  0  1 52.823385 18.559469 41.402083
15735  0  1 55.678648 18.559501 41.402064
15734  0  1 55.678638 18.559484 38.546738
7735   0  1 54.251010 17.131820 39.974420
7755   0  1 54.251008 19.987141 39.974393
4175   0  1 28.553324 22.840892 39.975427
4575   0  1 31.409167 22.840803 39.975690
12154  0  1 29.981327 21.412980 38.547984
12155  0  1 29.981079 21.413618 41.402894
12174  0  1 29.981518 24.267825 38.548423
12175  0  1 29.981126 24.269070 41.402679
12975  0  1 35.692460 24.269112 41.403105
12974  0  1 35.693308 24.268220 38.548500
12955  0  1 35.692317 21.413681 41.403057
12954  0  1 35.692701 21.413238 38.547911
4975   0  1 34.264979 22.840856 39.975829
12575  0  1 32.836845 24.269017 41.402974
12574  0  1 32.837774 24.267773 38.548840
12554  0  1 32.837187 21.412991 38.548111
12555  0  1 32.836741 21.413594 41.403036
5375   0  1 37.120314 22.841200 39.975536
5775   0  1 39.975150 22.841722 39.974990
13354  0  1 38.547629 21.413749 38.547371
13355  0  1 38.547598 21.413933 41.402838
13374  0  1 38.547718 24.269117 38.547510
13375  0  1 38.547638 24.269411 41.402859
6175   0  1 42.830141 22.842056 39.974695
13754  0  1 41.402611 21.414184 38.547081
13755  0  1 41.402638 21.414261 41.402513
13774  0  1 41.402553 24.269604 38.547093
13775  0  1 41.402610 24.269699 41.402497
14154  0  1 44.257693 21.414462 38.546913
14155  0  1 44.257730 21.414495 41.402302
14174  0  1 44.257622 24.269854 38.546897
14175  0  1 44.257686 24.269888 41.402275
6575   0  1 45.685264 22.842249 39.974536
6975   0  1 48.540469 22.842360 39.974447
14554  0  1 47.112863 21.414628 38.546816
14555  0  1 47.112897 21.414644 41.402176
14574  0  1 47.112809 24.269988 38.546795
14575  0  1 47.112859 24.270002 41.402148
7375   0  1 51.395722 22.842425 39.974395
14954  0  1 49.968092 21.414725 38.546759
14955  0  1 49.968118 21.414737 41.402100
14974  0  1 49.968059 24.270061 38.546737
14975  0  1 49.968093 24.270070 41.402073
15354  0  1 52.823358 21.414780 38.546727
15355  0  1 52.823375 21.414791 41.402056
15374  0  1 52.823343 24.270102 38.546703
15375  0  1 52.823364 24.270111 41.402027
15775  0  1 55.678657 24.270133 41.401999
15774  0  1 55.678646 24.270122 38.546680
15755  0  1 55.678653 21.414821 41.402031
15754  0  1 55.678643 21.414806 38.546709
7775   0  1 54.251003 22.842461 39.974364
4615   0  1 31.409182 28.552346 39.974751
4215   0  1 28.553545 28.552392 39.974018
4195   0  1 28.553399 25.696524 39.974931
4595   0  1 31.409277 25.696386 39.975436
12194  0  1 29.981630 27.123744 38.547688
12195  0  1 29.981155 27.124760 41.402129
4216   0  1 28.553384 28.552770 42.829327
4616   0  1 31.408748 28.552762 42.829630
5015   0  1 34.264987 28.552448 39.975459
4995   0  1 34.265173 25.696433 39.975820
12594  0  1 32.838017 27.123667 38.548628
12595  0  1 32.836797 27.124736 41.402602
12994  0  1 35.693240 27.124255 38.548364
12995  0  1 35.692378 27.124837 41.402916
5815   0  1 39.974997 28.552824 39.974862
5415   0  1 37.120213 28.552640 39.975366
13394  0  1 38.547584 27.124815 38.547413
5795   0  1 39.975086 25.697255 39.974949
5395   0  1 37.120334 25.696853 39.975520
13395  0  1 38.547572 27.125013 41.402770
6215   0  1 42.830007 28.552942 39.974601
6195   0  1 42.830070 25.697496 39.974654
13794  0  1 41.402441 27.125116 38.547029
13795  0  1 41.402550 27.125180 41.402438
14194  0  1 44.257546 27.125270 38.546856
14195  0  1 44.257638 27.125291 41.402233
7015   0  1 48.540408 28.553049 39.974395
6615   0  1 45.685168 28.553010 39.974469
14595  0  1 47.112825 27.125360 41.402116
6595   0  1 45.685209 25.697631 39.974503
6995   0  1 48.540433 25.697707 39.974419
14594  0  1 47.112762 27.125352 38.546767
7415   0  1 51.395691 28.553071 39.974349
7395   0  1 51.395703 25.697750 39.974369
15395  0  1 52.823356 27.125425 41.402003
15394  0  1 52.823333 27.125420 38.546681
14994  0  1 49.968033 27.125396 38.546715
14995  0  1 49.968073 27.125401 41.402047
7815   0  1 54.250997 28.553083 39.974317
7795   0  1 54.250999 25.697775 39.974337
15794  0  1 55.678649 27.125431 38.546655
15795  0  1 55.678660 27.125438 41.401972
7796   0  1 54.251015 25.697784 42.829661
7816   0  1 54.251015 28.553087 42.829640
4016   0  1 28.553187  0.000070 42.829864
4017   0  1 28.553184  0.000066 45.685196
4036   0  1 28.553185  2.855280 42.829848
4037   0  1 28.553183  2.855284 45.685180
4417   0  1 31.408544  0.000070 45.685204
4436   0  1 31.408546  2.855285 42.829854
4437   0  1 31.408541  2.855288 45.685187
12016  0  1 29.980865  1.427677 44.257525
12017  0  1 29.980859  1.427675 47.112848
4416   0  1 31.408551  0.000075 42.829872
4816   0  1 34.263912  0.000080 42.829880
4817   0  1 34.263903  0.000073 45.685212
4836   0  1 34.263903  2.855290 42.829861
4837   0  1 34.263896  2.855293 45.685194
12416  0  1 32.836224  1.427682 44.257532
12417  0  1 32.836215  1.427678 47.112855
12816  0  1 35.691579  1.427686 44.257539
12817  0  1 35.691567  1.427681 47.112862
5216   0  1 37.119268  0.000083 42.829886
5217   0  1 37.119256  0.000073 45.685217
5236   0  1 37.119254  2.855296 42.829865
5237   0  1 37.119245  2.855297 45.685199
5617   0  1 39.974598  0.000069 45.685216
5636   0  1 39.974594  2.855301 42.829865
5637   0  1 39.974585  2.855301 45.685199
13216  0  1 38.546926  1.427688 44.257542
13217  0  1 38.546912  1.427681 47.112864
5616   0  1 39.974612  0.000081 42.829885
6016   0  1 42.829938  0.000073 42.829877
6017   0  1 42.829923  0.000059 45.685207
6036   0  1 42.829918  2.855305 42.829859
6037   0  1 42.829908  2.855303 45.685192
13616  0  1 41.402260  1.427687 44.257538
13617  0  1 41.402245  1.427679 47.112861
14016  0  1 44.257575  1.427681 44.257528
14017  0  1 44.257560  1.427673 47.112850
6416   0  1 45.685240  0.000056 42.829862
6417   0  1 45.685227  0.000042 45.685191
6436   0  1 45.685221  2.855306 42.829848
6437   0  1 45.685212  2.855303 45.685180
6816   0  1 48.540518  0.000033 42.829843
6817   0  1 48.540508  0.000020 45.685172
6836   0  1 48.540501  2.855303 42.829835
6837   0  1 48.540495  2.855300 45.685165
14416  0  1 47.112868  1.427671 44.257513
14417  0  1 47.112855  1.427663 47.112835
7236   0  1 51.395761  2.855297 42.829824
7237   0  1 51.395758  2.855295 45.685151
14816  0  1 49.968138  1.427657 44.257497
14817  0  1 49.968129  1.427651 47.112817
15216  0  1 52.823390  1.427643 44.257485
15217  0  1 52.823385  1.427638 47.112802
7216   0  1 51.395774  0.000007 42.829827
7636   0  1 54.251005  2.855290 42.829817
7637   0  1 54.251007  2.855289 45.685141
15616  0  1 55.678631  1.427632 44.257478
15617  0  1 55.678633  1.427628 47.112792
4056   0  1 28.553187  5.710491 42.829856
4057   0  1 28.553183  5.710502 45.685188
4456   0  1 31.408551  5.710497 42.829862
4457   0  1 31.408543  5.710507 45.685195
12036  0  1 29.980865  4.282892 44.257520
12037  0  1 29.980859  4.282901 47.112844
12056  0  1 29.980870  7.138102 44.257541
12057  0  1 29.980860  7.138123 47.112862
4856   0  1 34.263910  5.710503 42.829868
4857   0  1 34.263901  5.710513 45.685201
12436  0  1 32.836224  4.282897 44.257527
12437  0  1 32.836215  4.282905 47.112851
12456  0  1 32.836235  7.138108 44.257548
12457  0  1 32.836221  7.138128 47.112870
12836  0  1 35.691577  4.282903 44.257532
12837  0  1 35.691566  4.282910 47.112857
12856  0  1 35.691593  7.138117 44.257552
12857  0  1 35.691576  7.138136 47.112876
5256   0  1 37.119261  5.710512 42.829870
5257   0  1 37.119251  5.710521 45.685205
5656   0  1 39.974600  5.710523 42.829867
5657   0  1 39.974590  5.710531 45.685203
13236  0  1 38.546923  4.282910 44.257534
13237  0  1 38.546910  4.282916 47.112859
13256  0  1 38.546940  7.138129 44.257551
13257  0  1 38.546923  7.138148 47.112876
6056   0  1 42.829920  5.710538 42.829857
6057   0  1 42.829912  5.710545 45.685194
13636  0  1 41.402254  4.282918 44.257530
13637  0  1 41.402241  4.282923 47.112855
13656  0  1 41.402270  7.138147 44.257542
13657  0  1 41.402254  7.138165 47.112869
14036  0  1 44.257567  4.282927 44.257520
14037  0  1 44.257555  4.282931 47.112845
14056  0  1 44.257578  7.138171 44.257526
14057  0  1 44.257565  7.138187 47.112854
6456   0  1 45.685219  5.710555 42.829844
6457   0  1 45.685213  5.710562 45.685179
6856   0  1 48.540497  5.710572 42.829830
6857   0  1 48.540493  5.710578 45.685162
14436  0  1 47.112858  4.282935 44.257506
14437  0  1 47.112848  4.282938 47.112831
14456  0  1 47.112864  7.138198 44.257507
14457  0  1 47.112854  7.138211 47.112834
7256   0  1 51.395756  5.710584 42.829819
7257   0  1 51.395755  5.710590 45.685148
14836  0  1 49.968129  4.282940 44.257493
14837  0  1 49.968122  4.282943 47.112815
14856  0  1 49.968130  7.138223 44.257490
14857  0  1 49.968124  7.138234 47.112814
15236  0  1 52.823382  4.282942 44.257483
15237  0  1 52.823379  4.282945 47.112801
15256  0  1 52.823382  7.138240 44.257478
15257  0  1 52.823380  7.138251 47.112797
7656   0  1 54.251001  5.710589 42.829814
7657   0  1 54.251004  5.710596 45.685138
15636  0  1 55.678624  4.282939 44.257478
15637  0  1 55.678627  4.282944 47.112793
15656  0  1 55.678624  7.138246 44.257473
15657  0  1 55.678628  7.138258 47.112788
4076   0  1 28.553193  8.565692 42.829890
4077   0  1 28.553184  8.565713 45.685219
4096   0  1 28.553202 11.420870 42.829954
4476   0  1 31.408566  8.565699 42.829897
4477   0  1 31.408553  8.565718 45.685228
4496   0  1 31.408595 11.420876 42.829965
4497   0  1 31.408568 11.420915 45.685287
12076  0  1 29.980881  9.993299 44.257589
12077  0  1 29.980863  9.993340 47.112900
4097   0  1 28.553185 11.420913 45.685273
4876   0  1 34.263935  8.565706 42.829902
4877   0  1 34.263918  8.565725 45.685235
4896   0  1 34.263982 11.420886 42.829972
4897   0  1 34.263948 11.420924 45.685297
12476  0  1 32.836258  9.993305 44.257598
12477  0  1 32.836233  9.993345 47.112911
12876  0  1 35.691628  9.993317 44.257602
12877  0  1 35.691598  9.993355 47.112918
5276   0  1 37.119292  8.565718 42.829902
5277   0  1 37.119275  8.565738 45.685237
5296   0  1 37.119351 11.420905 42.829967
5297   0  1 37.119317 11.420942 45.685298
5676   0  1 39.974631  8.565738 42.829892
5677   0  1 39.974615  8.565757 45.685231
5696   0  1 39.974689 11.420941 42.829943
5697   0  1 39.974661 11.420975 45.685283
13276  0  1 38.546981  9.993337 44.257596
13277  0  1 38.546951  9.993374 47.112917
6076   0  1 42.829945  8.565768 42.829873
6077   0  1 42.829934  8.565785 45.685214
6096   0  1 42.829990 11.420994 42.829905
6097   0  1 42.829974 11.421023 45.685251
13676  0  1 41.402308  9.993370 44.257576
13677  0  1 41.402283  9.993403 47.112903
14076  0  1 44.257607  9.993414 44.257546
14077  0  1 44.257588  9.993442 47.112877
6476   0  1 45.685235  8.565805 42.829850
6477   0  1 45.685228  8.565820 45.685190
6496   0  1 45.685265 11.421056 42.829866
6497   0  1 45.685256 11.421081 45.685210
6876   0  1 48.540505  8.565842 42.829829
6877   0  1 48.540502  8.565856 45.685165
6896   0  1 48.540522 11.421118 42.829832
6897   0  1 48.540517 11.421138 45.685170
14476  0  1 47.112882  9.993463 44.257515
14477  0  1 47.112869  9.993487 47.112845
7276   0  1 51.395760  8.565873 42.829814
7277   0  1 51.395759  8.565886 45.685144
7296   0  1 51.395768 11.421168 42.829807
7297   0  1 51.395768 11.421187 45.685138
14876  0  1 49.968140  9.993508 44.257488
14877  0  1 49.968133  9.993528 47.112814
15276  0  1 52.823387  9.993542 44.257470
15277  0  1 52.823385  9.993559 47.112791
7676   0  1 54.251004  8.565891 42.829806
7677   0  1 54.251007  8.565905 45.685131
7696   0  1 54.251010 11.421200 42.829793
7697   0  1 54.251014 11.421218 45.685118
15676  0  1 55.678630  9.993557 44.257462
15677  0  1 55.678634  9.993576 47.112777
12096  0  1 29.980896 12.848472 44.257668
12097  0  1 29.980867 12.848556 47.112951
4116   0  1 28.553212 14.276012 42.830055
4117   0  1 28.553184 14.276108 45.685341
4516   0  1 31.408639 14.276013 42.830077
4517   0  1 31.408588 14.276104 45.685367
12116  0  1 29.980914 15.703626 44.257776
12117  0  1 29.980870 15.703798 47.112986
12496  0  1 32.836296 12.848478 44.257684
12497  0  1 32.836251 12.848558 47.112970
12896  0  1 35.691686 12.848494 44.257689
12897  0  1 35.691630 12.848571 47.112980
4916   0  1 34.264058 14.276026 42.830090
4917   0  1 34.263991 14.276112 45.685385
12917  0  1 35.691667 15.703806 47.113039
12916  0  1 35.691770 15.703649 44.257817
12516  0  1 32.836349 15.703626 44.257807
12517  0  1 32.836271 15.703793 47.113018
5316   0  1 37.119447 14.276059 42.830078
5317   0  1 37.119377 14.276139 45.685386
13296  0  1 38.547049 12.848528 44.257674
13297  0  1 38.546993 12.848598 47.112976
5716   0  1 39.974779 14.276125 42.830029
5717   0  1 39.974727 14.276190 45.685359
13316  0  1 38.547146 15.703706 44.257789
13317  0  1 38.547041 15.703841 47.113037
13696  0  1 41.402369 12.848584 44.257634
13697  0  1 41.402325 12.848643 47.112952
14096  0  1 44.257649 12.848658 44.257580
14097  0  1 44.257622 12.848704 47.112909
6116   0  1 42.830053 14.276218 42.829956
6117   0  1 42.830027 14.276265 45.685303
13716  0  1 41.402450 15.703801 44.257715
13717  0  1 41.402372 15.703903 47.113002
14116  0  1 44.257697 15.703915 44.257622
14117  0  1 44.257654 15.703984 47.112938
14496  0  1 47.112906 12.848735 44.257528
14497  0  1 47.112890 12.848769 47.112858
6516   0  1 45.685300 14.276315 42.829889
6517   0  1 45.685287 14.276352 45.685235
6916   0  1 48.540536 14.276405 42.829835
6917   0  1 48.540532 14.276433 45.685174
14516  0  1 47.112925 15.704023 44.257540
14517  0  1 47.112905 15.704069 47.112867
14896  0  1 49.968151 12.848802 44.257486
14897  0  1 49.968143 12.848828 47.112813
15296  0  1 52.823394 12.848850 44.257457
15297  0  1 52.823392 12.848872 47.112779
7316   0  1 51.395773 14.276473 42.829796
7317   0  1 51.395774 14.276496 45.685128
14916  0  1 49.968156 15.704108 44.257479
14917  0  1 49.968149 15.704139 47.112806
15316  0  1 52.823397 15.704166 44.257439
15317  0  1 52.823396 15.704190 47.112762
15696  0  1 55.678639 12.848875 44.257444
15697  0  1 55.678642 12.848897 47.112760
7716   0  1 54.251017 14.276515 42.829775
7717   0  1 54.251021 14.276536 45.685100
15717  0  1 55.678652 15.704220 47.112736
15716  0  1 55.678648 15.704197 44.257419
4136   0  1 28.553219 17.131114 42.830201
4137   0  1 28.553182 17.131339 45.685382
4156   0  1 28.553222 19.986285 42.830289
4157   0  1 28.553186 19.986663 45.685321
4536   0  1 31.408698 17.131103 42.830249
4537   0  1 31.408609 17.131322 45.685428
4556   0  1 31.408760 19.986248 42.830388
4557   0  1 31.408625 19.986631 45.685398
12136  0  1 29.980931 18.558823 44.257851
12137  0  1 29.980873 18.559102 47.112956
12937  0  1 35.691696 18.559097 47.113053
12936  0  1 35.691867 18.558838 44.257944
4936   0  1 34.264170 17.131118 42.830277
4937   0  1 34.264039 17.131326 45.685465
4956   0  1 34.264300 19.986259 42.830459
4957   0  1 34.264075 19.986626 45.685471
12536  0  1 32.836407 18.558811 44.257913
12537  0  1 32.836285 18.559088 47.113010
5336   0  1 37.119589 17.131178 42.830253
5337   0  1 37.119447 17.131360 45.685474
5356   0  1 37.119753 19.986349 42.830435
5357   0  1 37.119500 19.986660 45.685507
5736   0  1 39.974902 17.131299 42.830155
5737   0  1 39.974798 17.131432 45.685436
5756   0  1 39.975024 19.986534 42.830277
5757   0  1 39.974847 19.986745 45.685472
13336  0  1 38.547254 18.558921 44.257907
13337  0  1 38.547079 18.559136 47.113065
6136   0  1 42.830125 17.131453 42.830023
6137   0  1 42.830077 17.131537 45.685351
6156   0  1 42.830168 19.986753 42.830069
6157   0  1 42.830100 19.986865 45.685369
13736  0  1 41.402528 18.559059 44.257792
13737  0  1 41.402405 18.559208 47.113028
14136  0  1 44.257728 18.559213 44.257651
14137  0  1 44.257671 18.559301 47.112950
6536   0  1 45.685327 17.131598 42.829913
6537   0  1 45.685309 17.131650 45.685252
6556   0  1 45.685326 19.986922 42.829917
6557   0  1 45.685311 19.986981 45.685250
6936   0  1 48.540539 17.131711 42.829832
6937   0  1 48.540536 17.131744 45.685170
6956   0  1 48.540525 19.987038 42.829818
6957   0  1 48.540529 19.987072 45.685155
14536  0  1 47.112928 18.559338 44.257540
14537  0  1 47.112908 18.559389 47.112863
7336   0  1 51.395771 17.131789 42.829780
7337   0  1 51.395774 17.131813 45.685112
7356   0  1 51.395760 19.987113 42.829756
7357   0  1 51.395768 19.987135 45.685088
14936  0  1 49.968151 18.559429 44.257463
14937  0  1 49.968146 18.559460 47.112791
15336  0  1 52.823395 18.559487 44.257415
15337  0  1 52.823397 18.559510 47.112739
15737  0  1 55.678660 18.559540 47.112708
15736  0  1 55.678656 18.559520 44.257388
7736   0  1 54.251020 17.131836 42.829750
7737   0  1 54.251025 17.131857 45.685075
7756   0  1 54.251020 19.987157 42.829720
7757   0  1 54.251027 19.987176 45.685046
4576   0  1 31.408804 22.841611 42.830307
4577   0  1 31.408632 22.842038 45.685247
12156  0  1 29.980947 21.414160 44.257777
12157  0  1 29.980880 21.414476 47.112837
12176  0  1 29.980968 24.269626 44.257530
12177  0  1 29.980893 24.269879 47.112666
4177   0  1 28.553208 22.842078 45.685137
4176   0  1 28.553242 22.841678 42.830130
12977  0  1 35.691674 24.269870 47.112891
12976  0  1 35.691938 24.269615 44.257872
12957  0  1 35.691701 21.414459 47.112998
12956  0  1 35.691937 21.414154 44.257974
4976   0  1 34.264389 22.841608 42.830468
4977   0  1 34.264080 22.842028 45.685369
12577  0  1 32.836274 24.269863 47.112774
12576  0  1 32.836450 24.269594 44.257711
12556  0  1 32.836449 21.414131 44.257893
12557  0  1 32.836288 21.414455 47.112919
5376   0  1 37.119854 22.841712 42.830491
5377   0  1 37.119507 22.842059 45.685455
5776   0  1 39.975063 22.841928 42.830304
5777   0  1 39.974848 22.842138 45.685448
13356  0  1 38.547325 21.414251 44.257954
13357  0  1 38.547087 21.414496 47.113039
13376  0  1 38.547317 24.269704 44.257906
13377  0  1 38.547060 24.269900 47.112974
6176   0  1 42.830158 22.842136 42.830064
6177   0  1 42.830092 22.842241 45.685351
13756  0  1 41.402559 21.414410 44.257815
13757  0  1 41.402409 21.414565 47.113016
13776  0  1 41.402541 24.269829 44.257786
13777  0  1 41.402387 24.269950 47.112978
14156  0  1 44.257726 21.414563 44.257649
14157  0  1 44.257666 21.414649 47.112938
14176  0  1 44.257701 24.269944 44.257621
14177  0  1 44.257648 24.270010 47.112911
6576   0  1 45.685299 22.842283 42.829897
6577   0  1 45.685295 22.842335 45.685229
6976   0  1 48.540500 22.842379 42.829793
6977   0  1 48.540513 22.842407 45.685130
14556  0  1 47.112913 21.414679 44.257523
14557  0  1 47.112898 21.414725 47.112845
14576  0  1 47.112889 24.270029 44.257495
14577  0  1 47.112883 24.270064 47.112822
7376   0  1 51.395745 22.842438 42.829728
7377   0  1 51.395758 22.842457 45.685061
14956  0  1 49.968136 21.414757 44.257439
14957  0  1 49.968138 21.414785 47.112768
14976  0  1 49.968119 24.270087 44.257411
14977  0  1 49.968127 24.270107 47.112744
15356  0  1 52.823389 21.414808 44.257386
15357  0  1 52.823394 21.414827 47.112713
15376  0  1 52.823382 24.270123 44.257357
15377  0  1 52.823390 24.270137 47.112688
15777  0  1 55.678671 24.270157 47.112650
15776  0  1 55.678666 24.270146 44.257323
15757  0  1 55.678666 21.414853 47.112678
15756  0  1 55.678662 21.414837 44.257355
7776   0  1 54.251017 22.842474 42.829689
7777   0  1 54.251027 22.842489 45.685016
4196   0  1 28.553305 25.697230 42.829734
4197   0  1 28.553253 25.697514 45.684902
4596   0  1 31.408808 25.697167 42.829987
4597   0  1 31.408625 25.697485 45.685035
12196  0  1 29.980985 27.125119 44.257230
12197  0  1 29.980905 27.125275 47.112505
4217   0  1 28.553295 28.552925 45.684708
4617   0  1 31.408598 28.552924 45.684852
12997  0  1 35.691626 27.125286 47.112783
12996  0  1 35.691867 27.125139 44.257715
12597  0  1 32.836243 27.125274 47.112630
12596  0  1 32.836399 27.125113 44.257466
4996   0  1 34.264373 25.697169 42.830271
4997   0  1 34.264042 25.697485 45.685206
5017   0  1 34.263979 28.552938 45.685064
5016   0  1 34.264263 28.552790 42.830035
5396   0  1 37.119824 25.697266 42.830394
5397   0  1 37.119463 25.697513 45.685353
5796   0  1 39.975028 25.697417 42.830254
5797   0  1 39.974815 25.697566 45.685392
13396  0  1 38.547264 27.125192 44.257821
13397  0  1 38.547017 27.125307 47.112904
5416   0  1 37.119741 28.552841 42.830269
5417   0  1 37.119405 28.552959 45.685260
5816   0  1 39.974977 28.552909 42.830189
5817   0  1 39.974776 28.552984 45.685339
6196   0  1 42.830118 25.697557 42.830024
6197   0  1 42.830066 25.697631 45.685316
13796  0  1 41.402505 27.125261 44.257738
13797  0  1 41.402357 27.125335 47.112936
14196  0  1 44.257672 27.125327 44.257587
14197  0  1 44.257629 27.125367 47.112884
6216   0  1 42.830082 28.552974 42.829983
6217   0  1 42.830041 28.553014 45.685283
6596   0  1 45.685264 25.697656 42.829863
6597   0  1 45.685274 25.697692 45.685200
6996   0  1 48.540475 25.697720 42.829763
6997   0  1 48.540497 25.697739 45.685105
14596  0  1 47.112868 27.125376 44.257468
14597  0  1 47.112870 27.125398 47.112799
6616   0  1 45.685238 28.553023 42.829834
7016   0  1 48.540458 28.553055 42.829740
7017   0  1 48.540487 28.553064 45.685085
6617   0  1 45.685257 28.553042 45.685177
7396   0  1 51.395731 25.697760 42.829701
7397   0  1 51.395750 25.697772 45.685036
15397  0  1 52.823388 27.125440 47.112668
15396  0  1 52.823377 27.125432 44.257334
14996  0  1 49.968106 27.125410 44.257387
14997  0  1 49.968119 27.125422 47.112724
7416   0  1 51.395723 28.553075 42.829681
7417   0  1 51.395745 28.553081 45.685018
15797  0  1 55.678676 27.125452 47.112628
15796  0  1 55.678670 27.125445 44.257298
7797   0  1 54.251026 25.697794 45.684990
7817   0  1 54.251028 28.553091 45.684972
4018   0  1 28.553178  0.000050 48.540503
4038   0  1 28.553178  2.855287 48.540492
4039   0  1 28.553172  2.855290 51.395778
4418   0  1 31.408534  0.000054 48.540512
4419   0  1 31.408523  0.000033 51.395792
4438   0  1 31.408532  2.855291 48.540500
4439   0  1 31.408522  2.855294 51.395787
12018  0  1 29.980851  1.427667 49.968145
4019   0  1 28.553172  0.000029 51.395782
4818   0  1 34.263888  0.000056 48.540520
4819   0  1 34.263872  0.000035 51.395800
4838   0  1 34.263884  2.855295 48.540507
4839   0  1 34.263870  2.855297 51.395795
12418  0  1 32.836203  1.427670 49.968154
12818  0  1 35.691552  1.427672 49.968160
5218   0  1 37.119237  0.000055 48.540524
5219   0  1 37.119216  0.000034 51.395805
5238   0  1 37.119231  2.855298 48.540512
5239   0  1 37.119213  2.855300 51.395800
5618   0  1 39.974576  0.000051 48.540524
5619   0  1 39.974552  0.000030 51.395806
5638   0  1 39.974568  2.855300 48.540512
5639   0  1 39.974548  2.855302 51.395801
13218  0  1 38.546893  1.427672 49.968163
6018   0  1 42.829901  0.000041 48.540516
6038   0  1 42.829891  2.855302 48.540506
6039   0  1 42.829869  2.855303 51.395797
13618  0  1 41.402224  1.427670 49.968160
14018  0  1 44.257539  1.427664 49.968151
6019   0  1 42.829875  0.000022 51.395800
6418   0  1 45.685207  0.000026 48.540501
6419   0  1 45.685181  0.000010 51.395788
6438   0  1 45.685197  2.855301 48.540494
6439   0  1 45.685175  2.855303 51.395786
6818   0  1 48.540492  0.000007 48.540481
6838   0  1 48.540482  2.855299 48.540478
6839   0  1 48.540463  2.855301 51.395771
14418  0  1 47.112835  1.427656 49.968136
7238   0  1 51.395749  2.855295 48.540461
7239   0  1 51.395735  2.855297 51.395754
14818  0  1 49.968113  1.427645 49.968118
15218  0  1 52.823376  1.427635 49.968101
7638   0  1 54.251004  2.855290 48.540448
7639   0  1 54.250995  2.855293 51.395739
15618  0  1 55.678630  1.427626 49.968089
4058   0  1 28.553176  5.710521 48.540499
4059   0  1 28.553170  5.710547 51.395784
4458   0  1 31.408533  5.710525 48.540507
4459   0  1 31.408521  5.710550 51.395793
12038  0  1 29.980851  4.282913 49.968144
12058  0  1 29.980849  7.138157 49.968157
4858   0  1 34.263886  5.710530 48.540514
4859   0  1 34.263870  5.710555 51.395802
12438  0  1 32.836203  4.282917 49.968152
12458  0  1 32.836204  7.138161 49.968166
12838  0  1 35.691551  4.282921 49.968159
12858  0  1 35.691555  7.138168 49.968173
5258   0  1 37.119234  5.710537 48.540519
5259   0  1 37.119214  5.710561 51.395807
5658   0  1 39.974572  5.710547 48.540518
5659   0  1 39.974549  5.710570 51.395808
13238  0  1 38.546892  4.282927 49.968161
13258  0  1 38.546898  7.138178 49.968176
6058   0  1 42.829894  5.710559 48.540510
6059   0  1 42.829870  5.710580 51.395802
13638  0  1 41.402221  4.282933 49.968159
13658  0  1 41.402228  7.138193 49.968172
14038  0  1 44.257535  4.282939 49.968150
14058  0  1 44.257541  7.138211 49.968159
6458   0  1 45.685197  5.710574 48.540496
6459   0  1 45.685174  5.710591 51.395790
6858   0  1 48.540481  5.710588 48.540478
6859   0  1 48.540461  5.710603 51.395774
14438  0  1 47.112831  4.282945 49.968135
14458  0  1 47.112834  7.138232 49.968141
7258   0  1 51.395747  5.710599 48.540460
7259   0  1 51.395732  5.710612 51.395755
14838  0  1 49.968108  4.282949 49.968118
14858  0  1 49.968109  7.138251 49.968120
15238  0  1 52.823371  4.282951 49.968102
15258  0  1 52.823371  7.138266 49.968101
7658   0  1 54.251001  5.710605 48.540447
7659   0  1 54.250993  5.710617 51.395739
15638  0  1 55.678625  4.282950 49.968091
15658  0  1 55.678626  7.138273 49.968087
4078   0  1 28.553174  8.565753 48.540521
4079   0  1 28.553166  8.565806 51.395796
4098   0  1 28.553170 11.420989 48.540553
4099   0  1 28.553161 11.421077 51.395804
4478   0  1 31.408536  8.565756 48.540532
4479   0  1 31.408520  8.565807 51.395808
4498   0  1 31.408540 11.420988 48.540569
4499   0  1 31.408517 11.421076 51.395820
12078  0  1 29.980847  9.993403 49.968179
4878   0  1 34.263895  8.565762 48.540541
4879   0  1 34.263871  8.565812 51.395818
4898   0  1 34.263909 11.420994 48.540582
4899   0  1 34.263872 11.421080 51.395835
12478  0  1 32.836207  9.993406 49.968192
12878  0  1 35.691564  9.993415 49.968201
5278   0  1 37.119248  8.565773 48.540545
5279   0  1 37.119218  8.565822 51.395825
5298   0  1 37.119270 11.421009 48.540588
5299   0  1 37.119223 11.421091 51.395844
5678   0  1 39.974588  8.565791 48.540542
5679   0  1 39.974555  8.565836 51.395825
5698   0  1 39.974615 11.421035 48.540581
5699   0  1 39.974563 11.421110 51.395846
13278  0  1 38.546911  9.993430 49.968203
6078   0  1 42.829910  8.565815 48.540529
6079   0  1 42.829876  8.565856 51.395817
6098   0  1 42.829936 11.421074 48.540560
6099   0  1 42.829886 11.421138 51.395835
13678  0  1 41.402244  9.993454 49.968196
14078  0  1 44.257555  9.993485 49.968178
6478   0  1 45.685209  8.565845 48.540508
6479   0  1 45.685180  8.565879 51.395801
6498   0  1 45.685229 11.421121 48.540526
6499   0  1 45.685188 11.421172 51.395813
6878   0  1 48.540488  8.565876 48.540482
6879   0  1 48.540464  8.565904 51.395779
6898   0  1 48.540500 11.421169 48.540488
6899   0  1 48.540470 11.421208 51.395784
14478  0  1 47.112844  9.993520 49.968151
7278   0  1 51.395751  8.565903 48.540459
7279   0  1 51.395734  8.565925 51.395756
7298   0  1 51.395758 11.421211 48.540455
7299   0  1 51.395738 11.421240 51.395753
14878  0  1 49.968115  9.993554 49.968122
15278  0  1 52.823375  9.993581 49.968096
7678   0  1 54.251004  8.565921 48.540441
7679   0  1 54.250995  8.565940 51.395735
7698   0  1 54.251011 11.421239 48.540430
7699   0  1 54.251000 11.421262 51.395727
15678  0  1 55.678631  9.993596 49.968078
12098  0  1 29.980844 12.848666 49.968195
4118   0  1 28.553166 14.276246 48.540572
4119   0  1 28.553155 14.276372 51.395792
4518   0  1 31.408544 14.276239 48.540597
4519   0  1 31.408512 14.276367 51.395814
12118  0  1 29.980841 15.703960 49.968181
12498  0  1 32.836210 12.848666 49.968214
12898  0  1 35.691574 12.848674 49.968228
4918   0  1 34.263924 14.276242 48.540619
4919   0  1 34.263871 14.276369 51.395836
12918  0  1 35.691582 15.703961 49.968235
12518  0  1 32.836211 15.703955 49.968210
5318   0  1 37.119296 14.276260 48.540630
5319   0  1 37.119226 14.276380 51.395852
13298  0  1 38.546928 12.848693 49.968233
5718   0  1 39.974648 14.276294 48.540622
5719   0  1 39.974570 14.276401 51.395858
13318  0  1 38.546942 15.703982 49.968248
13698  0  1 41.402263 12.848725 49.968224
14098  0  1 44.257573 12.848768 49.968198
6118   0  1 42.829966 14.276346 48.540592
6119   0  1 42.829894 14.276434 51.395847
13718  0  1 41.402279 15.704019 49.968240
14118  0  1 44.257585 15.704069 49.968210
14498  0  1 47.112856 12.848817 49.968161
6518   0  1 45.685249 14.276409 48.540544
6519   0  1 45.685195 14.276476 51.395821
6918   0  1 48.540510 14.276472 48.540491
6919   0  1 48.540474 14.276519 51.395784
14518  0  1 47.112863 15.704126 49.968163
14898  0  1 49.968122 12.848863 49.968121
15298  0  1 52.823381 12.848898 49.968087
7318   0  1 51.395764 14.276524 48.540446
7319   0  1 51.395742 14.276557 51.395746
14918  0  1 49.968126 15.704177 49.968114
15318  0  1 52.823385 15.704217 49.968072
15698  0  1 55.678639 12.848920 49.968064
7718   0  1 54.251018 14.276559 48.540414
7719   0  1 54.251006 14.276584 51.395715
15718  0  1 55.678648 15.704242 49.968044
4139   0  1 28.553154 17.131696 51.395747
4158   0  1 28.553169 19.986901 48.540455
4159   0  1 28.553158 19.987038 51.395673
4538   0  1 31.408547 17.131533 48.540584
4539   0  1 31.408507 17.131686 51.395777
4558   0  1 31.408547 19.986879 48.540509
4559   0  1 31.408502 19.987026 51.395710
12138  0  1 29.980840 18.559293 49.968122
4138   0  1 28.553163 17.131548 48.540545
12938  0  1 35.691580 18.559286 49.968205
4938   0  1 34.263936 17.131531 48.540621
4939   0  1 34.263865 17.131685 51.395809
4958   0  1 34.263936 19.986872 48.540568
4959   0  1 34.263854 19.987023 51.395753
12538  0  1 32.836208 18.559283 49.968164
5338   0  1 37.119318 17.131548 48.540646
5339   0  1 37.119223 17.131694 51.395836
5358   0  1 37.119322 19.986886 48.540616
5359   0  1 37.119209 19.987031 51.395794
5738   0  1 39.974673 17.131587 48.540645
5739   0  1 39.974569 17.131715 51.395850
5758   0  1 39.974679 19.986924 48.540632
5759   0  1 39.974556 19.987050 51.395823
13338  0  1 38.546944 18.559305 49.968232
6138   0  1 42.829987 17.131648 48.540610
6139   0  1 42.829894 17.131749 51.395845
6158   0  1 42.829990 19.986983 48.540603
6159   0  1 42.829883 19.987080 51.395827
13738  0  1 41.402282 18.559341 49.968234
14138  0  1 44.257587 18.559392 49.968205
6538   0  1 45.685261 17.131720 48.540550
6539   0  1 45.685194 17.131792 51.395818
6558   0  1 45.685258 19.987051 48.540541
6559   0  1 45.685186 19.987118 51.395805
6938   0  1 48.540514 17.131788 48.540485
6939   0  1 48.540473 17.131836 51.395777
6958   0  1 48.540509 19.987113 48.540470
6959   0  1 48.540467 19.987156 51.395763
14538  0  1 47.112862 18.559447 49.968155
7338   0  1 51.395765 17.131843 48.540430
7339   0  1 51.395742 17.131874 51.395734
7358   0  1 51.395762 19.987162 48.540410
7359   0  1 51.395740 19.987189 51.395718
14938  0  1 49.968124 18.559497 49.968100
15338  0  1 52.823386 18.559535 49.968053
15738  0  1 55.678656 18.559559 49.968020
7738   0  1 54.251023 17.131879 48.540392
7739   0  1 54.251011 17.131902 51.395698
7758   0  1 54.251026 19.987195 48.540367
7759   0  1 54.251015 19.987214 51.395678
4178   0  1 28.553188 22.842277 48.540321
4179   0  1 28.553171 22.842382 51.395589
4578   0  1 31.408546 22.842255 48.540388
4579   0  1 31.408498 22.842372 51.395630
12158  0  1 29.980843 21.414649 49.968026
12178  0  1 29.980852 24.270006 49.967920
12978  0  1 35.691539 24.270004 49.968061
12958  0  1 35.691566 21.414639 49.968140
4978   0  1 34.263922 22.842249 48.540470
4979   0  1 34.263837 22.842371 51.395682
12578  0  1 32.836187 24.270000 49.967984
12558  0  1 32.836201 21.414638 49.968081
5378   0  1 37.119302 22.842261 48.540547
5379   0  1 37.119185 22.842378 51.395738
5778   0  1 39.974661 22.842293 48.540590
5779   0  1 39.974532 22.842394 51.395783
13358  0  1 38.546928 21.414656 49.968188
13378  0  1 38.546899 24.270018 49.968131
6178   0  1 42.829975 22.842340 48.540577
6179   0  1 42.829864 22.842417 51.395801
13758  0  1 41.402269 21.414687 49.968207
13778  0  1 41.402244 24.270041 49.968170
14158  0  1 44.257576 21.414730 49.968187
14178  0  1 44.257558 24.270070 49.968162
6578   0  1 45.685246 22.842392 48.540520
6579   0  1 45.685172 22.842444 51.395786
6978   0  1 48.540499 22.842440 48.540449
6979   0  1 48.540459 22.842473 51.395747
14558  0  1 47.112853 21.414775 49.968138
14578  0  1 47.112841 24.270101 49.968119
7378   0  1 51.395757 22.842477 48.540387
7379   0  1 51.395737 22.842498 51.395701
14958  0  1 49.968118 21.414815 49.968082
14978  0  1 49.968111 24.270129 49.968063
15358  0  1 52.823386 21.414847 49.968032
15378  0  1 52.823385 24.270151 49.968012
15778  0  1 55.678668 24.270167 49.967974
15758  0  1 55.678663 21.414868 49.967996
7778   0  1 54.251028 22.842504 48.540342
7779   0  1 54.251018 22.842517 51.395659
4198   0  1 28.553216 25.697647 48.540188
4199   0  1 28.553188 25.697717 51.395513
4598   0  1 31.408541 25.697634 48.540261
4599   0  1 31.408494 25.697712 51.395556
12198  0  1 29.980859 27.125354 49.967832
4218   0  1 28.553240 28.553002 48.540088
4219   0  1 28.553202 28.553044 51.395460
4619   0  1 31.408487 28.553046 51.395503
4618   0  1 31.408529 28.553003 48.540164
12998  0  1 35.691507 27.125364 49.967992
12598  0  1 32.836169 27.125356 49.967902
4998   0  1 34.263892 25.697635 48.540362
4999   0  1 34.263816 25.697715 51.395616
5019   0  1 34.263795 28.553052 51.395567
5018   0  1 34.263857 28.553012 48.540278
5398   0  1 37.119264 25.697648 48.540468
5399   0  1 37.119155 25.697723 51.395684
5798   0  1 39.974629 25.697669 48.540539
5799   0  1 39.974504 25.697735 51.395743
13398  0  1 38.546866 27.125375 49.968080
5418   0  1 37.119226 28.553023 48.540405
5419   0  1 37.119129 28.553060 51.395643
5819   0  1 39.974480 28.553066 51.395713
5818   0  1 39.974598 28.553035 48.540497
6198   0  1 42.829952 25.697698 48.540545
6199   0  1 42.829843 25.697749 51.395774
13798  0  1 41.402219 27.125388 49.968136
14198  0  1 44.257541 27.125403 49.968140
6218   0  1 42.829932 28.553048 48.540519
6219   0  1 42.829826 28.553073 51.395753
6598   0  1 45.685230 25.697731 48.540497
6599   0  1 45.685158 25.697766 51.395766
6998   0  1 48.540488 25.697762 48.540429
6999   0  1 48.540451 25.697783 51.395731
14598  0  1 47.112831 27.125420 49.968101
6618   0  1 45.685218 28.553062 48.540478
6619   0  1 45.685148 28.553080 51.395752
7018   0  1 48.540482 28.553076 48.540413
7019   0  1 48.540446 28.553087 51.395719
7398   0  1 51.395752 25.697786 48.540367
7399   0  1 51.395734 25.697799 51.395685
15398  0  1 52.823385 27.125448 49.967996
14998  0  1 49.968106 27.125436 49.968047
7418   0  1 51.395750 28.553087 48.540352
7419   0  1 51.395734 28.553094 51.395674
15798  0  1 55.678673 27.125458 49.967957
7798   0  1 54.251029 25.697803 48.540320
7799   0  1 54.251020 25.697812 51.395643
7818   0  1 54.251032 28.553095 48.540305
7819   0  1 54.251023 28.553099 51.395631
4020   0  1 28.553168  0.000009 54.251036
4040   0  1 28.553168  2.855295 54.251039
4420   0  1 31.408514  0.000014 54.251047
4440   0  1 31.408514  2.855299 54.251049
12019  0  1 29.980844  1.427658 52.823416
12020  0  1 29.980840  1.427655 55.678664
4820   0  1 34.263858  0.000016 54.251056
4840   0  1 34.263858  2.855303 54.251059
12419  0  1 32.836192  1.427662 52.823425
12420  0  1 32.836183  1.427659 55.678675
12819  0  1 35.691535  1.427664 52.823433
12820  0  1 35.691522  1.427661 55.678684
5220   0  1 37.119197  0.000017 54.251063
5240   0  1 37.119196  2.855306 54.251065
5620   0  1 39.974528  0.000014 54.251066
5640   0  1 39.974527  2.855308 54.251068
13219  0  1 38.546873  1.427664 52.823437
13220  0  1 38.546856  1.427662 55.678690
6020   0  1 42.829849  0.000008 54.251063
6040   0  1 42.829846  2.855309 54.251066
13619  0  1 41.402200  1.427663 52.823436
13620  0  1 41.402179  1.427661 55.678692
14019  0  1 44.257514  1.427658 52.823429
14020  0  1 44.257491  1.427658 55.678688
6440   0  1 45.685151  2.855308 54.251058
6840   0  1 48.540440  2.855306 54.251045
14419  0  1 47.112812  1.427652 52.823417
14420  0  1 47.112788  1.427652 55.678679
7240   0  1 51.395716  2.855302 54.251029
14819  0  1 49.968093  1.427643 52.823400
14820  0  1 49.968072  1.427644 55.678666
15219  0  1 52.823361  1.427634 52.823383
15220  0  1 52.823343  1.427636 55.678649
7640   0  1 54.250982  2.855297 54.251012
15619  0  1 55.678622  1.427626 52.823368
15620  0  1 55.678609  1.427628 55.678633
4060   0  1 28.553166  5.710575 54.251044
4460   0  1 31.408512  5.710578 54.251055
12039  0  1 29.980843  4.282929 52.823418
12040  0  1 29.980839  4.282946 55.678670
12059  0  1 29.980841  7.138197 52.823426
12060  0  1 29.980836  7.138235 55.678676
4860   0  1 34.263856  5.710583 54.251065
12439  0  1 32.836191  4.282932 52.823428
12440  0  1 32.836182  4.282950 55.678681
12459  0  1 32.836189  7.138201 52.823437
12460  0  1 32.836178  7.138239 55.678688
12839  0  1 35.691535  4.282937 52.823435
12840  0  1 35.691521  4.282955 55.678691
12859  0  1 35.691534  7.138207 52.823446
12860  0  1 35.691516  7.138246 55.678699
5260   0  1 37.119194  5.710589 54.251073
5660   0  1 39.974525  5.710596 54.251076
13239  0  1 38.546871  4.282941 52.823439
13240  0  1 38.546853  4.282960 55.678697
13259  0  1 38.546872  7.138216 52.823450
13260  0  1 38.546848  7.138254 55.678706
6060   0  1 42.829843  5.710605 54.251073
13639  0  1 41.402198  4.282947 52.823439
13640  0  1 41.402176  4.282964 55.678699
13659  0  1 41.402199  7.138228 52.823449
13660  0  1 41.402171  7.138264 55.678709
14039  0  1 44.257511  4.282952 52.823432
14040  0  1 44.257487  4.282968 55.678695
14059  0  1 44.257512  7.138242 52.823441
14060  0  1 44.257481  7.138275 55.678705
6460   0  1 45.685147  5.710613 54.251065
6860   0  1 48.540436  5.710621 54.251051
14439  0  1 47.112808  4.282956 52.823420
14440  0  1 47.112783  4.282970 55.678686
14459  0  1 47.112807  7.138258 52.823426
14460  0  1 47.112778  7.138285 55.678695
7260   0  1 51.395712  5.710627 54.251033
14839  0  1 49.968089  4.282959 52.823403
14840  0  1 49.968066  4.282971 55.678672
14859  0  1 49.968087  7.138272 52.823407
14860  0  1 49.968061  7.138294 55.678678
15239  0  1 52.823356  4.282960 52.823386
15240  0  1 52.823337  4.282969 55.678655
15259  0  1 52.823355  7.138283 52.823387
15260  0  1 52.823334  7.138300 55.678659
7660   0  1 54.250978  5.710629 54.251015
15639  0  1 55.678617  4.282958 52.823371
15640  0  1 55.678603  4.282966 55.678637
15659  0  1 55.678617  7.138288 52.823370
15660  0  1 55.678602  7.138301 55.678639
4080   0  1 28.553162  8.565858 54.251049
4100   0  1 28.553156 11.421153 54.251045
4480   0  1 31.408508  8.565860 54.251062
4500   0  1 31.408501 11.421154 54.251061
12079  0  1 29.980836  9.993473 52.823433
12080  0  1 29.980830  9.993531 55.678677
4880   0  1 34.263852  8.565866 54.251074
4900   0  1 34.263845 11.421158 54.251076
12479  0  1 32.836185  9.993475 52.823447
12480  0  1 32.836170  9.993535 55.678692
12879  0  1 35.691532  9.993483 52.823458
12880  0  1 35.691508  9.993542 55.678705
5280   0  1 37.119191  8.565874 54.251083
5300   0  1 37.119184 11.421167 54.251088
5680   0  1 39.974522  8.565886 54.251087
5700   0  1 39.974517 11.421182 54.251095
13279  0  1 38.546872  9.993495 52.823465
13280  0  1 38.546840  9.993553 55.678714
6080   0  1 42.829841  8.565900 54.251084
6100   0  1 42.829837 11.421201 54.251093
13679  0  1 41.402201  9.993512 52.823463
13680  0  1 41.402163  9.993566 55.678718
14079  0  1 44.257514  9.993535 52.823453
14080  0  1 44.257474  9.993582 55.678714
6480   0  1 45.685145  8.565917 54.251074
6500   0  1 45.685143 11.421224 54.251081
6880   0  1 48.540434  8.565934 54.251057
6900   0  1 48.540433 11.421248 54.251061
14479  0  1 47.112810  9.993560 52.823434
14480  0  1 47.112772  9.993599 55.678702
7280   0  1 51.395710  8.565948 54.251036
7300   0  1 51.395710 11.421269 54.251036
14879  0  1 49.968089  9.993585 52.823410
14880  0  1 49.968057  9.993615 55.678683
15279  0  1 52.823357  9.993605 52.823385
15280  0  1 52.823333  9.993626 55.678661
7680   0  1 54.250978  8.565958 54.251015
7700   0  1 54.250981 11.421284 54.251011
15679  0  1 55.678621  9.993615 52.823365
15680  0  1 55.678604  9.993632 55.678638
12099  0  1 29.980830 12.848766 52.823428
12100  0  1 29.980822 12.848838 55.678668
4120   0  1 28.553151 14.276464 54.251026
4520   0  1 31.408492 14.276462 54.251045
12119  0  1 29.980824 15.704080 52.823400
12120  0  1 29.980814 15.704156 55.678646
12499  0  1 32.836180 12.848766 52.823446
12500  0  1 32.836160 12.848841 55.678685
12899  0  1 35.691528 12.848773 52.823462
12900  0  1 35.691496 12.848848 55.678701
4920   0  1 34.263834 14.276466 54.251065
12920  0  1 35.691480 15.704164 55.678686
12919  0  1 35.691520 15.704082 52.823447
12519  0  1 32.836172 15.704078 52.823424
12520  0  1 32.836147 15.704158 55.678666
5320   0  1 37.119174 14.276474 54.251082
13299  0  1 38.546871 12.848786 52.823473
13300  0  1 38.546828 12.848860 55.678714
5720   0  1 39.974508 14.276489 54.251093
13319  0  1 38.546865 15.704095 52.823465
13320  0  1 38.546811 15.704175 55.678704
13699  0  1 41.402202 12.848807 52.823473
13700  0  1 41.402152 12.848875 55.678721
14099  0  1 44.257516 12.848836 52.823462
14100  0  1 44.257465 12.848894 55.678718
6120   0  1 42.829830 14.276511 54.251094
13719  0  1 41.402198 15.704118 52.823471
13720  0  1 41.402136 15.704191 55.678715
14119  0  1 44.257514 15.704148 52.823462
14120  0  1 44.257452 15.704210 55.678715
14499  0  1 47.112811 12.848868 52.823439
14500  0  1 47.112765 12.848915 55.678706
6520   0  1 45.685138 14.276536 54.251083
6920   0  1 48.540430 14.276564 54.251061
14519  0  1 47.112809 15.704183 52.823437
14520  0  1 47.112756 15.704231 55.678704
14899  0  1 49.968090 12.848900 52.823409
14900  0  1 49.968053 12.848934 55.678685
15299  0  1 52.823360 12.848925 52.823379
15300  0  1 52.823333 12.848950 55.678659
7320   0  1 51.395710 14.276588 54.251032
14919  0  1 49.968090 15.704217 52.823404
14920  0  1 49.968048 15.704251 55.678682
15319  0  1 52.823363 15.704244 52.823369
15320  0  1 52.823333 15.704267 55.678654
15699  0  1 55.678628 12.848941 52.823354
15700  0  1 55.678609 12.848958 55.678634
7720   0  1 54.250985 14.276606 54.251003
15720  0  1 55.678616 15.704278 55.678626
15719  0  1 55.678636 15.704262 52.823340
4140   0  1 28.553148 17.131788 54.250990
4160   0  1 28.553150 19.987116 54.250942
4540   0  1 31.408483 17.131785 54.251012
4560   0  1 31.408475 19.987112 54.250967
12139  0  1 29.980820 18.559411 52.823349
12140  0  1 29.980808 18.559478 55.678615
12940  0  1 35.691461 18.559486 55.678661
12939  0  1 35.691507 18.559410 52.823411
4940   0  1 34.263821 17.131786 54.251037
4960   0  1 34.263805 19.987114 54.250997
12539  0  1 32.836162 18.559406 52.823379
12540  0  1 32.836133 18.559480 55.678637
5340   0  1 37.119159 17.131794 54.251061
5360   0  1 37.119138 19.987121 54.251028
5740   0  1 39.974493 17.131808 54.251079
5760   0  1 39.974472 19.987133 54.251054
13339  0  1 38.546851 18.559421 52.823439
13340  0  1 38.546790 18.559496 55.678684
6140   0  1 42.829817 17.131829 54.251085
6160   0  1 42.829799 19.987150 54.251068
13739  0  1 41.402185 18.559441 52.823455
13740  0  1 41.402116 18.559510 55.678700
14139  0  1 44.257503 18.559469 52.823451
14140  0  1 44.257435 18.559527 55.678706
6540   0  1 45.685128 17.131853 54.251077
6560   0  1 45.685114 19.987171 54.251065
6940   0  1 48.540424 17.131880 54.251055
6960   0  1 48.540415 19.987193 54.251044
14539  0  1 47.112802 18.559502 52.823428
14540  0  1 47.112744 18.559545 55.678697
7340   0  1 51.395708 17.131904 54.251024
7360   0  1 51.395706 19.987214 54.251013
14939  0  1 49.968086 18.559533 52.823393
14940  0  1 49.968042 18.559563 55.678676
15339  0  1 52.823364 18.559558 52.823355
15340  0  1 52.823333 18.559578 55.678647
15740  0  1 55.678622 18.559588 55.678617
15739  0  1 55.678644 18.559576 52.823323
7740   0  1 54.250989 17.131922 54.250992
7760   0  1 54.250993 19.987230 54.250980
4180   0  1 28.553157 22.842440 54.250894
4580   0  1 31.408468 22.842437 54.250920
12159  0  1 29.980820 21.414745 52.823285
12160  0  1 29.980804 21.414799 55.678580
12179  0  1 29.980824 24.270075 52.823223
12180  0  1 29.980802 24.270114 55.678549
4161   0  1 28.553144 22.842471 57.106217
12980  0  1 35.691419 24.270124 55.678602
12979  0  1 35.691465 24.270079 52.823310
12960  0  1 35.691440 21.414807 55.678631
12959  0  1 35.691488 21.414745 52.823362
4980   0  1 34.263787 22.842440 54.250953
12580  0  1 32.836106 24.270117 55.678573
12579  0  1 32.836138 24.270074 52.823262
12559  0  1 32.836150 21.414742 52.823321
12560  0  1 32.836119 21.414801 55.678604
5380   0  1 37.119115 22.842447 54.250990
5780   0  1 39.974447 22.842457 54.251025
13359  0  1 38.546828 21.414755 52.823401
13360  0  1 38.546765 21.414816 55.678659
13379  0  1 38.546802 24.270089 52.823360
13380  0  1 38.546741 24.270131 55.678634
6180   0  1 42.829778 22.842470 54.251047
13759  0  1 41.402165 21.414772 52.823428
13760  0  1 41.402093 21.414827 55.678681
13779  0  1 41.402141 24.270101 52.823398
13780  0  1 41.402070 24.270139 55.678662
14159  0  1 44.257487 21.414794 52.823432
14160  0  1 44.257416 21.414840 55.678692
14179  0  1 44.257469 24.270116 52.823412
14180  0  1 44.257398 24.270148 55.678677
6580   0  1 45.685099 22.842485 54.251049
6980   0  1 48.540406 22.842501 54.251032
14559  0  1 47.112791 21.414820 52.823414
14560  0  1 47.112731 21.414854 55.678687
14579  0  1 47.112780 24.270133 52.823398
14580  0  1 47.112720 24.270157 55.678676
7380   0  1 51.395703 22.842516 54.251001
14959  0  1 49.968081 21.414844 52.823379
14960  0  1 49.968036 21.414868 55.678667
14979  0  1 49.968075 24.270150 52.823365
14980  0  1 49.968030 24.270166 55.678657
15359  0  1 52.823364 21.414865 52.823340
15360  0  1 52.823333 21.414881 55.678638
15379  0  1 52.823365 24.270164 52.823326
15380  0  1 52.823333 24.270174 55.678629
15780  0  1 55.678635 24.270181 55.678598
15779  0  1 55.678656 24.270175 52.823291
15760  0  1 55.678629 21.414890 55.678607
15759  0  1 55.678650 21.414880 52.823306
7780   0  1 54.250996 22.842528 54.250967
4200   0  1 28.553166 25.697757 54.250854
4600   0  1 31.408463 25.697757 54.250879
12199  0  1 29.980827 27.125399 52.823175
12200  0  1 29.980802 27.125425 55.678525
4220   0  1 28.553174 28.553069 54.250825
4620   0  1 31.408458 28.553072 54.250851
4581   0  1 31.408439 25.697782 57.106216
4181   0  1 28.553147 25.697779 57.106200
4601   0  1 31.408434 28.553087 57.106204
4201   0  1 28.553150 28.553085 57.106188
13000  0  1 35.691402 27.125434 55.678580
12999  0  1 35.691442 27.125408 52.823269
12600  0  1 32.836096 27.125428 55.678549
12599  0  1 32.836126 27.125401 52.823215
5000   0  1 34.263770 25.697761 54.250915
5020   0  1 34.263757 28.553076 54.250888
5001   0  1 34.263728 28.553091 57.106225
5400   0  1 37.119091 25.697768 54.250957
5800   0  1 39.974423 25.697775 54.250998
13399  0  1 38.546777 27.125415 52.823326
13400  0  1 38.546722 27.125439 55.678614
5420   0  1 37.119073 28.553081 54.250933
5820   0  1 39.974406 28.553085 54.250978
6200   0  1 42.829758 25.697783 54.251027
13799  0  1 41.402119 27.125422 52.823373
13800  0  1 41.402052 27.125443 55.678645
14199  0  1 44.257454 27.125430 52.823393
14200  0  1 44.257385 27.125447 55.678665
6220   0  1 42.829745 28.553089 54.251012
14600  0  1 47.112711 27.125451 55.678666
14599  0  1 47.112771 27.125439 52.823384
7000   0  1 48.540399 25.697801 54.251020
6600   0  1 45.685086 25.697792 54.251035
7020   0  1 48.540395 28.553095 54.251011
6620   0  1 45.685077 28.553092 54.251023
15399  0  1 52.823366 27.125456 52.823314
14999  0  1 49.968072 27.125447 52.823353
15000  0  1 49.968027 27.125456 55.678649
15400  0  1 52.823335 27.125461 55.678621
7400   0  1 51.395701 25.697811 54.250990
7420   0  1 51.395701 28.553099 54.250982
7800   0  1 54.251000 25.697819 54.250956
15799  0  1 55.678662 27.125462 52.823278
15800  0  1 55.678641 27.125465 55.678590
7820   0  1 54.251003 28.553102 54.250948
4222   0  1 28.553131 31.408394  2.855319
4622   0  1 31.408412 31.408395  2.855329
12201  0  1 29.980780 29.980742  1.427642
12202  0  1 29.980757 29.980747  4.283007
5022   0  1 34.263702 31.408392  2.855339
12601  0  1 32.836066 29.980744  1.427655
12602  0  1 32.836042 29.980748  4.283014
13001  0  1 35.691364 29.980744  1.427672
13002  0  1 35.691339 29.980746  4.283019
5421   0  1 37.119032 31.408390  0.000012
5422   0  1 37.119005 31.408388  2.855349
5821   0  1 39.974353 31.408388  0.000038
5822   0  1 39.974322 31.408384  2.855358
13401  0  1 38.546676 29.980743  1.427689
13402  0  1 38.546649 29.980742  4.283023
6222   0  1 42.829648 31.408380  2.855365
13801  0  1 41.401999 29.980742  1.427706
13802  0  1 41.401970 29.980738  4.283026
14201  0  1 44.257330 29.980741  1.427717
14202  0  1 44.257298 29.980736  4.283025
6221   0  1 42.829685 31.408386  0.000059
6621   0  1 45.685019 31.408384  0.000069
6622   0  1 45.684979 31.408378  2.855367
7021   0  1 48.540347 31.408383  0.000063
7022   0  1 48.540308 31.408378  2.855360
14601  0  1 47.112661 29.980740  1.427718
14602  0  1 47.112628 29.980736  4.283020
7421   0  1 51.395666 31.408382  0.000044
7422   0  1 51.395632 31.408379  2.855344
15001  0  1 49.967986 29.980741  1.427706
15002  0  1 49.967954 29.980738  4.283007
15401  0  1 52.823304 29.980742  1.427684
15402  0  1 52.823275 29.980740  4.282986
7821   0  1 54.250979 31.408382  0.000017
7822   0  1 54.250949 31.408380  2.855319
15801  0  1 55.678619 29.980743  1.427656
15802  0  1 55.678591 29.980743  4.282958
4242   0  1 28.553137 34.263695  2.855317
4642   0  1 31.408420 34.263692  2.855328
12221  0  1 29.980783 32.836042  1.427640
12222  0  1 29.980763 32.836047  4.283008
12241  0  1 29.980789 35.691342  1.427640
12242  0  1 29.980775 35.691346  4.283003
5042   0  1 34.263711 34.263686  2.855337
12621  0  1 32.836069 32.836041  1.427654
12622  0  1 32.836048 32.836041  4.283015
12641  0  1 32.836079 35.691339  1.427654
12642  0  1 32.836064 35.691337  4.283010
13021  0  1 35.691367 32.836038  1.427669
13022  0  1 35.691345 32.836034  4.283018
13041  0  1 35.691379 35.691333  1.427669
13042  0  1 35.691363 35.691325  4.283013
5441   0  1 37.119038 34.263686  0.000011
5442   0  1 37.119015 34.263678  2.855346
5841   0  1 39.974360 34.263681  0.000036
5842   0  1 39.974332 34.263670  2.855354
13421  0  1 38.546678 32.836033  1.427686
13422  0  1 38.546655 32.836025  4.283020
13441  0  1 38.546692 35.691325  1.427685
13442  0  1 38.546673 35.691314  4.283013
6241   0  1 42.829691 34.263676  0.000056
6242   0  1 42.829658 34.263664  2.855360
13821  0  1 41.402002 32.836028  1.427702
13822  0  1 41.401976 32.836018  4.283021
13841  0  1 41.402015 35.691318  1.427699
13842  0  1 41.401993 35.691304  4.283012
14221  0  1 44.257334 32.836024  1.427712
14222  0  1 44.257304 32.836014  4.283019
14241  0  1 44.257345 35.691312  1.427708
14242  0  1 44.257320 35.691298  4.283009
6641   0  1 45.685025 34.263671  0.000065
6642   0  1 45.684988 34.263660  2.855360
7041   0  1 48.540352 34.263667  0.000059
7042   0  1 48.540316 34.263658  2.855353
14621  0  1 47.112665 32.836022  1.427712
14622  0  1 47.112634 32.836013  4.283013
14641  0  1 47.112675 35.691307  1.427707
14642  0  1 47.112648 35.691295  4.283003
7441   0  1 51.395671 34.263663  0.000040
7442   0  1 51.395639 34.263657  2.855337
15021  0  1 49.967991 32.836020  1.427701
15022  0  1 49.967961 32.836014  4.283000
15041  0  1 49.967999 35.691303  1.427696
15042  0  1 49.967971 35.691295  4.282991
15421  0  1 52.823309 32.836020  1.427679
15422  0  1 52.823281 32.836017  4.282980
15441  0  1 52.823315 35.691301  1.427675
15442  0  1 52.823289 35.691297  4.282972
7841   0  1 54.250983 34.263660  0.000014
7842   0  1 54.250955 34.263658  2.855314
15821  0  1 55.678623 32.836020  1.427652
15822  0  1 55.678596 32.836020  4.282954
15841  0  1 55.678627 35.691299  1.427648
15842  0  1 55.678601 35.691299  4.282948
4262   0  1 28.553142 37.118995  2.855313
4282   0  1 28.553147 39.974299  2.855306
4662   0  1 31.408432 37.118992  2.855324
4682   0  1 31.408448 39.974296  2.855317
12261  0  1 29.980796 38.546645  1.427641
12262  0  1 29.980788 38.546648  4.282991
5062   0  1 34.263729 37.118983  2.855334
5081   0  1 34.263762 39.974298  0.000002
5082   0  1 34.263752 39.974288  2.855327
12661  0  1 32.836094 38.546641  1.427656
12662  0  1 32.836086 38.546639  4.282998
13061  0  1 35.691399 38.546634  1.427671
13062  0  1 35.691390 38.546626  4.283001
5461   0  1 37.119054 37.118986  0.000016
5462   0  1 37.119036 37.118973  2.855342
5481   0  1 37.119078 39.974292  0.000024
5482   0  1 37.119063 39.974277  2.855336
5861   0  1 39.974377 37.118978  0.000039
5862   0  1 39.974352 37.118962  2.855349
5881   0  1 39.974401 39.974284  0.000044
5882   0  1 39.974380 39.974266  2.855342
13461  0  1 38.546714 38.546625  1.427685
13462  0  1 38.546701 38.546613  4.283001
6261   0  1 42.829707 37.118971  0.000056
6262   0  1 42.829677 37.118954  2.855353
6282   0  1 42.829703 39.974255  2.855345
13861  0  1 41.402037 38.546616  1.427698
13862  0  1 41.402020 38.546601  4.283000
14261  0  1 44.257365 38.546607  1.427704
14262  0  1 44.257344 38.546592  4.282997
6281   0  1 42.829729 39.974274  0.000059
6661   0  1 45.685038 37.118963  0.000063
6662   0  1 45.685004 37.118948  2.855353
6681   0  1 45.685056 39.974264  0.000064
6682   0  1 45.685026 39.974246  2.855344
7061   0  1 48.540362 37.118956  0.000057
7062   0  1 48.540329 37.118944  2.855346
7081   0  1 48.540376 39.974253  0.000056
7082   0  1 48.540345 39.974240  2.855337
14661  0  1 47.112690 38.546600  1.427703
14662  0  1 47.112667 38.546587  4.282991
7461   0  1 51.395678 37.118949  0.000038
7462   0  1 51.395648 37.118942  2.855330
7481   0  1 51.395687 39.974244  0.000037
7482   0  1 51.395658 39.974235  2.855323
15061  0  1 49.968010 38.546593  1.427691
15062  0  1 49.967985 38.546585  4.282980
15461  0  1 52.823322 38.546588  1.427670
15462  0  1 52.823297 38.546584  4.282963
7861   0  1 54.250988 37.118944  0.000012
7862   0  1 54.250960 37.118941  2.855308
7881   0  1 54.250991 39.974235  0.000011
7882   0  1 54.250965 39.974232  2.855302
15861  0  1 55.678629 38.546585  1.427645
15862  0  1 55.678604 38.546586  4.282940
12281  0  1 29.980803 41.401952  1.427643
12282  0  1 29.980802 41.401958  4.282970
4302   0  1 28.553151 42.829611  2.855295
4702   0  1 31.408463 42.829609  2.855307
12301  0  1 29.980811 44.257268  1.427644
12302  0  1 29.980813 44.257279  4.282943
12681  0  1 32.836111 41.401950  1.427658
12682  0  1 32.836110 41.401950  4.282978
13081  0  1 35.691424 41.401944  1.427672
13082  0  1 35.691421 41.401939  4.282982
5101   0  1 34.263782 42.829613  0.000015
5102   0  1 34.263777 42.829603  2.855317
12701  0  1 32.836129 44.257268  1.427659
12702  0  1 32.836132 44.257273  4.282952
13101  0  1 35.691449 44.257264  1.427673
13102  0  1 35.691451 44.257264  4.282958
5501   0  1 37.119104 42.829609  0.000034
5502   0  1 37.119093 42.829594  2.855326
13481  0  1 38.546742 41.401935  1.427686
13482  0  1 38.546735 41.401925  4.282984
5902   0  1 39.974413 42.829582  2.855332
13501  0  1 38.546772 44.257256  1.427685
13502  0  1 38.546770 44.257252  4.282961
5901   0  1 39.974429 42.829600  0.000051
13881  0  1 41.402065 41.401924  1.427696
13882  0  1 41.402054 41.401912  4.282983
14281  0  1 44.257389 41.401914  1.427701
14282  0  1 44.257373 41.401901  4.282981
6301   0  1 42.829755 42.829589  0.000063
6302   0  1 42.829733 42.829570  2.855335
13901  0  1 41.402095 44.257245  1.427694
13902  0  1 41.402089 44.257238  4.282963
14301  0  1 44.257415 44.257233  1.427697
14302  0  1 44.257404 44.257224  4.282963
14681  0  1 47.112709 41.401903  1.427698
14682  0  1 47.112690 41.401892  4.282976
6701   0  1 45.685077 42.829576  0.000065
6702   0  1 45.685051 42.829559  2.855334
7101   0  1 48.540391 42.829562  0.000055
7102   0  1 48.540364 42.829548  2.855328
14701  0  1 47.112730 44.257219  1.427694
14702  0  1 47.112715 44.257211  4.282961
15081  0  1 49.968023 41.401894  1.427686
15082  0  1 49.968001 41.401886  4.282967
15481  0  1 52.823329 41.401886  1.427667
15482  0  1 52.823306 41.401883  4.282952
7502   0  1 51.395670 42.829540  2.855315
15101  0  1 49.968036 44.257206  1.427682
15102  0  1 49.968018 44.257201  4.282954
15501  0  1 52.823335 44.257195  1.427664
15502  0  1 52.823314 44.257194  4.282941
7501   0  1 51.395696 42.829549  0.000037
15881  0  1 55.678630 41.401880  1.427643
15882  0  1 55.678606 41.401882  4.282931
7901   0  1 54.250994 42.829537  0.000012
7902   0  1 54.250969 42.829535  2.855295
15901  0  1 55.678628 44.257187  1.427641
15902  0  1 55.678606 44.257191  4.282921
4322   0  1 28.553154 45.684933  2.855281
4341   0  1 28.553156 48.540262  0.000010
4342   0  1 28.553158 48.540265  2.855268
4721   0  1 31.408476 45.684937  0.000011
4722   0  1 31.408477 45.684933  2.855294
4741   0  1 31.408487 48.540267  0.000025
4742   0  1 31.408489 48.540266  2.855281
12321  0  1 29.980818 47.112595  1.427646
12322  0  1 29.980822 47.112611  4.282914
5121   0  1 34.263802 45.684938  0.000029
5122   0  1 34.263799 45.684929  2.855305
5141   0  1 34.263820 48.540269  0.000041
5142   0  1 34.263819 48.540264  2.855292
12721  0  1 32.836145 47.112596  1.427660
12722  0  1 32.836150 47.112608  4.282924
13121  0  1 35.691472 47.112593  1.427673
13122  0  1 35.691477 47.112601  4.282932
5521   0  1 37.119129 45.684934  0.000045
5522   0  1 37.119122 45.684922  2.855314
5541   0  1 37.119151 48.540266  0.000054
5542   0  1 37.119147 48.540258  2.855302
5921   0  1 39.974457 45.684927  0.000059
5922   0  1 39.974444 45.684911  2.855320
5941   0  1 39.974480 48.540259  0.000065
5942   0  1 39.974471 48.540248  2.855310
13521  0  1 38.546799 47.112587  1.427684
13522  0  1 38.546801 47.112590  4.282938
6321   0  1 42.829781 45.684915  0.000066
6322   0  1 42.829763 45.684898  2.855324
6341   0  1 42.829803 48.540247  0.000069
6342   0  1 42.829789 48.540235  2.855314
13921  0  1 41.402122 47.112576  1.427691
13922  0  1 41.402121 47.112576  4.282943
14321  0  1 44.257440 47.112563  1.427694
14322  0  1 44.257433 47.112560  4.282946
6721   0  1 45.685098 45.684899  0.000066
6722   0  1 45.685077 45.684884  2.855324
6741   0  1 45.685116 48.540231  0.000067
6742   0  1 45.685099 48.540219  2.855315
7121   0  1 48.540406 45.684882  0.000056
7122   0  1 48.540383 45.684870  2.855319
7141   0  1 48.540418 48.540212  0.000056
7142   0  1 48.540398 48.540203  2.855311
14721  0  1 47.112749 47.112547  1.427690
14722  0  1 47.112738 47.112543  4.282946
7521   0  1 51.395703 45.684866  0.000037
7522   0  1 51.395680 45.684858  2.855307
7541   0  1 51.395708 48.540193  0.000039
7542   0  1 51.395688 48.540188  2.855301
15121  0  1 49.968048 47.112531  1.427679
15122  0  1 49.968033 47.112529  4.282941
15521  0  1 52.823339 47.112517  1.427662
15522  0  1 52.823321 47.112518  4.282930
7921   0  1 54.250994 45.684852  0.000015
7922   0  1 54.250971 45.684850  2.855289
7941   0  1 54.250992 48.540178  0.000018
7942   0  1 54.250971 48.540177  2.855285
15921  0  1 55.678625 47.112507  1.427641
15922  0  1 55.678604 47.112513  4.282913
4362   0  1 28.553161 51.395599  2.855260
4761   0  1 31.408497 51.395599  0.000037
4762   0  1 31.408498 51.395601  2.855273
12341  0  1 29.980825 49.967928  1.427647
12342  0  1 29.980829 49.967948  4.282890
12361  0  1 29.980831 52.823259  1.427650
12362  0  1 29.980834 52.823280  4.282879
4361   0  1 28.553160 51.395595  0.000023
5161   0  1 34.263834 51.395601  0.000050
5162   0  1 34.263833 51.395600  2.855285
12741  0  1 32.836159 49.967929  1.427661
12742  0  1 32.836164 49.967947  4.282902
12761  0  1 32.836170 52.823261  1.427663
12762  0  1 32.836174 52.823280  4.282892
13141  0  1 35.691491 49.967928  1.427673
13142  0  1 35.691497 49.967941  4.282912
13161  0  1 35.691505 52.823261  1.427675
13162  0  1 35.691509 52.823277  4.282903
5561   0  1 37.119168 51.395599  0.000061
5562   0  1 37.119165 51.395596  2.855295
5961   0  1 39.974498 51.395593  0.000069
5962   0  1 39.974490 51.395588  2.855304
13541  0  1 38.546821 49.967923  1.427683
13542  0  1 38.546824 49.967932  4.282921
13561  0  1 38.546836 52.823257  1.427684
13562  0  1 38.546838 52.823270  4.282914
6362   0  1 42.829808 51.395575  2.855309
13941  0  1 41.402144 49.967913  1.427689
13942  0  1 41.402145 49.967919  4.282928
13961  0  1 41.402159 52.823249  1.427690
13962  0  1 41.402159 52.823259  4.282922
14341  0  1 44.257459 49.967899  1.427691
14342  0  1 44.257455 49.967903  4.282933
14361  0  1 44.257471 52.823236  1.427691
14362  0  1 44.257468 52.823244  4.282928
6361   0  1 42.829818 51.395581  0.000071
6761   0  1 45.685128 51.395566  0.000068
6762   0  1 45.685114 51.395560  2.855310
7161   0  1 48.540425 51.395547  0.000058
7162   0  1 48.540408 51.395543  2.855307
14741  0  1 47.112763 49.967882  1.427687
14742  0  1 47.112755 49.967884  4.282935
14761  0  1 47.112772 52.823221  1.427687
14762  0  1 47.112764 52.823227  4.282930
7561   0  1 51.395710 51.395528  0.000042
7562   0  1 51.395692 51.395527  2.855297
15141  0  1 49.968056 49.967865  1.427677
15142  0  1 49.968044 49.967867  4.282932
15161  0  1 49.968060 52.823204  1.427677
15162  0  1 49.968048 52.823209  4.282928
15541  0  1 52.823340 49.967850  1.427661
15542  0  1 52.823324 49.967853  4.282922
15561  0  1 52.823337 52.823189  1.427663
15562  0  1 52.823323 52.823195  4.282919
7961   0  1 54.250987 51.395513  0.000023
7962   0  1 54.250968 51.395514  2.855283
15941  0  1 55.678618 49.967839  1.427642
15942  0  1 55.678599 49.967845  4.282907
15961  0  1 55.678610 52.823178  1.427646
15962  0  1 55.678592 52.823186  4.282903
4382   0  1 28.553164 54.250927  2.855260
4781   0  1 31.408505 54.250925  0.000045
4782   0  1 31.408505 54.250930  2.855273
12381  0  1 29.980836 55.678582  1.427656
12382  0  1 29.980838 55.678600  4.282882
4381   0  1 28.553163 54.250920  0.000032
5181   0  1 34.263844 54.250927  0.000057
5182   0  1 34.263843 54.250930  2.855285
12781  0  1 32.836176 55.678585  1.427669
12782  0  1 32.836179 55.678602  4.282896
13181  0  1 35.691513 55.678586  1.427680
13182  0  1 35.691515 55.678602  4.282908
5581   0  1 37.119179 54.250926  0.000066
5582   0  1 37.119176 54.250928  2.855296
5981   0  1 39.974508 54.250921  0.000072
5982   0  1 39.974501 54.250922  2.855304
13581  0  1 38.546843 55.678584  1.427688
13582  0  1 38.546844 55.678598  4.282919
6381   0  1 42.829827 54.250912  0.000074
6382   0  1 42.829817 54.250912  2.855310
13981  0  1 41.402165 55.678579  1.427694
13982  0  1 41.402163 55.678591  4.282928
14381  0  1 44.257476 55.678570  1.427695
14382  0  1 44.257470 55.678581  4.282933
6801   0  1 48.540424 57.106217  0.000065
6802   0  1 48.540408 57.106224  2.855314
6781   0  1 45.685134 54.250899  0.000070
6782   0  1 45.685121 54.250899  2.855311
7181   0  1 48.540427 54.250884  0.000060
7182   0  1 48.540412 54.250884  2.855307
14781  0  1 47.112773 55.678558  1.427691
14782  0  1 47.112764 55.678567  4.282935
6401   0  1 45.685133 57.106228  0.000075
7202   0  1 51.395685 57.106212  2.855303
7201   0  1 51.395702 57.106206  0.000051
7581   0  1 51.395707 54.250867  0.000046
7582   0  1 51.395691 54.250869  2.855298
15181  0  1 49.968058 55.678545  1.427681
15182  0  1 49.968046 55.678552  4.282930
15581  0  1 52.823332 55.678532  1.427667
15582  0  1 52.823317 55.678539  4.282920
2      0  1 57.106221 57.106193  2.855270
7602   0  1 54.250954 57.106201  2.855288
7601   0  1 54.250971 57.106195  0.000035
7981   0  1 54.250979 54.250853  0.000028
7982   0  1 54.250962 54.250857  2.855284
15981  0  1 55.678601 55.678521  1.427650
15982  0  1 55.678583 55.678529  4.282904
382    0  1 57.106231 54.250850  2.855266
4623   0  1 31.408387 31.408397  5.710696
4624   0  1 31.408357 31.408398  8.566072
12203  0  1 29.980729 29.980750  7.138378
5023   0  1 34.263677 31.408391  5.710697
5024   0  1 34.263648 31.408386  8.566063
12603  0  1 32.836013 29.980748  7.138379
13003  0  1 35.691312 29.980742  7.138373
5423   0  1 37.118982 31.408383  5.710695
5424   0  1 37.118958 31.408371  8.566046
5823   0  1 39.974299 31.408376  5.710690
5824   0  1 39.974280 31.408360  8.566027
13403  0  1 38.546625 29.980734  7.138365
6223   0  1 42.829625 31.408371  5.710684
6224   0  1 42.829610 31.408356  8.566009
13803  0  1 41.401948 29.980728  7.138355
14203  0  1 44.257277 29.980726  7.138344
6623   0  1 45.684954 31.408369  5.710676
6624   0  1 45.684941 31.408358  8.565992
7023   0  1 48.540283 31.408371  5.710664
7024   0  1 48.540271 31.408364  8.565975
14603  0  1 47.112607 29.980729  7.138331
7423   0  1 51.395607 31.408375  5.710647
7424   0  1 51.395594 31.408372  8.565956
15003  0  1 49.967934 29.980733  7.138314
15403  0  1 52.823255 29.980738  7.138292
224    0  1 57.106216 31.408384  8.565902
7823   0  1 54.250925 31.408379  5.710623
7824   0  1 54.250909 31.408379  8.565932
15803  0  1 55.678568 29.980742  7.138264
4243   0  1 28.553119 34.263702  5.710688
4643   0  1 31.408401 34.263694  5.710694
4644   0  1 31.408380 34.263697  8.566068
12223  0  1 29.980740 32.836051  7.138382
12243  0  1 29.980761 35.691354  7.138371
5043   0  1 34.263693 34.263682  5.710694
5044   0  1 34.263673 34.263676  8.566056
12623  0  1 32.836024 32.836040  7.138382
12643  0  1 32.836050 35.691337  7.138370
13023  0  1 35.691322 32.836026  7.138373
13043  0  1 35.691349 35.691318  7.138360
5443   0  1 37.118997 34.263669  5.710689
5444   0  1 37.118981 34.263655  8.566035
5843   0  1 39.974313 34.263657  5.710682
5844   0  1 39.974302 34.263640  8.566012
13423  0  1 38.546635 32.836013  7.138361
13443  0  1 38.546661 35.691301  7.138345
6243   0  1 42.829639 34.263650  5.710674
6244   0  1 42.829630 34.263634  8.565991
13823  0  1 41.401959 32.836004  7.138347
13843  0  1 41.401983 35.691290  7.138330
14223  0  1 44.257288 32.836001  7.138334
14243  0  1 44.257309 35.691285  7.138316
6643   0  1 45.684967 34.263648  5.710665
6644   0  1 45.684959 34.263636  8.565975
7043   0  1 48.540294 34.263649  5.710654
7044   0  1 48.540284 34.263642  8.565961
14623  0  1 47.112618 32.836003  7.138321
14643  0  1 47.112635 35.691285  7.138305
7443   0  1 51.395616 34.263653  5.710638
7444   0  1 51.395604 34.263650  8.565945
15023  0  1 49.967943 32.836009  7.138306
15043  0  1 49.967956 35.691290  7.138292
15423  0  1 52.823262 32.836015  7.138286
15443  0  1 52.823271 35.691296  7.138275
244    0  1 57.106221 34.263665  8.565896
7843   0  1 54.250931 34.263657  5.710616
7844   0  1 54.250916 34.263658  8.565924
15823  0  1 55.678574 32.836020  7.138259
15843  0  1 55.678579 35.691302  7.138251
4263   0  1 28.553132 37.119005  5.710673
4264   0  1 28.553123 37.119023  8.566035
4283   0  1 28.553143 39.974313  5.710646
4663   0  1 31.408423 37.118995  5.710680
4664   0  1 31.408416 37.119005  8.566038
4683   0  1 31.408446 39.974304  5.710653
4684   0  1 31.408452 39.974327  8.565982
12263  0  1 29.980784 38.546662  7.138340
4284   0  1 28.553141 39.974343  8.565978
5063   0  1 34.263719 37.118980  5.710680
5064   0  1 34.263714 37.118980  8.566027
5083   0  1 34.263752 39.974290  5.710654
5084   0  1 34.263763 39.974306  8.565973
12663  0  1 32.836084 38.546645  7.138340
13063  0  1 35.691389 38.546625  7.138332
5463   0  1 37.119025 37.118964  5.710675
5464   0  1 37.119023 37.118956  8.566006
5483   0  1 37.119061 39.974273  5.710650
5484   0  1 37.119076 39.974282  8.565956
5863   0  1 39.974340 37.118950  5.710667
5864   0  1 39.974341 37.118938  8.565982
5883   0  1 39.974377 39.974258  5.710643
5884   0  1 39.974392 39.974260  8.565937
13463  0  1 38.546701 38.546606  7.138318
6263   0  1 42.829663 37.118940  5.710658
6264   0  1 42.829664 37.118928  8.565963
6283   0  1 42.829696 39.974245  5.710637
6284   0  1 42.829707 39.974245  8.565924
13863  0  1 41.402019 38.546591  7.138303
14263  0  1 44.257340 38.546583  7.138292
6663   0  1 45.684988 37.118935  5.710650
6664   0  1 45.684986 37.118926  8.565950
6683   0  1 45.685015 39.974237  5.710630
6684   0  1 45.685020 39.974236  8.565917
7063   0  1 48.540310 37.118935  5.710640
7064   0  1 48.540304 37.118930  8.565940
7083   0  1 48.540330 39.974233  5.710623
7084   0  1 48.540329 39.974233  8.565913
14663  0  1 47.112659 38.546580  7.138283
7463   0  1 51.395627 37.118937  5.710626
7464   0  1 51.395617 37.118936  8.565928
7483   0  1 51.395640 39.974232  5.710612
7484   0  1 51.395632 39.974234  8.565906
15063  0  1 49.967973 38.546581  7.138274
15463  0  1 52.823281 38.546585  7.138260
284    0  1 57.106223 39.974247  8.565869
264    0  1 57.106223 37.118952  8.565884
7863   0  1 54.250937 37.118941  5.710606
7864   0  1 54.250923 37.118944  8.565910
7883   0  1 54.250944 39.974233  5.710594
7884   0  1 54.250930 39.974239  8.565892
15863  0  1 55.678583 38.546590  7.138238
12283  0  1 29.980805 41.401982  7.138291
4303   0  1 28.553151 42.829632  5.710606
4304   0  1 28.553155 42.829683  8.565898
4703   0  1 31.408467 42.829625  5.710614
4704   0  1 31.408482 42.829670  8.565903
12303  0  1 29.980820 44.257319  7.138227
12683  0  1 32.836118 41.401968  7.138292
13083  0  1 35.691432 41.401951  7.138287
5103   0  1 34.263784 42.829614  5.710617
5104   0  1 34.263807 42.829653  8.565899
12703  0  1 32.836147 44.257309  7.138232
13103  0  1 35.691471 44.257294  7.138231
5503   0  1 37.119100 42.829599  5.710616
5504   0  1 37.119129 42.829632  8.565890
13483  0  1 38.546747 41.401932  7.138277
5903   0  1 39.974417 42.829583  5.710613
5904   0  1 39.974446 42.829608  8.565881
13503  0  1 38.546791 44.257276  7.138228
13883  0  1 41.402063 41.401914  7.138267
14283  0  1 44.257377 41.401900  7.138261
6303   0  1 42.829733 42.829568  5.710610
6304   0  1 42.829756 42.829584  8.565877
13903  0  1 41.402107 44.257255  7.138226
14303  0  1 44.257416 44.257235  7.138226
14683  0  1 47.112687 41.401890  7.138257
6703   0  1 45.685046 42.829555  5.710607
6704   0  1 45.685059 42.829565  8.565879
7103   0  1 48.540353 42.829545  5.710603
7104   0  1 48.540357 42.829553  8.565882
14703  0  1 47.112718 44.257218  7.138229
15083  0  1 49.967992 41.401886  7.138252
15483  0  1 52.823291 41.401886  7.138242
7503   0  1 51.395654 42.829539  5.710595
7504   0  1 51.395649 42.829547  8.565881
15103  0  1 49.968013 44.257206  7.138229
15503  0  1 52.823302 44.257200  7.138222
304    0  1 57.106222 42.829554  8.565850
15883  0  1 55.678586 41.401890  7.138223
7903   0  1 54.250949 42.829538  5.710580
7904   0  1 54.250937 42.829547  8.565871
15903  0  1 55.678587 44.257201  7.138206
4323   0  1 28.553157 45.684965  5.710559
4324   0  1 28.553163 45.685039  8.565810
4343   0  1 28.553161 48.540305  5.710517
4344   0  1 28.553167 48.540392  8.565742
4723   0  1 31.408485 45.684960  5.710569
4724   0  1 31.408504 45.685029  8.565818
4743   0  1 31.408498 48.540302  5.710528
4744   0  1 31.408516 48.540385  8.565753
12323  0  1 29.980831 47.112667  7.138164
5123   0  1 34.263811 45.684952  5.710575
5124   0  1 34.263840 45.685015  8.565821
5143   0  1 34.263831 48.540296  5.710537
5144   0  1 34.263860 48.540372  8.565762
12723  0  1 32.836168 47.112659  7.138172
13123  0  1 35.691500 47.112647  7.138178
5523   0  1 37.119135 45.684939  5.710578
5524   0  1 37.119171 45.684995  8.565821
5543   0  1 37.119161 48.540285  5.710545
5544   0  1 37.119196 48.540354  8.565770
5923   0  1 39.974455 45.684924  5.710580
5924   0  1 39.974492 45.684970  8.565823
5943   0  1 39.974484 48.540270  5.710551
5944   0  1 39.974521 48.540329  8.565781
13523  0  1 38.546826 47.112629  7.138182
6323   0  1 42.829769 45.684906  5.710582
6324   0  1 42.829801 45.684940  8.565830
6343   0  1 42.829798 48.540251  5.710558
6344   0  1 42.829831 48.540297  8.565795
13923  0  1 41.402144 47.112607  7.138187
14323  0  1 44.257450 47.112582  7.138195
6723   0  1 45.685077 45.684888  5.710583
6724   0  1 45.685097 45.684911  8.565841
6743   0  1 45.685102 48.540230  5.710563
6744   0  1 45.685125 48.540264  8.565811
7123   0  1 48.540376 45.684872  5.710583
7124   0  1 48.540384 45.684888  8.565851
7143   0  1 48.540394 48.540210  5.710566
7144   0  1 48.540405 48.540233  8.565826
14723  0  1 47.112745 47.112559  7.138202
7523   0  1 51.395667 45.684861  5.710578
7524   0  1 51.395665 45.684874  8.565855
7543   0  1 51.395678 48.540195  5.710564
7544   0  1 51.395677 48.540212  8.565833
15123  0  1 49.968031 47.112540  7.138207
15523  0  1 52.823310 47.112528  7.138203
344    0  1 57.106212 48.540203  8.565812
343    0  1 57.106230 48.540184  5.710535
324    0  1 57.106218 45.684873  8.565830
7923   0  1 54.250954 45.684856  5.710566
7924   0  1 54.250942 45.684869  8.565849
7943   0  1 54.250955 48.540185  5.710553
7944   0  1 54.250945 48.540201  8.565829
15923  0  1 55.678586 47.112526  7.138189
4363   0  1 28.553164 51.395641  5.710491
4364   0  1 28.553169 51.395720  8.565712
4763   0  1 31.408506 51.395640  5.710503
4764   0  1 31.408520 51.395716  8.565724
12343  0  1 29.980838 49.968010  7.138120
12363  0  1 29.980841 52.823335  7.138104
5163   0  1 34.263844 51.395635  5.710515
5164   0  1 34.263867 51.395706  8.565737
12743  0  1 32.836180 49.968004  7.138131
12763  0  1 32.836186 52.823331  7.138117
13143  0  1 35.691518 49.967994  7.138141
13163  0  1 35.691525 52.823324  7.138130
5563   0  1 37.119177 51.395627  5.710525
5564   0  1 37.119205 51.395691  8.565750
5963   0  1 39.974502 51.395614  5.710535
5964   0  1 39.974532 51.395670  8.565764
13543  0  1 38.546848 49.967978  7.138151
13563  0  1 38.546856 52.823312  7.138143
6363   0  1 42.829816 51.395596  5.710545
6364   0  1 42.829843 51.395642  8.565781
13943  0  1 41.402167 49.967957  7.138162
13963  0  1 41.402176 52.823295  7.138155
14343  0  1 44.257472 49.967931  7.138173
14363  0  1 44.257481 52.823273  7.138167
6763   0  1 45.685117 51.395575  5.710552
6764   0  1 45.685137 51.395610  8.565798
7163   0  1 48.540406 51.395554  5.710556
7164   0  1 48.540416 51.395579  8.565812
14743  0  1 47.112764 49.967905  7.138184
14763  0  1 47.112771 52.823249  7.138177
7563   0  1 51.395683 51.395536  5.710554
7564   0  1 51.395683 51.395555  8.565819
15143  0  1 49.968043 49.967882  7.138190
15163  0  1 49.968047 52.823226  7.138182
15543  0  1 52.823315 49.967866  7.138188
15563  0  1 52.823314 52.823208  7.138179
364    0  1 57.106204 51.395540  8.565798
363    0  1 57.106222 51.395521  5.710527
7963   0  1 54.250953 51.395524  5.710544
7964   0  1 54.250944 51.395541  8.565814
15943  0  1 55.678583 49.967860  7.138176
15963  0  1 55.678576 52.823200  7.138167
4383   0  1 28.553166 54.250962  5.710486
4384   0  1 28.553169 54.251019  8.565716
4783   0  1 31.408510 54.250963  5.710499
4784   0  1 31.408520 54.251017  8.565730
12383  0  1 29.980842 55.678637  7.138113
5183   0  1 34.263850 54.250961  5.710512
5184   0  1 34.263865 54.251013  8.565744
12783  0  1 32.836186 55.678638  7.138127
13183  0  1 35.691525 55.678635  7.138141
5583   0  1 37.119184 54.250955  5.710524
5584   0  1 37.119203 54.251003  8.565758
5983   0  1 39.974509 54.250946  5.710535
5984   0  1 39.974529 54.250989  8.565772
13583  0  1 38.546854 55.678629  7.138154
6383   0  1 42.829822 54.250933  5.710545
6384   0  1 42.829840 54.250969  8.565787
13983  0  1 41.402173 55.678618  7.138166
14383  0  1 44.257477 55.678604  7.138176
6783   0  1 45.685122 54.250916  5.710552
6784   0  1 45.685135 54.250945  8.565801
7183   0  1 48.540407 54.250897  5.710555
7184   0  1 48.540414 54.250920  8.565811
14783  0  1 47.112766 55.678586  7.138183
7203   0  1 51.395673 57.106222  5.710556
7583   0  1 51.395681 54.250880  5.710551
7584   0  1 51.395679 54.250897  8.565814
15183  0  1 49.968042 55.678567  7.138184
15583  0  1 52.823307 55.678551  7.138178
4      0  1 57.106185 57.106213  8.565789
3      0  1 57.106202 57.106202  5.710525
384    0  1 57.106195 54.250878  8.565791
383    0  1 57.106212 54.250862  5.710523
7604   0  1 54.250927 57.106221  8.565808
7603   0  1 54.250939 57.106210  5.710543
7983   0  1 54.250948 54.250867  5.710541
7984   0  1 54.250938 54.250882  8.565807
15983  0  1 55.678568 55.678541  7.138164
4625   0  1 31.408316 31.408394 11.421461
12204  0  1 29.980694 29.980749  9.993757
12205  0  1 29.980642 29.980742 12.849153
5025   0  1 34.263613 31.408370 11.421436
12604  0  1 32.835977 29.980743  9.993751
12605  0  1 32.835928 29.980728 12.849135
13004  0  1 35.691282 29.980730  9.993733
13005  0  1 35.691246 29.980702 12.849099
5425   0  1 37.118933 31.408347 11.421400
5825   0  1 39.974265 31.408333 11.421365
13404  0  1 38.546602 29.980717  9.993711
13405  0  1 38.546579 29.980683 12.849062
6225   0  1 42.829601 31.408334 11.421336
13804  0  1 41.401932 29.980710  9.993689
13805  0  1 41.401916 29.980682 12.849027
14204  0  1 44.257265 29.980712  9.993668
14205  0  1 44.257259 29.980694 12.848993
6625   0  1 45.684937 31.408345 11.421311
7025   0  1 48.540268 31.408359 11.421290
14604  0  1 47.112598 29.980720  9.993648
14605  0  1 47.112598 29.980712 12.848965
7425   0  1 51.395591 31.408371 11.421272
15004  0  1 49.967926 29.980729  9.993627
15005  0  1 49.967927 29.980727 12.848944
15404  0  1 52.823246 29.980737  9.993605
15405  0  1 52.823245 29.980737 12.848925
226    0  1 57.106208 31.408389 14.276547
225    0  1 57.106206 31.408386 11.421220
7825   0  1 54.250903 31.408380 11.421250
15804  0  1 55.678555 29.980743  9.993577
15805  0  1 55.678553 29.980743 12.848899
4645   0  1 31.408356 34.263700 11.421454
12224  0  1 29.980712 32.836057  9.993768
12225  0  1 29.980675 32.836061 12.849178
12244  0  1 29.980747 35.691367  9.993746
12245  0  1 29.980737 35.691386 12.849134
5045   0  1 34.263652 34.263663 11.421423
12624  0  1 32.835994 32.836036  9.993758
12625  0  1 32.835957 32.836021 12.849148
12644  0  1 32.836037 35.691338  9.993735
12645  0  1 32.836031 35.691339 12.849104
13024  0  1 35.691298 32.836011  9.993733
13025  0  1 35.691273 32.835980 12.849095
13044  0  1 35.691341 35.691308  9.993708
13045  0  1 35.691344 35.691291 12.849045
5445   0  1 37.118970 34.263632 11.421378
5845   0  1 39.974300 34.263615 11.421337
13424  0  1 38.546619 32.835993  9.993702
13425  0  1 38.546608 32.835956 12.849042
13444  0  1 38.546659 35.691285  9.993674
13445  0  1 38.546670 35.691261 12.848988
6245   0  1 42.829631 34.263615 11.421307
13824  0  1 41.401949 32.835984  9.993674
13825  0  1 41.401945 32.835955 12.849000
13844  0  1 41.401984 35.691273  9.993644
13845  0  1 41.401997 35.691253 12.848949
14224  0  1 44.257281 32.835985  9.993652
14225  0  1 44.257282 32.835969 12.848969
14244  0  1 44.257310 35.691272  9.993624
14245  0  1 44.257321 35.691263 12.848927
6645   0  1 45.684960 34.263625 11.421286
7045   0  1 48.540284 34.263639 11.421272
14624  0  1 47.112612 32.835994  9.993634
14625  0  1 47.112614 32.835989 12.848947
14644  0  1 47.112634 35.691278  9.993610
14645  0  1 47.112640 35.691278 12.848917
7445   0  1 51.395601 34.263652 11.421259
15024  0  1 49.967937 32.836005  9.993617
15025  0  1 49.967937 32.836006 12.848933
15044  0  1 49.967951 35.691288  9.993599
15045  0  1 49.967953 35.691292 12.848911
15424  0  1 52.823253 32.836015  9.993598
15425  0  1 52.823252 32.836018 12.848918
15444  0  1 52.823262 35.691298  9.993584
15445  0  1 52.823261 35.691304 12.848901
246    0  1 57.106212 34.263678 14.276540
245    0  1 57.106210 34.263671 11.421213
7845   0  1 54.250910 34.263662 11.421241
15824  0  1 55.678561 32.836023  9.993573
15825  0  1 55.678558 32.836027 12.848895
15844  0  1 55.678566 35.691307  9.993562
15845  0  1 55.678563 35.691315 12.848882
4265   0  1 28.553117 37.119053 11.421401
4285   0  1 28.553145 39.974401 11.421290
4665   0  1 31.408416 37.119023 11.421397
4685   0  1 31.408473 39.974377 11.421288
12264  0  1 29.980785 38.546689  9.993686
12265  0  1 29.980798 38.546740 12.849014
4286   0  1 28.553159 39.974522 14.276539
4686   0  1 31.408527 39.974490 14.276528
5065   0  1 34.263721 37.118985 11.421367
5085   0  1 34.263797 39.974347 11.421266
12664  0  1 32.836091 38.546663  9.993676
12665  0  1 32.836122 38.546703 12.848989
13064  0  1 35.691402 38.546633  9.993652
13065  0  1 35.691445 38.546659 12.848941
5086   0  1 34.263883 39.974447 14.276488
5465   0  1 37.119036 37.118950 11.421323
5485   0  1 37.119118 39.974312 11.421234
5486   0  1 37.119216 39.974389 14.276447
5865   0  1 39.974357 37.118927 11.421285
5885   0  1 39.974432 39.974279 11.421208
13464  0  1 38.546717 38.546606  9.993622
13465  0  1 38.546762 38.546617 12.848896
5886   0  1 39.974508 39.974325 14.276440
6265   0  1 42.829678 37.118919 11.421261
6285   0  1 42.829739 39.974256 11.421198
13864  0  1 41.402035 38.546588  9.993598
13865  0  1 41.402071 38.546593 12.848873
14264  0  1 44.257351 38.546579  9.993584
14265  0  1 44.257375 38.546586 12.848869
6266   0  1 42.829703 37.118918 14.276547
6286   0  1 42.829786 39.974288 14.276456
6665   0  1 45.684995 37.118923 11.421249
6685   0  1 45.685039 39.974245 11.421201
7065   0  1 48.540307 37.118931 11.421243
7085   0  1 48.540336 39.974242 11.421206
14664  0  1 47.112663 38.546579  9.993578
14665  0  1 47.112675 38.546588 12.848874
6666   0  1 45.685009 37.118930 14.276546
6686   0  1 45.685064 39.974269 14.276482
7066   0  1 48.540312 37.118941 14.276551
7086   0  1 48.540346 39.974261 14.276505
7465   0  1 51.395614 37.118941 11.421237
7485   0  1 51.395631 39.974244 11.421208
15064  0  1 49.967971 38.546583  9.993573
15065  0  1 49.967974 38.546593 12.848879
15464  0  1 52.823273 38.546590  9.993564
15465  0  1 52.823272 38.546600 12.848876
7466   0  1 51.395615 37.118952 14.276552
7486   0  1 51.395634 39.974260 14.276517
266    0  1 57.106212 37.118972 14.276522
285    0  1 57.106212 39.974260 11.421178
265    0  1 57.106212 37.118961 11.421199
286    0  1 57.106211 39.974276 14.276496
7865   0  1 54.250917 37.118951 11.421223
7885   0  1 54.250924 39.974250 11.421200
15864  0  1 55.678570 38.546598  9.993545
15865  0  1 55.678566 38.546610 12.848861
7866   0  1 54.250917 37.118962 14.276543
7886   0  1 54.250924 39.974265 14.276514
12284  0  1 29.980816 41.402035  9.993589
12285  0  1 29.980843 41.402145 12.848831
4305   0  1 28.553163 42.829785 11.421142
4705   0  1 31.408515 42.829767 11.421145
12304  0  1 29.980837 44.257405  9.993475
12305  0  1 29.980868 44.257574 12.848648
4306   0  1 28.553182 42.829995 14.276283
4706   0  1 31.408583 42.829969 14.276286
12684  0  1 32.836142 41.402015  9.993584
12685  0  1 32.836198 41.402117 12.848818
13084  0  1 35.691465 41.401989  9.993568
13085  0  1 35.691541 41.402079 12.848793
5105   0  1 34.263860 42.829742 11.421136
12704  0  1 32.836180 44.257389  9.993476
12705  0  1 32.836244 44.257550 12.848650
13104  0  1 35.691516 44.257367  9.993472
13105  0  1 35.691604 44.257513 12.848650
5106   0  1 34.263967 42.829930 14.276278
5505   0  1 37.119193 42.829708 11.421122
5506   0  1 37.119319 42.829868 14.276277
13484  0  1 38.546784 41.401961  9.993549
13485  0  1 38.546864 41.402031 12.848774
5905   0  1 39.974508 42.829667 11.421117
13504  0  1 38.546842 44.257338  9.993467
13505  0  1 38.546938 44.257459 12.848658
5906   0  1 39.974620 42.829784 14.276305
13884  0  1 41.402096 41.401933  9.993536
13885  0  1 41.402158 41.401979 12.848779
14284  0  1 44.257400 41.401912  9.993534
14285  0  1 44.257439 41.401943 12.848799
6305   0  1 42.829804 42.829625 11.421127
13904  0  1 41.402154 44.257302  9.993470
13905  0  1 41.402235 44.257392 12.848686
14304  0  1 44.257450 44.257268  9.993482
14305  0  1 44.257503 44.257326 12.848729
6306   0  1 42.829875 42.829698 14.276360
14684  0  1 47.112699 41.401900  9.993539
14685  0  1 47.112719 41.401922 12.848822
6705   0  1 45.685089 42.829593 11.421146
7105   0  1 48.540370 42.829572 11.421165
14704  0  1 47.112736 44.257240  9.993498
14705  0  1 47.112764 44.257277 12.848770
6706   0  1 45.685126 42.829638 14.276414
7106   0  1 48.540385 42.829602 14.276455
15084  0  1 49.967994 41.401894  9.993542
15085  0  1 49.968001 41.401911 12.848839
15484  0  1 52.823285 41.401895  9.993539
15485  0  1 52.823285 41.401910 12.848844
7505   0  1 51.395651 42.829562 11.421175
15104  0  1 49.968018 44.257222  9.993509
15105  0  1 49.968029 44.257247 12.848798
15504  0  1 52.823298 44.257214  9.993511
15505  0  1 52.823299 44.257234 12.848810
7506   0  1 51.395656 42.829584 14.276477
306    0  1 57.106206 42.829590 14.276465
305    0  1 57.106209 42.829571 11.421152
15884  0  1 55.678573 41.401901  9.993523
15885  0  1 55.678569 41.401916 12.848834
7905   0  1 54.250931 42.829562 11.421171
15904  0  1 55.678575 44.257217  9.993499
15905  0  1 55.678570 44.257235 12.848803
7906   0  1 54.250932 42.829580 14.276481
4325   0  1 28.553173 45.685178 11.421007
4345   0  1 28.553176 48.540532 11.420935
4725   0  1 31.408539 45.685163 11.421016
4745   0  1 31.408546 48.540519 11.420948
12324  0  1 29.980848 47.112776  9.993379
12325  0  1 29.980876 47.112954 12.848545
4326   0  1 28.553191 45.685413 14.276128
4346   0  1 28.553188 48.540711 14.276115
4726   0  1 31.408600 45.685390 14.276142
4746   0  1 31.408588 48.540694 14.276131
5125   0  1 34.263897 45.685140 11.421020
5145   0  1 34.263908 48.540499 11.420960
12724  0  1 32.836201 47.112762  9.993387
12725  0  1 32.836257 47.112932 12.848557
13124  0  1 35.691546 47.112741  9.993393
13125  0  1 35.691623 47.112898 12.848571
5126   0  1 34.263993 45.685352 14.276155
5146   0  1 34.263974 48.540664 14.276149
5525   0  1 37.119240 45.685107 11.421025
5545   0  1 37.119256 48.540469 11.420975
5526   0  1 37.119356 45.685293 14.276179
5546   0  1 37.119338 48.540618 14.276176
5925   0  1 39.974563 45.685061 11.421038
5945   0  1 39.974584 48.540426 11.420997
13524  0  1 38.546879 47.112712  9.993402
13525  0  1 38.546965 47.112847 12.848595
5926   0  1 39.974673 45.685209 14.276223
5946   0  1 39.974667 48.540552 14.276217
6325   0  1 42.829859 45.685007 11.421064
6345   0  1 42.829886 48.540373 11.421028
13924  0  1 41.402194 47.112674  9.993417
13925  0  1 41.402273 47.112780 12.848632
14324  0  1 44.257489 47.112631  9.993438
14325  0  1 44.257546 47.112705 12.848682
6326   0  1 42.829940 45.685109 14.276290
6346   0  1 42.829954 48.540468 14.276272
6725   0  1 45.685134 45.684956 11.421096
6745   0  1 45.685163 48.540317 11.421063
7125   0  1 48.540402 45.684918 11.421125
7145   0  1 48.540426 48.540269 11.421095
14724  0  1 47.112768 47.112592  9.993462
14725  0  1 47.112801 47.112639 12.848729
6726   0  1 45.685180 45.685019 14.276358
6746   0  1 45.685208 48.540382 14.276331
7126   0  1 48.540424 45.684957 14.276410
7146   0  1 48.540450 48.540311 14.276380
7525   0  1 51.395670 45.684895 11.421142
7545   0  1 51.395684 48.540236 11.421114
15124  0  1 49.968040 47.112562  9.993479
15125  0  1 49.968054 47.112593 12.848763
15524  0  1 52.823308 47.112546  9.993485
15525  0  1 52.823311 47.112569 12.848778
7526   0  1 51.395678 45.684921 14.276439
7546   0  1 51.395694 48.540264 14.276409
346    0  1 57.106192 48.540248 14.276406
326    0  1 57.106200 45.684916 14.276434
345    0  1 57.106198 48.540226 11.421102
325    0  1 57.106205 45.684894 11.421126
7925   0  1 54.250938 45.684887 11.421142
7945   0  1 54.250941 48.540222 11.421117
15924  0  1 55.678575 47.112544  9.993476
15925  0  1 55.678569 47.112565 12.848774
7926   0  1 54.250939 45.684908 14.276447
7946   0  1 54.250943 48.540244 14.276418
4365   0  1 28.553174 51.395827 11.420932
4765   0  1 31.408541 51.395819 11.420945
12344  0  1 29.980852 49.968115  9.993331
12345  0  1 29.980871 49.968252 12.848537
12364  0  1 29.980850 52.823413  9.993333
12365  0  1 29.980861 52.823496 12.848582
4366   0  1 28.553181 51.395933 14.276176
4766   0  1 31.408564 51.395922 14.276190
5165   0  1 34.263900 51.395804 11.420960
12744  0  1 32.836208 49.968104  9.993344
12745  0  1 32.836247 49.968236 12.848552
12764  0  1 32.836205 52.823406  9.993346
12765  0  1 32.836227 52.823487 12.848595
13144  0  1 35.691556 49.968086  9.993356
13145  0  1 35.691610 49.968209 12.848570
13164  0  1 35.691551 52.823394  9.993361
13165  0  1 35.691583 52.823471 12.848611
5166   0  1 34.263938 51.395905 14.276206
5565   0  1 37.119247 51.395781 11.420977
5566   0  1 37.119296 51.395876 14.276227
5965   0  1 39.974577 51.395749 11.420998
13544  0  1 38.546892 49.968060  9.993372
13545  0  1 38.546954 49.968170 12.848594
13564  0  1 38.546887 52.823375  9.993377
13565  0  1 38.546925 52.823447 12.848630
5966   0  1 39.974630 51.395833 14.276255
6365   0  1 42.829885 51.395707 11.421025
13944  0  1 41.402210 49.968025  9.993391
13945  0  1 41.402270 49.968116 12.848627
13964  0  1 41.402207 52.823350  9.993395
13965  0  1 41.402245 52.823412 12.848653
14344  0  1 44.257508 49.967984  9.993415
14345  0  1 44.257556 49.968053 12.848668
14364  0  1 44.257507 52.823317  9.993415
14365  0  1 44.257541 52.823368 12.848681
6366   0  1 42.829933 51.395777 14.276292
7166   0  1 48.540457 51.395650 14.276368
6766   0  1 45.685205 51.395712 14.276332
6765   0  1 45.685169 51.395659 11.421054
7165   0  1 48.540434 51.395614 11.421080
14744  0  1 47.112787 49.967942  9.993439
14745  0  1 47.112818 49.967990 12.848709
14764  0  1 47.112789 52.823282  9.993434
14765  0  1 47.112813 52.823321 12.848709
7566   0  1 51.395700 51.395605 14.276391
15565  0  1 52.823315 52.823248 12.848740
15564  0  1 52.823312 52.823227  9.993452
15545  0  1 52.823317 49.967909 12.848754
15544  0  1 52.823313 49.967886  9.993464
15165  0  1 49.968069 52.823278 12.848731
15164  0  1 49.968055 52.823250  9.993448
15145  0  1 49.968069 49.967940 12.848740
15144  0  1 49.968053 49.967908  9.993457
7565   0  1 51.395689 51.395579 11.421096
365    0  1 57.106190 51.395561 11.421084
366    0  1 57.106183 51.395582 14.276386
7966   0  1 54.250942 51.395581 14.276397
15965  0  1 55.678559 52.823237 12.848734
15964  0  1 55.678565 52.823218  9.993443
15945  0  1 55.678566 49.967900 12.848750
15944  0  1 55.678571 49.967879  9.993456
7965   0  1 54.250940 51.395561 11.421098
12385  0  1 29.980851 55.678722 12.848637
12384  0  1 29.980847 55.678683  9.993360
4785   0  1 31.408531 54.251080 11.420980
4385   0  1 28.553172 54.251083 11.420966
4786   0  1 31.408542 54.251129 14.276262
4386   0  1 28.553173 54.251133 14.276250
5186   0  1 34.263903 54.251122 14.276275
13185  0  1 35.691556 55.678715 12.848662
13184  0  1 35.691540 55.678677  9.993389
12785  0  1 32.836208 55.678720 12.848649
12784  0  1 32.836197 55.678682  9.993374
5185   0  1 34.263884 54.251072 11.420994
5986   0  1 39.974586 54.251087 14.276306
13585  0  1 38.546893 55.678705 12.848676
13584  0  1 38.546872 55.678668  9.993403
5985   0  1 39.974556 54.251040 11.421026
5586   0  1 37.119253 54.251109 14.276289
5585   0  1 37.119227 54.251060 11.421009
6386   0  1 42.829896 54.251056 14.276327
14385  0  1 44.257514 55.678664 12.848708
14384  0  1 44.257493 55.678634  9.993432
13985  0  1 41.402213 55.678688 12.848691
13984  0  1 41.402191 55.678654  9.993418
6385   0  1 42.829867 54.251014 11.421045
14785  0  1 47.112793 55.678635 12.848724
6786   0  1 45.685182 54.251016 14.276351
7186   0  1 48.540445 54.250973 14.276372
6785   0  1 45.685157 54.250981 11.421065
7185   0  1 48.540427 54.250947 11.421082
14784  0  1 47.112777 55.678610  9.993444
15184  0  1 49.968046 55.678586  9.993451
15185  0  1 49.968055 55.678605 12.848734
15584  0  1 52.823303 55.678566  9.993449
15585  0  1 52.823305 55.678581 12.848736
7586   0  1 51.395693 54.250937 14.276385
7585   0  1 51.395684 54.250917 11.421091
386    0  1 57.106173 54.250911 14.276373
385    0  1 57.106181 54.250895 11.421073
5      0  1 57.106171 57.106223 11.421070
7605   0  1 54.250921 57.106232 11.421087
7986   0  1 54.250934 54.250915 14.276386
15985  0  1 55.678549 55.678568 12.848727
15984  0  1 55.678556 55.678555  9.993437
7985   0  1 54.250933 54.250899 11.421088
4627   0  1 31.408180 31.408338 17.132317
12206  0  1 29.980564 29.980723 15.704575
12207  0  1 29.980451 29.980677 18.560016
4626   0  1 31.408258 31.408380 14.276874
13007  0  1 35.691137 29.980488 18.559886
13006  0  1 35.691206 29.980637 15.704473
5027   0  1 34.263525 31.408236 17.132205
12606  0  1 32.835866 29.980684 15.704531
12607  0  1 32.835804 29.980553 18.559937
5026   0  1 34.263570 31.408332 14.276818
5427   0  1 37.118873 31.408200 17.132123
5827   0  1 39.974232 31.408236 17.132044
13406  0  1 38.546546 29.980622 15.704423
13407  0  1 38.546494 29.980534 18.559797
5426   0  1 37.118908 31.408297 14.276756
5826   0  1 39.974250 31.408291 14.276706
6227   0  1 42.829606 31.408296 17.131971
13806  0  1 41.401902 29.980646 15.704364
13807  0  1 41.401919 29.980622 18.559668
14206  0  1 44.257264 29.980682 15.704309
14207  0  1 44.257278 29.980684 18.559620
6226   0  1 42.829597 31.408310 14.276661
6627   0  1 45.684948 31.408339 17.131941
7027   0  1 48.540273 31.408366 17.131928
14606  0  1 47.112605 29.980711 15.704281
14607  0  1 47.112608 29.980718 18.559601
6626   0  1 45.684941 31.408337 14.276627
7026   0  1 48.540272 31.408359 14.276607
7427   0  1 51.395594 31.408380 17.131915
15006  0  1 49.967931 29.980729 15.704264
15007  0  1 49.967932 29.980735 18.559586
15406  0  1 52.823249 29.980740 15.704248
15407  0  1 52.823254 29.980744 18.559570
7426   0  1 51.395592 31.408374 14.276592
15807  0  1 55.678571 29.980746 18.559551
15806  0  1 55.678560 29.980745 15.704226
7827   0  1 54.250911 31.408388 17.131900
227    0  1 57.106221 31.408392 17.131877
7826   0  1 54.250905 31.408384 14.276574
4647   0  1 31.408318 34.263682 17.132303
12226  0  1 29.980625 32.836062 15.704636
12227  0  1 29.980560 32.836042 18.560202
12246  0  1 29.980741 35.691417 15.704542
12247  0  1 29.980798 35.691475 18.559952
4646   0  1 31.408331 34.263698 14.276862
13047  0  1 35.691453 35.691172 18.559596
13046  0  1 35.691376 35.691259 15.704349
13027  0  1 35.691234 32.835765 18.559806
13026  0  1 35.691254 32.835913 15.704451
5047   0  1 34.263647 34.263562 17.132130
12626  0  1 32.835914 32.835981 15.704551
12627  0  1 32.835891 32.835870 18.559946
12646  0  1 32.836051 35.691339 15.704463
12647  0  1 32.836183 35.691353 18.559749
5046   0  1 34.263637 34.263633 14.276788
5447   0  1 37.118983 34.263510 17.132020
5847   0  1 39.974315 34.263539 17.131955
13426  0  1 38.546598 32.835895 15.704376
13427  0  1 38.546578 32.835813 18.559708
13446  0  1 38.546701 35.691226 15.704275
13447  0  1 38.546742 35.691192 18.559531
5446   0  1 37.118970 34.263589 14.276709
5846   0  1 39.974305 34.263579 14.276653
6247   0  1 42.829654 34.263593 17.131913
13826  0  1 41.401944 32.835922 15.704320
13827  0  1 41.401962 32.835910 18.559614
13846  0  1 41.402019 35.691238 15.704239
13847  0  1 41.402051 35.691253 18.559507
14226  0  1 44.257290 32.835961 15.704279
14227  0  1 44.257296 32.835972 18.559590
14246  0  1 44.257336 35.691265 15.704225
14247  0  1 44.257342 35.691291 18.559525
6246   0  1 42.829638 34.263596 14.276616
6647   0  1 45.684973 34.263632 17.131905
7047   0  1 48.540286 34.263655 17.131904
14626  0  1 47.112619 32.835992 15.704263
14627  0  1 47.112616 32.836006 18.559583
14646  0  1 47.112645 35.691288 15.704226
14647  0  1 47.112640 35.691310 18.559541
6646   0  1 45.684967 34.263621 14.276595
7046   0  1 48.540287 34.263643 14.276586
7447   0  1 51.395601 34.263669 17.131900
15026  0  1 49.967939 32.836012 15.704253
15027  0  1 49.967936 32.836024 18.559575
15046  0  1 49.967953 35.691303 15.704228
15047  0  1 49.967949 35.691322 18.559547
15426  0  1 52.823254 32.836025 15.704241
15427  0  1 52.823257 32.836034 18.559564
15446  0  1 52.823262 35.691315 15.704223
15447  0  1 52.823263 35.691329 18.559543
7446   0  1 51.395601 34.263658 14.276578
15847  0  1 55.678577 35.691337 18.559532
15846  0  1 55.678567 35.691325 15.704208
15827  0  1 55.678575 32.836040 18.559548
15826  0  1 55.678564 32.836033 15.704223
7847   0  1 54.250915 34.263679 17.131888
247    0  1 57.106223 34.263687 17.131869
7846   0  1 54.250911 34.263669 14.276564
4267   0  1 28.553139 37.119212 17.132091
4287   0  1 28.553195 39.974829 17.131600
4667   0  1 31.408520 37.119148 17.132032
4687   0  1 31.408664 39.974786 17.131579
12266  0  1 29.980841 38.546856 15.704280
12267  0  1 29.980969 38.547207 18.559296
4266   0  1 28.553119 37.119104 14.276764
4666   0  1 31.408436 37.119058 14.276746
13067  0  1 35.691868 38.546979 18.559141
13066  0  1 35.691561 38.546734 15.704149
5067   0  1 34.263888 37.119059 17.131902
5087   0  1 34.264096 39.974713 17.131530
12667  0  1 32.836476 38.547133 18.559202
12666  0  1 32.836212 38.546805 15.704225
5066   0  1 34.263758 37.119000 14.276680
5467   0  1 37.119170 37.118942 17.131829
5487   0  1 37.119431 39.974583 17.131528
5867   0  1 39.974449 37.118925 17.131810
5887   0  1 39.974624 39.974421 17.131623
13466  0  1 38.546849 38.546651 15.704118
13467  0  1 38.546981 38.546734 18.559273
5466   0  1 37.119079 37.118945 14.276607
5866   0  1 39.974394 37.118918 14.276563
6267   0  1 42.829733 37.118940 17.131821
6287   0  1 42.829842 39.974350 17.131704
13866  0  1 41.402126 38.546618 15.704124
13867  0  1 41.402188 38.546685 18.559355
14266  0  1 44.257403 38.546610 15.704147
14267  0  1 44.257419 38.546657 18.559433
6667   0  1 45.685018 37.118952 17.131846
6687   0  1 45.685082 39.974310 17.131770
7067   0  1 48.540312 37.118961 17.131864
7087   0  1 48.540349 39.974289 17.131811
14666  0  1 47.112685 38.546608 15.704173
14667  0  1 47.112684 38.546641 18.559481
7467   0  1 51.395615 37.118968 17.131870
7487   0  1 51.395634 39.974281 17.131831
15066  0  1 49.967976 38.546610 15.704190
15067  0  1 49.967973 38.546634 18.559505
15466  0  1 52.823273 38.546615 15.704193
15467  0  1 52.823274 38.546634 18.559512
15867  0  1 55.678578 38.546640 18.559505
15866  0  1 55.678569 38.546624 15.704183
7867   0  1 54.250920 37.118976 17.131865
7887   0  1 54.250927 39.974282 17.131833
287    0  1 57.106219 39.974292 17.131819
267    0  1 57.106222 37.118985 17.131849
12286  0  1 29.980905 41.402397 15.703933
12287  0  1 29.981041 41.402974 18.558746
4307   0  1 28.553222 42.830414 17.131242
4707   0  1 31.408716 42.830374 17.131255
12306  0  1 29.980927 44.257880 15.703707
12307  0  1 29.981021 44.258301 18.558709
13087  0  1 35.692041 41.402743 18.558797
13086  0  1 35.691707 41.402287 15.703898
12687  0  1 32.836592 41.402897 18.558750
12686  0  1 32.836324 41.402356 15.703916
13107  0  1 35.691981 44.258126 18.558805
13106  0  1 35.691758 44.257773 15.703741
5107   0  1 34.264172 42.830300 17.131270
12706  0  1 32.836360 44.257840 15.703719
12707  0  1 32.836535 44.258239 18.558741
5507   0  1 37.119545 42.830171 17.131324
13486  0  1 38.547017 41.402182 15.703919
13487  0  1 38.547270 41.402478 18.558968
5907   0  1 39.974787 42.829983 17.131448
13506  0  1 38.547094 44.257668 15.703792
13507  0  1 38.547295 44.257936 18.558934
13886  0  1 41.402250 41.402067 15.703990
13887  0  1 41.402363 41.402216 18.559187
14286  0  1 44.257486 41.401998 15.704058
14287  0  1 44.257522 41.402073 18.559332
6307   0  1 42.829958 42.829807 17.131592
13906  0  1 41.402350 44.257532 15.703882
13907  0  1 41.402465 44.257693 18.559116
14306  0  1 44.257565 44.257409 15.703980
14307  0  1 44.257616 44.257496 18.559264
14686  0  1 47.112737 41.401957 15.704112
14687  0  1 47.112745 41.402001 18.559414
6707   0  1 45.685159 42.829699 17.131694
7107   0  1 48.540396 42.829639 17.131756
14706  0  1 47.112792 44.257326 15.704054
14707  0  1 47.112811 44.257376 18.559358
15487  0  1 52.823290 41.401951 18.559473
15486  0  1 52.823287 41.401929 15.704157
15086  0  1 49.968006 41.401936 15.704144
15087  0  1 49.968008 41.401965 18.559456
7507   0  1 51.395660 42.829609 17.131788
15106  0  1 49.968040 44.257278 15.704099
15107  0  1 49.968047 44.257310 18.559411
15506  0  1 52.823303 44.257256 15.704119
15507  0  1 52.823308 44.257279 18.559435
15887  0  1 55.678578 41.401952 18.559472
15886  0  1 55.678571 41.401934 15.704151
15907  0  1 55.678578 44.257275 18.559437
15906  0  1 55.678571 44.257255 15.704117
7907   0  1 54.250935 42.829601 17.131797
307    0  1 57.106212 42.829610 17.131785
4327   0  1 28.553221 45.685726 17.131211
4727   0  1 31.408690 45.685693 17.131234
4747   0  1 31.408635 48.540854 17.131357
12326  0  1 29.980917 47.113186 15.703688
12327  0  1 29.980962 47.113386 18.558898
4347   0  1 28.553203 48.540874 17.131338
13127  0  1 35.691844 47.113291 18.558962
13126  0  1 35.691730 47.113102 15.703737
5127   0  1 34.264130 45.685635 17.131265
5147   0  1 34.264047 48.540821 17.131380
12726  0  1 32.836336 47.113155 15.703708
12727  0  1 32.836422 47.113352 18.558923
5527   0  1 37.119514 45.685538 17.131321
5547   0  1 37.119426 48.540765 17.131416
5927   0  1 39.974810 45.685394 17.131419
5947   0  1 39.974753 48.540677 17.131475
13526  0  1 38.547079 47.113022 15.703785
13527  0  1 38.547194 47.113186 18.559035
6327   0  1 42.830024 45.685226 17.131541
6347   0  1 42.830019 48.540561 17.131552
13926  0  1 41.402369 47.112912 15.703859
13927  0  1 41.402454 47.113033 18.559140
14326  0  1 44.257608 47.112792 15.703943
14327  0  1 44.257659 47.112871 18.559245
6727   0  1 45.685222 45.685088 17.131643
6747   0  1 45.685249 48.540444 17.131627
7127   0  1 48.540442 45.684998 17.131712
7147   0  1 48.540472 48.540351 17.131685
14726  0  1 47.112834 47.112693 15.704015
14727  0  1 47.112860 47.112742 18.559326
7527   0  1 51.395686 45.684949 17.131749
7547   0  1 51.395706 48.540291 17.131720
15126  0  1 49.968070 47.112627 15.704062
15127  0  1 49.968083 47.112659 18.559377
15526  0  1 52.823317 47.112593 15.704085
15527  0  1 52.823325 47.112616 18.559403
15927  0  1 55.678576 47.112605 18.559406
15926  0  1 55.678570 47.112586 15.704085
7927   0  1 54.250943 45.684930 17.131762
7947   0  1 54.250948 48.540265 17.131733
347    0  1 57.106194 48.540268 17.131724
327    0  1 57.106204 45.684936 17.131752
4367   0  1 28.553185 51.396000 17.131474
4767   0  1 31.408584 51.395991 17.131487
12346  0  1 29.980892 49.968383 15.703774
12347  0  1 29.980910 49.968455 18.559082
12366  0  1 29.980869 52.823555 15.703872
12367  0  1 29.980874 52.823574 18.559210
13167  0  1 35.691635 52.823564 18.559228
13166  0  1 35.691613 52.823533 15.703898
13147  0  1 35.691722 49.968416 18.559115
13146  0  1 35.691670 49.968332 15.703812
5167   0  1 34.263972 51.395976 17.131501
12767  0  1 32.836261 52.823571 18.559219
12766  0  1 32.836247 52.823547 15.703884
12746  0  1 32.836290 49.968364 15.703790
12747  0  1 32.836327 49.968442 18.559096
5567   0  1 37.119340 51.395950 17.131521
5967   0  1 39.974677 51.395904 17.131551
13546  0  1 38.547023 49.968282 15.703844
13547  0  1 38.547081 49.968367 18.559150
13566  0  1 38.546961 52.823507 15.703916
13567  0  1 38.546990 52.823545 18.559243
6367   0  1 42.829975 51.395837 17.131593
13946  0  1 41.402335 49.968211 15.703891
13947  0  1 41.402388 49.968286 18.559202
13966  0  1 41.402283 52.823468 15.703943
13967  0  1 41.402314 52.823508 18.559267
14346  0  1 44.257605 49.968123 15.703948
14347  0  1 44.257645 49.968183 18.559263
14366  0  1 44.257575 52.823415 15.703975
14367  0  1 44.257602 52.823452 18.559297
6767   0  1 45.685237 51.395758 17.131638
7167   0  1 48.540478 51.395684 17.131677
14746  0  1 47.112849 49.968038 15.704001
14747  0  1 47.112876 49.968080 18.559318
14766  0  1 47.112838 52.823357 15.704007
14767  0  1 47.112861 52.823386 18.559328
7567   0  1 51.395712 51.395628 17.131703
15146  0  1 49.968086 49.967972 15.704040
15147  0  1 49.968102 49.968000 18.559358
15166  0  1 49.968084 52.823304 15.704033
15167  0  1 49.968100 52.823325 18.559353
15546  0  1 52.823325 49.967932 15.704060
15547  0  1 52.823334 49.967952 18.559380
15566  0  1 52.823322 52.823267 15.704045
15567  0  1 52.823332 52.823283 18.559367
15967  0  1 55.678563 52.823267 18.559366
15966  0  1 55.678559 52.823253 15.704043
15947  0  1 55.678572 49.967937 18.559382
15946  0  1 55.678566 49.967921 15.704060
7967   0  1 54.250947 51.395599 17.131712
367    0  1 57.106183 51.395600 17.131703
4387   0  1 28.553172 54.251153 17.131574
4787   0  1 31.408549 54.251152 17.131585
12386  0  1 29.980853 55.678741 15.703948
12387  0  1 29.980851 55.678739 18.559290
13187  0  1 35.691578 55.678744 18.559303
13186  0  1 35.691570 55.678738 15.703968
12787  0  1 32.836219 55.678742 18.559298
12786  0  1 32.836215 55.678741 15.703959
5187   0  1 34.263917 54.251148 17.131594
5587   0  1 37.119274 54.251140 17.131604
5987   0  1 39.974611 54.251121 17.131618
13586  0  1 38.546911 55.678730 15.703979
13587  0  1 38.546924 55.678742 18.559309
6387   0  1 42.829922 54.251088 17.131639
13986  0  1 41.402234 55.678714 15.703992
13987  0  1 41.402251 55.678730 18.559318
14386  0  1 44.257535 55.678689 15.704008
14387  0  1 44.257553 55.678706 18.559331
6787   0  1 45.685205 54.251044 17.131662
7187   0  1 48.540462 54.250996 17.131683
14786  0  1 47.112811 55.678656 15.704024
14787  0  1 47.112829 55.678671 18.559345
7587   0  1 51.395704 54.250954 17.131698
15587  0  1 52.823320 55.678603 18.559362
15586  0  1 52.823311 55.678594 15.704041
15186  0  1 49.968068 55.678621 15.704037
15187  0  1 49.968081 55.678634 18.559357
15987  0  1 55.678551 55.678587 18.559358
15986  0  1 55.678548 55.678579 15.704035
7987   0  1 54.250939 54.250928 17.131701
387    0  1 57.106172 54.250924 17.131691
4628   0  1 31.408134 31.408220 19.987743
4629   0  1 31.408253 31.407550 22.843175
12208  0  1 29.980464 29.980637 21.415293
13008  0  1 35.690907 29.980204 21.415434
5028   0  1 34.263459 31.407981 19.987630
5029   0  1 34.263070 31.407511 22.843310
12608  0  1 32.835723 29.980106 21.415427
5428   0  1 37.118787 31.408047 19.987521
5429   0  1 37.118934 31.408018 22.842667
5828   0  1 39.974263 31.408212 19.987327
5829   0  1 39.974297 31.408266 22.842615
13408  0  1 38.546569 29.980488 21.415040
6228   0  1 42.829620 31.408309 19.987278
6229   0  1 42.829604 31.408353 22.842608
13808  0  1 41.401955 29.980638 21.414963
14208  0  1 44.257279 29.980704 21.414942
6628   0  1 45.684945 31.408357 19.987263
6629   0  1 45.684926 31.408385 22.842590
7028   0  1 48.540268 31.408379 19.987250
7029   0  1 48.540257 31.408396 22.842569
14608  0  1 47.112602 29.980732 21.414924
7428   0  1 51.395594 31.408390 19.987236
7429   0  1 51.395592 31.408400 22.842549
15008  0  1 49.967929 29.980744 21.414905
15408  0  1 52.823258 29.980748 21.414887
15808  0  1 55.678584 29.980746 21.414869
7828   0  1 54.250919 31.408394 19.987220
7829   0  1 54.250926 31.408399 22.842532
4249   0  1 28.553194 34.263740 22.843765
4648   0  1 31.408417 34.263612 19.987766
4649   0  1 31.409483 34.263672 22.842676
12228  0  1 29.980549 32.835860 21.416070
12248  0  1 29.981082 35.691777 21.415045
13048  0  1 35.691398 35.690844 21.414888
13028  0  1 35.691113 32.835517 21.415211
5048   0  1 34.263674 34.263311 19.987453
5049   0  1 34.262970 34.261955 22.843350
12628  0  1 32.835852 32.835365 21.415396
12648  0  1 32.836872 35.691637 21.414542
5448   0  1 37.118979 34.263399 19.987314
5449   0  1 37.119072 34.263412 22.842436
5848   0  1 39.974353 34.263543 19.987212
5849   0  1 39.974353 34.263643 22.842487
13428  0  1 38.546640 32.835804 21.414937
13448  0  1 38.546815 35.691241 21.414710
6248   0  1 42.829659 34.263623 19.987214
6249   0  1 42.829626 34.263688 22.842537
13828  0  1 41.401972 32.835949 21.414912
13848  0  1 41.402056 35.691324 21.414786
14228  0  1 44.257281 32.836007 21.414913
14248  0  1 44.257323 35.691340 21.414840
6648   0  1 45.684963 34.263659 19.987224
6649   0  1 45.684937 34.263699 22.842547
7048   0  1 48.540277 34.263676 19.987225
7049   0  1 48.540263 34.263702 22.842542
14628  0  1 47.112601 32.836031 21.414906
14648  0  1 47.112623 35.691343 21.414860
7448   0  1 51.395599 34.263685 19.987219
7449   0  1 51.395595 34.263702 22.842532
15028  0  1 49.967929 32.836041 21.414894
15048  0  1 49.967941 35.691344 21.414864
15428  0  1 52.823259 32.836045 21.414880
15448  0  1 52.823264 35.691346 21.414859
15848  0  1 55.678588 35.691349 21.414849
15828  0  1 55.678587 32.836047 21.414866
7848   0  1 54.250921 34.263690 19.987209
7849   0  1 54.250928 34.263702 22.842520
4269   0  1 28.553468 37.121664 22.840588
4268   0  1 28.553209 37.119591 19.987132
4288   0  1 28.553292 39.975676 19.986169
4289   0  1 28.553540 39.977055 22.840444
4668   0  1 31.408822 37.119514 19.986984
4669   0  1 31.409946 37.121541 22.840335
4688   0  1 31.409002 39.975601 19.986157
4689   0  1 31.409667 39.976905 22.840496
12268  0  1 29.981346 38.548481 21.413455
13068  0  1 35.692591 38.547791 21.413652
5068   0  1 34.264342 37.119350 19.986784
5069   0  1 34.265753 37.120906 22.840495
5088   0  1 34.264601 39.975431 19.986172
5089   0  1 34.265476 39.976537 22.840719
12668  0  1 32.837243 38.548315 21.413384
5468   0  1 37.119281 37.118936 19.986985
5469   0  1 37.119654 37.119470 22.841774
5488   0  1 37.119841 39.975053 19.986400
5489   0  1 37.120171 39.975538 22.841536
5868   0  1 39.974517 37.118990 19.987020
5869   0  1 39.974538 37.119168 22.842248
5888   0  1 39.974781 39.974633 19.986760
5889   0  1 39.974845 39.974819 22.842056
13468  0  1 38.547215 38.547056 21.414297
6268   0  1 42.829745 37.118996 19.987103
6269   0  1 42.829715 37.119079 22.842413
6288   0  1 42.829879 39.974446 19.986968
6289   0  1 42.829876 39.974533 22.842291
13868  0  1 41.402222 38.546813 21.414605
14268  0  1 44.257410 38.546722 21.414738
6668   0  1 45.685009 37.118991 19.987156
6669   0  1 45.684985 37.119040 22.842474
6688   0  1 45.685084 39.974362 19.987073
6689   0  1 45.685073 39.974412 22.842396
7068   0  1 48.540303 37.118989 19.987180
7069   0  1 48.540290 37.119020 22.842496
7088   0  1 48.540345 39.974322 19.987125
7089   0  1 48.540338 39.974355 22.842444
14668  0  1 47.112672 38.546681 21.414796
7468   0  1 51.395612 37.118988 19.987188
7469   0  1 51.395609 37.119010 22.842501
7488   0  1 51.395634 39.974305 19.987147
7489   0  1 51.395633 39.974328 22.842464
15068  0  1 49.967967 38.546661 21.414821
15468  0  1 52.823276 38.546654 21.414828
15868  0  1 55.678589 38.546656 21.414824
7868   0  1 54.250926 37.118991 19.987184
7869   0  1 54.250933 37.119007 22.842498
7888   0  1 54.250933 39.974301 19.987152
7889   0  1 54.250940 39.974318 22.842469
12288  0  1 29.981297 41.403847 21.413404
4308   0  1 28.553299 42.831019 19.986101
4708   0  1 31.408934 42.830953 19.986138
4709   0  1 31.409156 42.831335 22.841333
12308  0  1 29.981123 44.258608 21.413892
4309   0  1 28.553385 42.831395 22.841286
13088  0  1 35.692542 41.403393 21.413676
12688  0  1 32.837052 41.403708 21.413466
13108  0  1 35.692194 44.258415 21.414033
5108   0  1 34.264489 42.830825 19.986205
5109   0  1 34.264788 42.831207 22.841434
12708  0  1 32.836717 44.258548 21.413934
5508   0  1 37.119853 42.830577 19.986373
5509   0  1 37.120035 42.830840 22.841723
13488  0  1 38.547499 41.402804 21.414139
5908   0  1 39.974947 42.830209 19.986655
5909   0  1 39.975031 42.830363 22.842017
13508  0  1 38.547439 44.258142 21.414235
13888  0  1 41.402428 41.402360 21.414471
14288  0  1 44.257533 41.402145 21.414645
6308   0  1 42.830018 42.829919 19.986873
6309   0  1 42.830044 42.830003 22.842221
13908  0  1 41.402538 44.257818 21.414442
14308  0  1 44.257645 44.257567 21.414593
14688  0  1 47.112743 41.402043 21.414732
6708   0  1 45.685176 42.829759 19.987002
6709   0  1 45.685181 42.829807 22.842337
7108   0  1 48.540401 42.829675 19.987071
7109   0  1 48.540402 42.829707 22.842398
14708  0  1 47.112821 44.257418 21.414684
15488  0  1 52.823293 41.401972 21.414792
15088  0  1 49.968006 41.401993 21.414774
7508   0  1 51.395663 42.829634 19.987106
7509   0  1 51.395666 42.829657 22.842428
15108  0  1 49.968053 44.257338 21.414734
15508  0  1 52.823314 44.257300 21.414758
308    0  1 57.106224 42.829627 19.987110
15888  0  1 55.678589 41.401970 21.414793
15908  0  1 55.678589 44.257291 21.414762
7908   0  1 54.250942 42.829620 19.987117
7909   0  1 54.250950 42.829637 22.842439
4328   0  1 28.553255 45.685974 19.986403
4348   0  1 28.553215 48.540945 19.986664
4728   0  1 31.408787 45.685940 19.986431
4729   0  1 31.408849 45.686000 22.841835
4748   0  1 31.408671 48.540932 19.986680
4749   0  1 31.408686 48.540914 22.842096
12328  0  1 29.980995 47.113452 21.414253
4329   0  1 28.553276 45.686010 22.841811
4349   0  1 28.553216 48.540908 22.842084
13128  0  1 35.691925 47.113397 21.414309
5128   0  1 34.264275 45.685878 19.986473
5129   0  1 34.264367 45.685978 22.841868
5148   0  1 34.264106 48.540911 19.986699
5149   0  1 34.264133 48.540924 22.842107
12728  0  1 32.836485 47.113438 21.414272
5528   0  1 37.119670 45.685756 19.986559
5529   0  1 37.119754 45.685870 22.841961
5548   0  1 37.119496 48.540862 19.986736
5549   0  1 37.119531 48.540902 22.842135
5928   0  1 39.974921 45.685552 19.986704
5929   0  1 39.974985 45.685652 22.842090
5948   0  1 39.974817 48.540768 19.986801
5949   0  1 39.974854 48.540820 22.842186
13528  0  1 38.547270 47.113291 21.414387
6328   0  1 42.830086 45.685326 19.986850
6329   0  1 42.830123 45.685396 22.842215
6348   0  1 42.830067 48.540634 19.986881
6349   0  1 42.830099 48.540682 22.842248
13928  0  1 41.402510 47.113119 21.414489
14328  0  1 44.257693 47.112932 21.414587
6728   0  1 45.685251 45.685148 19.986961
6729   0  1 45.685269 45.685192 22.842308
6748   0  1 45.685280 48.540495 19.986955
6749   0  1 45.685302 48.540532 22.842307
7128   0  1 48.540455 45.685035 19.987032
7129   0  1 48.540465 45.685064 22.842367
7148   0  1 48.540490 48.540385 19.987010
7149   0  1 48.540506 48.540410 22.842352
14728  0  1 47.112879 47.112782 21.414660
7528   0  1 51.395693 45.684974 19.987070
7529   0  1 51.395701 45.684994 22.842399
7548   0  1 51.395717 48.540314 19.987045
7549   0  1 51.395728 48.540332 22.842380
15128  0  1 49.968094 47.112685 21.414706
15528  0  1 52.823334 47.112634 21.414731
349    0  1 57.106212 48.540293 22.842390
348    0  1 57.106201 48.540284 19.987053
329    0  1 57.106227 45.684965 22.842411
328    0  1 57.106213 45.684953 19.987079
15928  0  1 55.678586 47.112619 21.414736
7928   0  1 54.250951 45.684949 19.987085
7929   0  1 54.250961 45.684964 22.842413
7948   0  1 54.250956 48.540282 19.987058
7949   0  1 54.250967 48.540294 22.842392
4368   0  1 28.553187 51.396008 19.986831
4369   0  1 28.553184 51.395969 22.842227
4768   0  1 31.408596 51.396006 19.986842
4769   0  1 31.408598 51.395977 22.842236
12348  0  1 29.980918 49.968451 21.414464
12368  0  1 29.980874 52.823555 21.414584
13168  0  1 35.691646 52.823568 21.414593
13148  0  1 35.691753 49.968448 21.414485
5168   0  1 34.263994 51.396003 19.986851
5169   0  1 34.264001 51.395992 22.842239
12768  0  1 32.836265 52.823562 21.414589
12748  0  1 32.836347 49.968453 21.414472
5568   0  1 37.119370 51.395988 19.986865
5569   0  1 37.119384 51.395996 22.842248
5968   0  1 39.974711 51.395949 19.986892
5969   0  1 39.974731 51.395971 22.842265
13548  0  1 38.547117 49.968413 21.414514
13568  0  1 38.547006 52.823561 21.414602
6368   0  1 42.830007 51.395881 19.986929
6369   0  1 42.830029 51.395908 22.842292
13948  0  1 41.402423 49.968335 21.414558
13968  0  1 41.402334 52.823531 21.414620
14348  0  1 44.257675 49.968225 21.414610
14368  0  1 44.257624 52.823476 21.414643
6768   0  1 45.685264 51.395795 19.986970
6769   0  1 45.685284 51.395820 22.842323
7168   0  1 48.540497 51.395711 19.987006
7169   0  1 48.540514 51.395730 22.842350
14748  0  1 47.112897 49.968112 21.414657
14768  0  1 47.112880 52.823407 21.414668
7568   0  1 51.395725 51.395647 19.987030
7569   0  1 51.395738 51.395661 22.842370
15148  0  1 49.968116 49.968023 21.414692
15168  0  1 49.968115 52.823341 21.414689
15548  0  1 52.823345 49.967968 21.414711
15568  0  1 52.823344 52.823294 21.414701
369    0  1 57.106197 51.395620 22.842376
368    0  1 57.106188 51.395612 19.987035
15968  0  1 55.678571 52.823276 21.414702
15948  0  1 55.678581 49.967950 21.414716
7968   0  1 54.250956 51.395614 19.987040
7969   0  1 54.250967 51.395623 22.842378
4388   0  1 28.553169 54.251143 19.986932
4389   0  1 28.553165 54.251114 22.842306
4788   0  1 31.408550 54.251146 19.986940
4789   0  1 31.408548 54.251122 22.842313
12388  0  1 29.980848 55.678720 21.414652
13188  0  1 35.691581 55.678737 21.414658
12788  0  1 32.836218 55.678728 21.414657
5188   0  1 34.263924 54.251150 19.986945
5189   0  1 34.263925 54.251135 22.842316
5588   0  1 37.119286 54.251150 19.986950
5589   0  1 37.119292 54.251146 22.842317
5988   0  1 39.974628 54.251138 19.986960
5989   0  1 39.974639 54.251144 22.842321
13588  0  1 38.546932 55.678742 21.414660
6388   0  1 42.829942 54.251110 19.986975
6389   0  1 42.829957 54.251121 22.842330
13988  0  1 41.402264 55.678736 21.414665
14388  0  1 44.257569 55.678715 21.414673
6788   0  1 45.685224 54.251065 19.986994
6789   0  1 45.685241 54.251078 22.842343
7188   0  1 48.540479 54.251012 19.987013
7189   0  1 48.540495 54.251024 22.842356
14788  0  1 47.112845 55.678681 21.414683
7588   0  1 51.395717 54.250966 19.987026
7589   0  1 51.395730 54.250975 22.842366
15588  0  1 52.823331 55.678609 21.414697
15188  0  1 49.968096 55.678642 21.414692
389    0  1 57.106183 54.250938 22.842367
388    0  1 57.106175 54.250933 19.987023
15988  0  1 55.678559 55.678592 21.414695
7988   0  1 54.250947 54.250938 19.987030
7989   0  1 54.250958 54.250943 22.842370
4230   0  1 28.553431 31.403996 25.704188
4630   0  1 31.398440 31.392879 25.708082
12209  0  1 29.982636 29.981067 24.269814
12210  0  1 29.955458 29.928644 27.152563
4231   0  1 28.606313 31.460635 28.480910
4631   0  1 31.404171 31.404916 28.551207
13010  0  1 35.691775 29.980690 27.125533
13009  0  1 35.691342 29.980111 24.270321
5030   0  1 34.263969 31.407744 25.697569
12609  0  1 32.834791 29.979133 24.271704
12610  0  1 32.838200 29.981389 27.122947
5430   0  1 37.119043 31.408315 25.697910
5830   0  1 39.974240 31.408388 25.697976
13409  0  1 38.546677 29.980559 24.270301
13410  0  1 38.546645 29.980706 27.125708
6230   0  1 42.829561 31.408410 25.697945
13809  0  1 41.401948 29.980691 24.270301
13810  0  1 41.401908 29.980741 27.125648
14209  0  1 44.257260 29.980733 24.270273
14210  0  1 44.257239 29.980753 27.125590
6630   0  1 45.684903 31.408413 25.697907
7030   0  1 48.540248 31.408411 25.697877
14609  0  1 47.112589 29.980748 24.270242
14610  0  1 47.112581 29.980756 27.125547
7430   0  1 51.395591 31.408407 25.697852
15009  0  1 49.967925 29.980752 24.270216
15010  0  1 49.967924 29.980754 27.125515
15409  0  1 52.823261 29.980750 24.270194
15410  0  1 52.823266 29.980750 27.125490
15810  0  1 55.678608 29.980743 27.125470
15809  0  1 55.678597 29.980745 24.270175
7830   0  1 54.250933 31.408402 25.697832
4250   0  1 28.553810 34.270377 25.693171
4650   0  1 31.416959 34.271656 25.689341
12229  0  1 29.982140 32.834960 24.272043
12230  0  1 30.002624 32.854891 27.104052
12249  0  1 29.982479 35.695373 24.266906
12250  0  1 29.989606 35.703456 27.115949
4251   0  1 28.569544 34.288545 28.534179
4651   0  1 31.415421 34.272689 28.550044
13050  0  1 35.691755 35.692129 27.124871
13049  0  1 35.692051 35.691828 24.269150
13030  0  1 35.690945 32.836131 27.125417
13029  0  1 35.691338 32.835509 24.270161
5050   0  1 34.264228 34.263976 25.696362
12629  0  1 32.832962 32.830823 24.273433
12630  0  1 32.835553 32.835394 27.123381
12649  0  1 32.839949 35.694979 24.266311
12650  0  1 32.840296 35.696350 27.122797
5051   0  1 34.263382 34.264190 28.552689
5450   0  1 37.118955 34.263819 25.697615
5850   0  1 39.974238 34.263794 25.697827
13429  0  1 38.546657 32.835964 24.270203
13430  0  1 38.546453 32.836166 27.125590
13449  0  1 38.546797 35.691505 24.269910
13450  0  1 38.546651 35.691655 27.125330
5451   0  1 37.118719 34.263991 28.553099
6250   0  1 42.829569 34.263763 25.697865
13829  0  1 41.401925 32.836038 24.270249
13830  0  1 41.401848 32.836126 27.125585
13849  0  1 41.401994 35.691434 24.270106
13850  0  1 41.401933 35.691521 27.125451
14229  0  1 44.257246 32.836056 24.270242
14230  0  1 44.257215 32.836100 27.125556
14249  0  1 44.257284 35.691400 24.270162
14250  0  1 44.257260 35.691451 27.125483
6650   0  1 45.684910 34.263741 25.697862
7050   0  1 48.540253 34.263726 25.697850
14629  0  1 47.112582 32.836059 24.270224
14630  0  1 47.112571 32.836082 27.125528
14649  0  1 47.112604 35.691380 24.270176
14650  0  1 47.112595 35.691410 27.125486
7450   0  1 51.395595 34.263716 25.697836
15029  0  1 49.967922 32.836058 24.270204
15030  0  1 49.967920 32.836070 27.125504
15049  0  1 49.967934 35.691368 24.270175
15050  0  1 49.967933 35.691386 27.125479
15429  0  1 52.823261 32.836055 24.270187
15430  0  1 52.823266 32.836062 27.125484
15449  0  1 52.823267 35.691361 24.270168
15450  0  1 52.823272 35.691373 27.125469
15850  0  1 55.678612 35.691366 27.125457
15849  0  1 55.678600 35.691360 24.270158
15830  0  1 55.678610 32.836056 27.125466
15829  0  1 55.678599 32.836053 24.270171
7850   0  1 54.250935 34.263711 25.697822
7851   0  1 54.250944 34.263715 28.553116
4290   0  1 28.553755 39.977503 25.695888
4670   0  1 31.413268 37.125462 25.692729
4690   0  1 31.410250 39.977463 25.695932
12269  0  1 29.982287 38.550675 24.267122
12270  0  1 29.983028 38.551113 27.123063
4270   0  1 28.554663 37.125606 25.692996
4271   0  1 28.555288 37.125261 28.550333
4291   0  1 28.553632 39.976796 28.552362
4691   0  1 31.410049 39.977169 28.552511
4671   0  1 31.412348 37.124804 28.551756
13070  0  1 35.693046 38.548717 27.124727
13069  0  1 35.693055 38.548522 24.268798
5070   0  1 34.266324 37.121977 25.695874
5090   0  1 34.265658 39.976854 25.696556
12670  0  1 32.838834 38.550448 27.123990
12669  0  1 32.838889 38.550329 24.267251
5071   0  1 34.266142 37.122082 28.552472
5091   0  1 34.265635 39.976879 28.552685
5470   0  1 37.119600 37.119756 25.697223
5490   0  1 37.120236 39.975745 25.697135
5870   0  1 39.974463 37.119295 25.697620
5890   0  1 39.974844 39.974925 25.697490
13469  0  1 38.547252 38.547292 24.269634
13470  0  1 38.547221 38.547403 27.125155
5471   0  1 37.119539 37.119867 28.552875
5491   0  1 37.120260 39.975826 28.552855
5871   0  1 39.974442 37.119374 28.553037
5891   0  1 39.974859 39.974986 28.552976
6270   0  1 42.829673 37.119150 25.697750
6290   0  1 42.829863 39.974594 25.697656
13869  0  1 41.402193 38.546918 24.269946
13870  0  1 41.402171 38.546987 27.125335
14269  0  1 44.257385 38.546781 24.270067
14270  0  1 44.257374 38.546827 27.125409
6271   0  1 42.829668 37.119203 28.553098
6291   0  1 42.829873 39.974638 28.553044
6670   0  1 45.684965 37.119084 25.697795
6690   0  1 45.685064 39.974452 25.697732
7070   0  1 48.540282 37.119048 25.697809
7090   0  1 48.540336 39.974383 25.697766
14669  0  1 47.112658 38.546719 24.270116
14670  0  1 47.112655 38.546749 27.125439
6691   0  1 45.685073 39.974483 28.553077
7091   0  1 48.540344 39.974403 28.553092
7470   0  1 51.395610 37.119029 25.697809
7490   0  1 51.395637 39.974347 25.697780
15069  0  1 49.967962 38.546687 24.270135
15070  0  1 49.967965 38.546707 27.125449
15469  0  1 52.823280 38.546672 24.270140
15470  0  1 52.823287 38.546685 27.125449
7471   0  1 51.395616 37.119041 28.553114
7491   0  1 51.395646 39.974360 28.553096
15870  0  1 55.678614 38.546677 27.125444
15869  0  1 55.678601 38.546669 24.270136
7870   0  1 54.250941 37.119020 25.697804
7890   0  1 54.250950 39.974332 25.697783
7871   0  1 54.250951 37.119027 28.553105
7891   0  1 54.250961 39.974339 28.553095
12289  0  1 29.981546 41.404290 24.268654
12290  0  1 29.981568 41.404025 27.124609
4310   0  1 28.553400 42.831258 25.696957
4710   0  1 31.409235 42.831297 25.696987
12309  0  1 29.981173 44.258604 24.269394
12310  0  1 29.981147 44.258412 27.125057
4311   0  1 28.553338 42.830924 28.552784
4711   0  1 31.409174 42.831131 28.552822
13090  0  1 35.692788 41.403795 27.124930
13089  0  1 35.692753 41.403709 24.269160
12690  0  1 32.837451 41.404141 27.124729
12689  0  1 32.837472 41.404194 24.268738
13110  0  1 35.692292 44.258535 27.125129
13109  0  1 35.692278 44.258522 24.269526
5110   0  1 34.264847 42.831271 25.697101
12709  0  1 32.836812 44.258611 24.269421
12710  0  1 32.836795 44.258534 27.125079
5111   0  1 34.264835 42.831242 28.552867
5510   0  1 37.120095 42.830948 25.697289
13489  0  1 38.547585 41.402989 24.269578
13490  0  1 38.547616 41.403077 27.125136
5910   0  1 39.975067 42.830449 25.697477
13509  0  1 38.547506 44.258251 24.269686
13510  0  1 38.547535 44.258299 27.125205
5511   0  1 37.120120 42.830984 28.552922
5911   0  1 39.975095 42.830493 28.552979
13889  0  1 41.402445 41.402455 24.269851
13890  0  1 41.402457 41.402513 27.125280
14289  0  1 44.257530 41.402200 24.269992
14290  0  1 44.257535 41.402239 27.125360
6310   0  1 42.830057 42.830057 25.697612
13909  0  1 41.402577 44.257897 24.269843
13910  0  1 41.402601 44.257942 27.125282
14309  0  1 44.257661 44.257617 24.269957
14310  0  1 44.257677 44.257650 27.125342
6311   0  1 42.830077 42.830092 28.553025
14689  0  1 47.112740 41.402079 24.270063
14690  0  1 47.112744 41.402106 27.125402
6710   0  1 45.685186 42.829843 25.697690
7110   0  1 48.540406 42.829731 25.697733
14709  0  1 47.112829 44.257451 24.270027
14710  0  1 47.112840 44.257474 27.125381
6711   0  1 45.685200 42.829868 28.553056
7111   0  1 48.540418 42.829749 28.553074
15490  0  1 52.823308 41.402002 27.125430
15489  0  1 52.823299 41.401990 24.270111
15089  0  1 49.968007 41.402018 24.270097
15090  0  1 49.968013 41.402037 27.125422
7510   0  1 51.395673 42.829674 25.697754
15109  0  1 49.968059 44.257360 24.270066
15110  0  1 49.968068 44.257377 27.125403
15509  0  1 52.823323 44.257316 24.270085
15510  0  1 52.823333 44.257326 27.125415
7511   0  1 51.395684 42.829686 28.553082
15890  0  1 55.678615 41.401990 27.125430
15889  0  1 55.678602 41.401983 24.270112
15910  0  1 55.678615 44.257309 27.125418
15909  0  1 55.678601 44.257303 24.270090
7910   0  1 54.250961 42.829649 25.697762
7911   0  1 54.250974 42.829656 28.553085
4350   0  1 28.553209 48.540817 25.697544
4330   0  1 28.553266 45.685868 25.697364
4730   0  1 31.408851 45.685911 25.697380
4750   0  1 31.408680 48.540848 25.697554
12329  0  1 29.981000 47.113385 24.269725
12330  0  1 29.980985 47.113276 27.125232
4331   0  1 28.553246 45.685715 28.552931
4351   0  1 28.553204 48.540742 28.553000
4731   0  1 31.408829 45.685814 28.552953
4751   0  1 31.408672 48.540792 28.553015
13130  0  1 35.691956 47.113405 27.125255
13129  0  1 35.691954 47.113418 24.269761
5130   0  1 34.264380 45.685963 25.697403
5150   0  1 34.264133 48.540894 25.697560
12729  0  1 32.836504 47.113413 24.269735
12730  0  1 32.836493 47.113352 27.125241
5131   0  1 34.264371 45.685925 28.552969
5151   0  1 34.264129 48.540864 28.553024
5530   0  1 37.119783 45.685908 25.697458
5550   0  1 37.119542 48.540907 25.697576
5930   0  1 39.975017 45.685704 25.697536
5950   0  1 39.974874 48.540844 25.697604
13529  0  1 38.547305 47.113340 24.269816
13530  0  1 38.547322 47.113358 27.125280
5531   0  1 37.119794 45.685913 28.552986
5551   0  1 37.119547 48.540900 28.553030
5931   0  1 39.975038 45.685728 28.553008
5951   0  1 39.974886 48.540853 28.553037
6330   0  1 42.830147 45.685440 25.697613
6350   0  1 42.830120 48.540711 25.697640
13929  0  1 41.402543 47.113171 24.269888
13930  0  1 41.402564 47.113199 27.125313
14329  0  1 44.257717 47.112973 24.269958
14330  0  1 44.257735 47.112998 27.125346
6331   0  1 42.830167 45.685465 28.553031
6351   0  1 42.830136 48.540725 28.553045
6730   0  1 45.685284 45.685223 25.697673
6750   0  1 45.685320 48.540556 25.697676
7130   0  1 48.540475 45.685086 25.697712
7150   0  1 48.540520 48.540428 25.697704
14729  0  1 47.112894 47.112810 24.270011
14730  0  1 47.112909 47.112830 27.125374
6751   0  1 45.685336 48.540570 28.553055
7131   0  1 48.540489 45.685101 28.553065
7151   0  1 48.540534 48.540439 28.553064
6731   0  1 45.685300 45.685244 28.553051
7530   0  1 51.395711 45.685009 25.697735
7550   0  1 51.395740 48.540344 25.697723
15129  0  1 49.968105 47.112705 24.270046
15130  0  1 49.968117 47.112718 27.125393
15529  0  1 52.823344 47.112647 24.270065
15530  0  1 52.823356 47.112656 27.125404
7531   0  1 51.395724 45.685018 28.553074
7551   0  1 51.395754 48.540351 28.553070
350    0  1 57.106226 48.540298 25.697732
15930  0  1 55.678612 47.112633 27.125408
15929  0  1 55.678599 47.112629 24.270071
7930   0  1 54.250972 45.684973 25.697745
7950   0  1 54.250980 48.540302 25.697732
7931   0  1 54.250986 45.684978 28.553079
7951   0  1 54.250993 48.540305 28.553075
4370   0  1 28.553180 51.395915 25.697634
4770   0  1 31.408593 51.395934 25.697642
12349  0  1 29.980916 49.968395 24.269887
12350  0  1 29.980909 49.968334 27.125316
12369  0  1 29.980870 52.823517 24.269972
12370  0  1 29.980868 52.823482 27.125362
4371   0  1 28.553180 51.395875 28.553038
4771   0  1 31.408591 51.395902 28.553048
13170  0  1 35.691648 52.823540 27.125369
13169  0  1 35.691648 52.823555 24.269978
13150  0  1 35.691761 49.968423 27.125327
13149  0  1 35.691761 49.968441 24.269898
5170   0  1 34.264000 51.395966 25.697645
12770  0  1 32.836261 52.823508 27.125367
12769  0  1 32.836264 52.823535 24.269976
12749  0  1 32.836348 49.968419 24.269892
12750  0  1 32.836342 49.968378 27.125323
5171   0  1 34.263998 51.395945 28.553054
5570   0  1 37.119388 51.395989 25.697649
5970   0  1 39.974741 51.395979 25.697658
13549  0  1 38.547133 49.968429 24.269916
13550  0  1 38.547141 49.968431 27.125335
13569  0  1 38.547014 52.823562 24.269982
13570  0  1 38.547018 52.823558 27.125370
5571   0  1 37.119391 51.395980 28.553057
5971   0  1 39.974749 51.395979 28.553058
6370   0  1 42.830044 51.395923 25.697672
13949  0  1 41.402444 49.968363 24.269944
13950  0  1 41.402458 49.968376 27.125346
13969  0  1 41.402347 52.823542 24.269991
13970  0  1 41.402357 52.823546 27.125373
14349  0  1 44.257696 49.968253 24.269979
14350  0  1 44.257712 49.968269 27.125361
14369  0  1 44.257640 52.823491 24.270005
14370  0  1 44.257653 52.823499 27.125377
6371   0  1 42.830056 51.395930 28.553060
6770   0  1 45.685300 51.395835 25.697689
7170   0  1 48.540529 51.395742 25.697705
14749  0  1 47.112914 49.968134 24.270012
14750  0  1 47.112929 49.968148 27.125377
14769  0  1 47.112896 52.823421 24.270021
14770  0  1 47.112910 52.823429 27.125383
6771   0  1 45.685314 51.395843 28.553062
7171   0  1 48.540542 51.395749 28.553066
7570   0  1 51.395752 51.395669 25.697717
15149  0  1 49.968130 49.968038 24.270037
15150  0  1 49.968144 49.968048 27.125389
15169  0  1 49.968130 52.823352 24.270035
15170  0  1 49.968143 52.823358 27.125390
15549  0  1 52.823357 49.967979 24.270052
15550  0  1 52.823370 49.967985 27.125398
15569  0  1 52.823356 52.823302 24.270044
15570  0  1 52.823369 52.823305 27.125394
7571   0  1 51.395765 51.395674 28.553070
370    0  1 57.106209 51.395623 25.697723
15970  0  1 55.678595 52.823281 27.125396
15969  0  1 55.678582 52.823280 24.270046
15950  0  1 55.678606 49.967959 27.125401
15949  0  1 55.678592 49.967957 24.270056
7970   0  1 54.250979 51.395628 25.697723
371    0  1 57.106223 51.395622 28.553073
7971   0  1 54.250992 51.395630 28.553072
4390   0  1 28.553163 54.251083 25.697684
4790   0  1 31.408546 54.251095 25.697691
12389  0  1 29.980844 55.678696 24.270020
12390  0  1 29.980844 55.678676 27.125389
4391   0  1 28.553165 54.251061 28.553060
4791   0  1 31.408546 54.251076 28.553068
13190  0  1 35.691584 55.678713 27.125394
13189  0  1 35.691582 55.678725 24.270024
12790  0  1 32.836216 55.678692 27.125393
12789  0  1 32.836216 55.678709 24.270024
5190   0  1 34.263924 54.251116 25.697693
5191   0  1 34.263926 54.251102 28.553072
5590   0  1 37.119294 54.251136 25.697693
5990   0  1 39.974646 54.251143 25.697694
13589  0  1 38.546937 55.678737 24.270023
13590  0  1 38.546942 55.678730 27.125392
5591   0  1 37.119298 54.251128 28.553073
5991   0  1 39.974652 54.251139 28.553072
6390   0  1 42.829968 54.251126 25.697697
13989  0  1 41.402273 55.678737 24.270024
13990  0  1 41.402281 55.678734 27.125390
14389  0  1 44.257582 55.678719 24.270027
14390  0  1 44.257593 55.678720 27.125389
6391   0  1 42.829978 54.251126 28.553070
14789  0  1 47.112859 55.678686 24.270032
14790  0  1 47.112872 55.678687 27.125389
6790   0  1 45.685255 54.251084 25.697702
7190   0  1 48.540509 54.251030 25.697709
6791   0  1 45.685266 54.251087 28.553069
7191   0  1 48.540522 54.251032 28.553069
15590  0  1 52.823356 55.678612 27.125393
15589  0  1 52.823343 55.678611 24.270041
15189  0  1 49.968110 55.678646 24.270038
15190  0  1 49.968123 55.678647 27.125391
7590   0  1 51.395744 54.250979 25.697715
7591   0  1 51.395757 54.250980 28.553070
7990   0  1 54.250970 54.250946 25.697718
15989  0  1 55.678569 55.678593 24.270041
390    0  1 57.106194 54.250939 25.697717
15990  0  1 55.678581 55.678592 27.125393
391    0  1 57.106206 54.250937 28.553071
7991   0  1 54.250983 54.250945 28.553071
4232   0  1 28.620365 31.403772 31.486005
4632   0  1 31.397745 31.396235 31.399585
12211  0  1 29.963765 29.924691 29.947480
12212  0  1 30.008299 29.965150 32.858967
5032   0  1 34.263357 31.408466 31.409188
12611  0  1 32.837696 29.981680 29.984154
12612  0  1 32.837353 29.978547 32.836833
13011  0  1 35.691562 29.980758 29.981549
13012  0  1 35.691616 29.980084 32.836600
5031   0  1 34.262842 31.408390 28.553349
5432   0  1 37.118894 31.408510 31.408808
5831   0  1 39.974153 31.408471 28.553322
5832   0  1 39.974219 31.408454 31.408619
13411  0  1 38.546597 29.980707 29.981093
13412  0  1 38.546736 29.980536 32.836366
5431   0  1 37.118718 31.408528 28.553407
6231   0  1 42.829534 31.408443 28.553254
6232   0  1 42.829569 31.408435 31.408538
13811  0  1 41.401902 29.980733 29.980952
13812  0  1 41.401985 29.980669 32.836232
14211  0  1 44.257243 29.980746 29.980881
14212  0  1 44.257290 29.980716 32.836164
6631   0  1 45.684895 31.408428 28.553206
6632   0  1 45.684917 31.408424 31.408491
7032   0  1 48.540262 31.408415 31.408458
14611  0  1 47.112587 29.980751 29.980836
14612  0  1 47.112615 29.980735 32.836122
7031   0  1 48.540248 31.408418 28.553171
7431   0  1 51.395595 31.408410 28.553145
7432   0  1 51.395607 31.408407 31.408433
15011  0  1 49.967931 29.980750 29.980805
15012  0  1 49.967949 29.980742 32.836092
15411  0  1 52.823274 29.980747 29.980780
15412  0  1 52.823287 29.980742 32.836068
7831   0  1 54.250942 31.408403 28.553123
7832   0  1 54.250952 31.408400 31.408410
15811  0  1 55.678619 29.980740 29.980757
15812  0  1 55.678629 29.980738 32.836044
4252   0  1 28.569654 34.282638 31.425171
4652   0  1 31.416132 34.272504 31.411673
12231  0  1 29.994688 32.856582 29.983701
12232  0  1 30.002816 32.852321 32.854802
12251  0  1 29.986003 35.701080 29.981082
12252  0  1 29.989239 35.701843 32.844428
5052   0  1 34.263866 34.264441 31.408819
12631  0  1 32.833973 32.835514 29.981112
12632  0  1 32.834557 32.833487 32.834157
12651  0  1 32.839825 35.696262 29.980719
12652  0  1 32.840639 35.696309 32.838550
13031  0  1 35.690693 32.836276 29.980931
13032  0  1 35.691426 32.836237 32.836364
13051  0  1 35.691732 35.692254 29.980696
13052  0  1 35.692207 35.692402 32.836618
5452   0  1 37.118913 34.264084 31.408553
5851   0  1 39.974168 34.263891 28.553178
5852   0  1 39.974258 34.263935 31.408522
13431  0  1 38.546415 32.836246 29.980934
13432  0  1 38.546687 32.836233 32.836287
13451  0  1 38.546672 35.691747 29.980774
13452  0  1 38.546900 35.691809 32.836261
6252   0  1 42.829594 34.263838 31.408493
13831  0  1 41.401848 32.836166 29.980891
13832  0  1 41.401961 32.836156 32.836195
13851  0  1 41.401953 35.691576 29.980802
13852  0  1 41.402066 35.691603 32.836171
14231  0  1 44.257222 32.836120 29.980851
14232  0  1 44.257279 32.836114 32.836145
14251  0  1 44.257274 35.691483 29.980802
14252  0  1 44.257335 35.691496 32.836129
6251   0  1 42.829548 34.263816 28.553181
6652   0  1 45.684932 34.263782 31.408467
7052   0  1 48.540271 34.263749 31.408445
14631  0  1 47.112578 32.836093 29.980820
14632  0  1 47.112610 32.836089 32.836112
14651  0  1 47.112606 35.691430 29.980792
14652  0  1 47.112641 35.691435 32.836102
6651   0  1 45.684905 34.263771 28.553167
7051   0  1 48.540254 34.263743 28.553149
7451   0  1 51.395600 34.263726 28.553132
7452   0  1 51.395612 34.263728 31.408425
15031  0  1 49.967927 32.836075 29.980796
15032  0  1 49.967947 32.836072 32.836086
15051  0  1 49.967943 35.691397 29.980779
15052  0  1 49.967965 35.691399 32.836081
15431  0  1 52.823274 32.836063 29.980774
15432  0  1 52.823288 32.836060 32.836064
15451  0  1 52.823282 35.691378 29.980766
15452  0  1 52.823298 35.691376 32.836063
7852   0  1 54.250956 34.263714 31.408407
15831  0  1 55.678621 32.836055 29.980754
15832  0  1 55.678633 32.836051 32.836041
15851  0  1 55.678624 35.691367 29.980751
15852  0  1 55.678637 35.691362 32.836044
4292   0  1 28.553681 39.976640 31.408864
4672   0  1 31.412456 37.124670 31.409817
4692   0  1 31.410071 39.977077 31.408940
12271  0  1 29.982517 38.550478 29.980698
12272  0  1 29.983043 38.550672 32.838143
4272   0  1 28.555374 37.124627 31.410610
5072   0  1 34.266284 37.122125 31.408966
5092   0  1 34.265676 39.976860 31.408805
12671  0  1 32.838734 38.550369 29.980748
12672  0  1 32.838931 38.550342 32.837505
13071  0  1 35.693079 38.548782 29.980719
13072  0  1 35.693227 38.548798 32.836745
5472   0  1 37.119679 37.119956 31.408561
5492   0  1 37.120324 39.975859 31.408605
5872   0  1 39.974529 37.119433 31.408481
5892   0  1 39.974921 39.975029 31.408489
13471  0  1 38.547263 38.547472 29.980722
13472  0  1 38.547398 38.547524 32.836325
6272   0  1 42.829719 37.119237 31.408458
6292   0  1 42.829918 39.974671 31.408448
13871  0  1 41.402202 38.547037 29.980747
13872  0  1 41.402292 38.547074 32.836183
14271  0  1 44.257395 38.546861 29.980761
14272  0  1 44.257451 38.546882 32.836127
6671   0  1 45.684966 37.119117 28.553117
6672   0  1 45.684996 37.119137 31.408444
6692   0  1 45.685103 39.974504 31.408432
7071   0  1 48.540287 37.119069 28.553119
7072   0  1 48.540306 37.119080 31.408431
7092   0  1 48.540365 39.974416 31.408422
14671  0  1 47.112670 38.546771 29.980765
14672  0  1 47.112705 38.546782 32.836099
7472   0  1 51.395631 37.119046 31.408418
7492   0  1 51.395662 39.974366 31.408414
15071  0  1 49.967977 38.546720 29.980763
15072  0  1 49.968000 38.546725 32.836080
15471  0  1 52.823298 38.546692 29.980757
15472  0  1 52.823315 38.546691 32.836065
7872   0  1 54.250964 37.119026 31.408405
7892   0  1 54.250975 39.974339 31.408406
15871  0  1 55.678627 38.546678 29.980748
15872  0  1 55.678641 38.546672 32.836052
12291  0  1 29.981474 41.403777 29.980692
12292  0  1 29.981603 41.403856 32.836746
4312   0  1 28.553365 42.830860 31.408559
4712   0  1 31.409186 42.831082 31.408628
12311  0  1 29.981125 44.258294 29.980712
12312  0  1 29.981173 44.258330 32.836358
12691  0  1 32.837417 41.404062 29.980743
12692  0  1 32.837484 41.404052 32.836748
13091  0  1 35.692808 41.403809 29.980744
13092  0  1 35.692853 41.403791 32.836567
5112   0  1 34.264851 42.831218 31.408632
12711  0  1 32.836782 44.258475 29.980744
12712  0  1 32.836813 44.258477 32.836403
13111  0  1 35.692299 44.258525 29.980752
13112  0  1 35.692319 44.258513 32.836377
5512   0  1 37.120147 42.830988 31.408571
13491  0  1 38.547652 41.403118 29.980733
13492  0  1 38.547707 41.403128 32.836348
5912   0  1 39.975129 42.830513 31.408499
13511  0  1 38.547557 44.258315 29.980747
13512  0  1 38.547579 44.258311 32.836296
13891  0  1 41.402488 41.402551 29.980734
13892  0  1 41.402544 41.402574 32.836205
14291  0  1 44.257558 41.402267 29.980742
14292  0  1 44.257602 41.402287 32.836136
6312   0  1 42.830109 42.830114 31.408453
13911  0  1 41.402626 44.257965 29.980741
13912  0  1 41.402653 44.257972 32.836209
14311  0  1 44.257698 44.257671 29.980740
14312  0  1 44.257726 44.257682 32.836147
14691  0  1 47.112761 41.402126 29.980749
14692  0  1 47.112792 41.402138 32.836103
6712   0  1 45.685226 42.829886 31.408431
7112   0  1 48.540438 42.829761 31.408420
14711  0  1 47.112857 44.257490 29.980743
14712  0  1 47.112882 44.257499 32.836111
15091  0  1 49.968026 41.402050 29.980751
15092  0  1 49.968049 41.402055 32.836084
15491  0  1 52.823321 41.402009 29.980750
15492  0  1 52.823338 41.402009 32.836071
7512   0  1 51.395700 42.829691 31.408414
15111  0  1 49.968083 44.257387 29.980745
15112  0  1 49.968103 44.257392 32.836091
15511  0  1 52.823347 44.257332 29.980746
15512  0  1 52.823363 44.257332 32.836080
15891  0  1 55.678630 41.401991 29.980747
15892  0  1 55.678644 41.401985 32.836063
7912   0  1 54.250988 42.829656 31.408409
15911  0  1 55.678630 44.257309 29.980746
15912  0  1 55.678645 44.257303 32.836075
4332   0  1 28.553263 45.685683 31.408476
4732   0  1 31.408837 45.685787 31.408514
4752   0  1 31.408679 48.540776 31.408469
12331  0  1 29.980981 47.113216 29.980727
12332  0  1 29.981004 47.113232 32.836219
4352   0  1 28.553215 48.540724 31.408447
5132   0  1 34.264379 45.685907 31.408534
5152   0  1 34.264135 48.540852 31.408486
12731  0  1 32.836489 47.113314 29.980747
12732  0  1 32.836505 47.113316 32.836250
13131  0  1 35.691959 47.113389 29.980756
13132  0  1 35.691971 47.113384 32.836257
5532   0  1 37.119807 45.685907 31.408522
5552   0  1 37.119554 48.540893 31.408487
5932   0  1 39.975056 45.685734 31.408490
5952   0  1 39.974897 48.540852 31.408475
13531  0  1 38.547333 47.113360 29.980755
13532  0  1 38.547344 47.113354 32.836233
6332   0  1 42.830188 45.685477 31.408458
6352   0  1 42.830150 48.540730 31.408456
13931  0  1 41.402581 47.113211 29.980749
13932  0  1 41.402595 47.113210 32.836191
14331  0  1 44.257753 47.113012 29.980745
14332  0  1 44.257769 47.113015 32.836149
6732   0  1 45.685320 45.685255 31.408435
6752   0  1 45.685350 48.540576 31.408439
7132   0  1 48.540506 45.685109 31.408423
7152   0  1 48.540549 48.540444 31.408428
14731  0  1 47.112925 47.112841 29.980744
14732  0  1 47.112942 47.112846 32.836118
7532   0  1 51.395739 45.685023 31.408417
7552   0  1 51.395768 48.540353 31.408421
15131  0  1 49.968132 47.112726 29.980745
15132  0  1 49.968148 47.112729 32.836099
15531  0  1 52.823370 47.112660 29.980746
15532  0  1 52.823385 47.112659 32.836089
7932   0  1 54.251000 45.684978 31.408414
7952   0  1 54.251007 48.540304 31.408419
15931  0  1 55.678627 47.112632 29.980747
15932  0  1 55.678641 47.112627 32.836085
4372   0  1 28.553189 51.395864 31.408437
4772   0  1 31.408598 51.395892 31.408450
12351  0  1 29.980911 49.968302 29.980739
12352  0  1 29.980924 49.968308 32.836160
12371  0  1 29.980872 52.823464 29.980748
12372  0  1 29.980882 52.823467 32.836133
5172   0  1 34.264004 51.395937 31.408462
12751  0  1 32.836343 49.968355 29.980752
12752  0  1 32.836353 49.968356 32.836179
12771  0  1 32.836264 52.823494 29.980757
12772  0  1 32.836273 52.823495 32.836145
13151  0  1 35.691763 49.968410 29.980759
13152  0  1 35.691772 49.968407 32.836190
13171  0  1 35.691652 52.823530 29.980762
13172  0  1 35.691659 52.823528 32.836154
5572   0  1 37.119397 51.395974 31.408466
5972   0  1 39.974757 51.395977 31.408461
13551  0  1 38.547148 49.968427 29.980759
13552  0  1 38.547156 49.968423 32.836185
13571  0  1 38.547024 52.823553 29.980762
13572  0  1 38.547031 52.823550 32.836154
6372   0  1 42.830066 51.395930 31.408452
13951  0  1 41.402469 49.968380 29.980756
13952  0  1 41.402478 49.968377 32.836167
13971  0  1 41.402365 52.823545 29.980759
13972  0  1 41.402372 52.823542 32.836147
14351  0  1 44.257725 49.968276 29.980751
14352  0  1 44.257736 49.968275 32.836143
14371  0  1 44.257663 52.823501 29.980755
14372  0  1 44.257672 52.823498 32.836134
6772   0  1 45.685325 51.395845 31.408440
7172   0  1 48.540555 51.395751 31.408431
14751  0  1 47.112943 49.968155 29.980748
14752  0  1 47.112956 49.968155 32.836121
14771  0  1 47.112922 52.823431 29.980751
14772  0  1 47.112932 52.823429 32.836120
7572   0  1 51.395778 51.395674 31.408425
15151  0  1 49.968158 49.968053 29.980746
15152  0  1 49.968171 49.968053 32.836106
15171  0  1 49.968156 52.823359 29.980748
15172  0  1 49.968168 52.823357 32.836109
15551  0  1 52.823383 49.967987 29.980747
15552  0  1 52.823397 49.967985 32.836097
15571  0  1 52.823382 52.823305 29.980748
15572  0  1 52.823395 52.823302 32.836102
7972   0  1 54.251006 51.395628 31.408423
15951  0  1 55.678620 49.967958 29.980748
15952  0  1 55.678633 49.967953 32.836094
15971  0  1 55.678608 52.823279 29.980748
15972  0  1 55.678621 52.823274 32.836100
4392   0  1 28.553173 54.251054 31.408434
4792   0  1 31.408553 54.251070 31.408443
12391  0  1 29.980848 55.678666 29.980755
12392  0  1 29.980857 55.678667 32.836121
5192   0  1 34.263932 54.251097 31.408451
12791  0  1 32.836220 55.678683 29.980761
12792  0  1 32.836228 55.678683 32.836129
13191  0  1 35.691588 55.678706 29.980764
13192  0  1 35.691597 55.678704 32.836135
5592   0  1 37.119304 54.251123 31.408454
5992   0  1 39.974660 54.251136 31.408452
13591  0  1 38.546948 55.678725 29.980764
13592  0  1 38.546956 55.678722 32.836136
6392   0  1 42.829986 54.251124 31.408446
13991  0  1 41.402289 55.678731 29.980760
13992  0  1 41.402297 55.678728 32.836132
14391  0  1 44.257603 55.678718 29.980756
14392  0  1 44.257611 55.678714 32.836124
6792   0  1 45.685276 54.251085 31.408438
7192   0  1 48.540534 54.251031 31.408432
14791  0  1 47.112884 55.678686 29.980752
14792  0  1 47.112893 55.678682 32.836116
7592   0  1 51.395769 54.250978 31.408427
15191  0  1 49.968136 55.678646 29.980749
15192  0  1 49.968147 55.678642 32.836109
15591  0  1 52.823369 55.678609 29.980748
15592  0  1 52.823381 55.678605 32.836104
392    0  1 57.106219 54.250933 31.408426
7992   0  1 54.250995 54.250942 31.408425
15991  0  1 55.678593 55.678589 29.980748
15992  0  1 55.678606 55.678585 32.836104
4233   0  1 28.555270 31.406353 34.261566
4633   0  1 31.416674 31.408637 34.271111
4634   0  1 31.410330 31.408273 37.120419
12213  0  1 29.983941 29.978554 35.693433
4234   0  1 28.553846 31.407878 37.117293
5033   0  1 34.264823 31.408186 34.264506
5034   0  1 34.266197 31.408315 37.121169
12613  0  1 32.840641 29.979330 35.695396
13013  0  1 35.692523 29.980094 35.692244
5433   0  1 37.119305 31.408294 34.264073
5434   0  1 37.119941 31.408294 37.119728
5833   0  1 39.974422 31.408377 34.263917
5834   0  1 39.974716 31.408344 37.119331
13413  0  1 38.547081 29.980468 35.691737
6233   0  1 42.829672 31.408401 34.263831
6234   0  1 42.829826 31.408375 37.119177
13813  0  1 41.402157 29.980623 35.691559
14213  0  1 44.257382 29.980689 35.691471
6633   0  1 45.684973 31.408406 34.263782
6634   0  1 45.685058 31.408389 37.119101
7033   0  1 48.540295 31.408405 34.263749
7034   0  1 48.540343 31.408394 37.119056
14613  0  1 47.112666 29.980719 35.691421
7433   0  1 51.395627 31.408401 34.263723
7434   0  1 51.395655 31.408394 37.119024
15013  0  1 49.967979 29.980733 35.691388
15413  0  1 52.823305 29.980737 35.691362
7833   0  1 54.250965 31.408396 34.263699
7834   0  1 54.250981 31.408391 37.118997
15813  0  1 55.678641 29.980736 35.691336
4254   0  1 28.553588 34.264592 37.118653
4253   0  1 28.554673 34.268828 34.266997
4653   0  1 31.418267 34.271498 34.272201
4654   0  1 31.410355 34.265153 37.120593
12233  0  1 29.982953 32.837177 35.692394
12253  0  1 29.982843 35.694968 35.694252
5053   0  1 34.264573 34.263880 34.264050
5054   0  1 34.266156 34.264678 37.121149
12633  0  1 32.840171 32.837064 35.694977
12653  0  1 32.841020 35.695425 35.695682
13033  0  1 35.692470 32.836318 35.692185
13053  0  1 35.692650 35.692171 35.692246
5453   0  1 37.119427 34.264067 34.264063
5454   0  1 37.120017 34.264102 37.119787
5853   0  1 39.974493 34.263929 34.263912
5854   0  1 39.974772 34.263894 37.119361
13433  0  1 38.547065 32.836160 35.691704
13453  0  1 38.547236 35.691792 35.691781
6253   0  1 42.829708 34.263831 34.263824
6254   0  1 42.829860 34.263808 37.119191
13833  0  1 41.402149 32.836118 35.691540
13853  0  1 41.402248 35.691597 35.691576
14233  0  1 44.257378 32.836093 35.691461
14253  0  1 44.257433 35.691489 35.691476
6653   0  1 45.684992 34.263777 34.263777
6654   0  1 45.685078 34.263762 37.119108
7053   0  1 48.540306 34.263744 34.263746
7054   0  1 48.540356 34.263733 37.119060
14633  0  1 47.112666 32.836076 35.691416
14653  0  1 47.112697 35.691429 35.691423
7453   0  1 51.395634 34.263723 34.263722
7454   0  1 51.395663 34.263714 37.119027
15033  0  1 49.967980 32.836063 35.691384
15053  0  1 49.967998 35.691392 35.691390
15433  0  1 52.823308 32.836053 35.691359
15453  0  1 52.823318 35.691368 35.691365
7853   0  1 54.250970 34.263708 34.263700
7854   0  1 54.250987 34.263699 37.119000
15833  0  1 55.678645 32.836044 35.691334
15853  0  1 55.678650 35.691352 35.691342
4273   0  1 28.554894 37.124626 34.267624
4274   0  1 28.553607 37.121269 37.120455
4293   0  1 28.553861 39.977105 34.265241
4294   0  1 28.553616 39.976647 37.120655
4673   0  1 31.413286 37.124813 34.268381
4674   0  1 31.410222 37.121542 37.121220
4693   0  1 31.410282 39.977183 34.265423
4694   0  1 31.409738 39.976672 37.120849
12273  0  1 29.982378 38.550175 35.693977
5073   0  1 34.266655 37.122059 34.265560
5074   0  1 34.266514 37.121383 37.121482
5093   0  1 34.265771 39.976809 34.264944
5094   0  1 34.265656 39.976523 37.120821
12673  0  1 32.839039 38.550124 35.694162
13073  0  1 35.693367 38.548672 35.692742
5473   0  1 37.119990 37.120014 34.264319
5474   0  1 37.120206 37.119862 37.119910
5493   0  1 37.120419 39.975844 34.264375
5494   0  1 37.120447 39.975708 37.120060
5873   0  1 39.974713 37.119467 34.263963
5874   0  1 39.974920 37.119442 37.119447
5893   0  1 39.975022 39.975051 34.264023
5894   0  1 39.975120 39.975023 37.119545
13473  0  1 38.547581 38.547526 35.691948
6273   0  1 42.829822 37.119252 34.263839
6274   0  1 42.829953 37.119243 37.119239
6293   0  1 42.829994 39.974690 34.263868
6294   0  1 42.830083 39.974686 37.119294
13873  0  1 41.402425 38.547087 35.691639
14273  0  1 44.257534 38.546888 35.691507
6673   0  1 45.685056 37.119143 34.263782
6674   0  1 45.685135 37.119135 37.119134
6693   0  1 45.685154 39.974515 34.263796
6694   0  1 45.685217 39.974513 37.119168
7073   0  1 48.540342 37.119081 34.263749
7074   0  1 48.540390 37.119072 37.119077
7093   0  1 48.540398 39.974420 34.263759
7094   0  1 48.540440 39.974415 37.119101
14673  0  1 47.112756 38.546782 35.691441
7473   0  1 51.395654 37.119043 34.263726
7474   0  1 51.395683 37.119034 37.119041
7493   0  1 51.395684 39.974365 34.263735
7494   0  1 51.395711 39.974357 37.119061
15073  0  1 49.968032 38.546721 35.691403
15473  0  1 52.823336 38.546683 35.691378
7873   0  1 54.250979 37.119020 34.263707
7874   0  1 54.250997 37.119009 37.119014
7893   0  1 54.250991 39.974333 34.263719
7894   0  1 54.251009 39.974321 37.119035
15873  0  1 55.678655 38.546661 35.691358
12293  0  1 29.981594 41.404019 35.692640
4314   0  1 28.553438 42.831152 37.119989
4713   0  1 31.409263 42.831158 34.264437
4714   0  1 31.409187 42.831164 37.120063
12313  0  1 29.981207 44.258458 35.691996
4313   0  1 28.553462 42.831078 34.264356
12693  0  1 32.837522 41.404039 35.692704
13093  0  1 35.692875 41.403716 35.692364
5113   0  1 34.264890 42.831208 34.264395
5114   0  1 34.264851 42.831135 37.120061
12713  0  1 32.836839 44.258511 35.692045
13113  0  1 35.692329 44.258489 35.691986
5513   0  1 37.120173 42.830963 34.264221
5514   0  1 37.120156 42.830879 37.119821
13493  0  1 38.547757 41.403094 35.691958
5913   0  1 39.975167 42.830508 34.264026
5914   0  1 39.975187 42.830465 37.119535
13513  0  1 38.547588 44.258280 35.691837
13893  0  1 41.402611 41.402575 35.691683
14293  0  1 44.257659 41.402293 35.691538
6313   0  1 42.830152 42.830123 34.263890
6314   0  1 42.830194 42.830111 37.119323
13913  0  1 41.402676 44.257958 35.691676
14313  0  1 44.257757 44.257681 35.691556
14693  0  1 47.112834 41.402141 35.691463
6713   0  1 45.685263 42.829895 34.263813
6714   0  1 45.685304 42.829891 37.119198
7113   0  1 48.540466 42.829765 34.263772
7114   0  1 48.540498 42.829762 37.119126
14713  0  1 47.112910 44.257500 35.691482
15093  0  1 49.968078 41.402053 35.691421
15493  0  1 52.823358 41.402002 35.691395
7513   0  1 51.395721 42.829691 34.263748
7514   0  1 51.395744 42.829684 37.119084
15113  0  1 49.968126 44.257390 35.691439
15513  0  1 52.823382 44.257326 35.691414
15893  0  1 55.678659 41.401974 35.691380
7913   0  1 54.251004 42.829650 34.263734
7914   0  1 54.251021 42.829639 37.119060
15913  0  1 55.678659 44.257293 35.691402
4334   0  1 28.553316 45.685872 37.119564
4354   0  1 28.553249 48.540827 37.119347
4733   0  1 31.408873 45.685834 34.264077
4734   0  1 31.408872 45.685892 37.119606
4753   0  1 31.408698 48.540802 34.263925
4754   0  1 31.408707 48.540847 37.119374
12333  0  1 29.981028 47.113303 35.691714
4333   0  1 28.553306 45.685775 34.264032
4353   0  1 28.553238 48.540765 34.263898
5133   0  1 34.264402 45.685914 34.264097
5134   0  1 34.264397 45.685914 37.119626
5153   0  1 34.264149 48.540860 34.263946
5154   0  1 34.264155 48.540876 37.119396
12733  0  1 32.836524 47.113349 35.691749
13133  0  1 35.691981 47.113383 35.691751
5533   0  1 37.119820 45.685895 34.264056
5534   0  1 37.119810 45.685860 37.119564
5553   0  1 37.119564 48.540889 34.263943
5554   0  1 37.119564 48.540880 37.119386
5933   0  1 39.975070 45.685723 34.263974
5934   0  1 39.975068 45.685688 37.119442
5953   0  1 39.974904 48.540844 34.263913
5954   0  1 39.974902 48.540824 37.119341
13533  0  1 38.547349 47.113338 35.691705
6333   0  1 42.830208 45.685474 34.263888
6334   0  1 42.830219 45.685454 37.119313
6353   0  1 42.830159 48.540724 34.263869
6354   0  1 42.830161 48.540705 37.119275
13933  0  1 41.402601 47.113194 35.691629
14333  0  1 44.257782 47.113007 35.691553
6733   0  1 45.685343 45.685258 34.263825
6734   0  1 45.685363 45.685249 37.119212
6753   0  1 45.685363 48.540574 34.263826
6754   0  1 45.685371 48.540562 37.119209
7133   0  1 48.540527 45.685111 34.263785
7134   0  1 48.540548 45.685106 37.119146
7153   0  1 48.540563 48.540443 34.263793
7154   0  1 48.540575 48.540435 37.119158
14733  0  1 47.112959 47.112842 35.691494
7533   0  1 51.395757 45.685022 34.263761
7534   0  1 51.395775 45.685015 37.119106
7553   0  1 51.395782 48.540351 34.263773
7554   0  1 51.395796 48.540344 37.119123
15133  0  1 49.968165 47.112726 35.691455
15533  0  1 52.823401 47.112653 35.691432
7933   0  1 54.251016 45.684973 34.263749
7934   0  1 54.251031 45.684963 37.119084
7953   0  1 54.251021 48.540299 34.263763
7954   0  1 54.251034 48.540290 37.119104
15933  0  1 55.678655 47.112618 35.691422
4373   0  1 28.553203 51.395884 34.263837
4374   0  1 28.553212 51.395920 37.119238
4773   0  1 31.408610 51.395906 34.263853
4774   0  1 31.408619 51.395934 37.119255
12353  0  1 29.980939 49.968346 35.691583
12373  0  1 29.980893 52.823487 35.691519
5173   0  1 34.264014 51.395943 34.263869
5174   0  1 34.264022 51.395958 37.119272
12753  0  1 32.836367 49.968379 35.691606
12773  0  1 32.836283 52.823508 35.691534
13153  0  1 35.691782 49.968413 35.691618
13173  0  1 35.691668 52.823534 35.691545
5573   0  1 37.119405 51.395974 34.263874
5574   0  1 37.119410 51.395974 37.119277
5973   0  1 39.974764 51.395972 34.263865
5974   0  1 39.974765 51.395962 37.119262
13553  0  1 38.547161 49.968417 35.691608
13573  0  1 38.547038 52.823548 35.691545
6373   0  1 42.830073 51.395924 34.263844
6374   0  1 42.830074 51.395911 37.119232
13953  0  1 41.402482 49.968366 35.691576
13973  0  1 41.402377 52.823535 35.691533
14353  0  1 44.257742 49.968266 35.691534
14373  0  1 44.257677 52.823490 35.691512
6773   0  1 45.685333 51.395840 34.263819
6774   0  1 45.685337 51.395829 37.119195
7173   0  1 48.540565 51.395747 34.263797
7174   0  1 48.540572 51.395738 37.119160
14753  0  1 47.112965 49.968149 35.691495
14773  0  1 47.112938 52.823422 35.691489
7573   0  1 51.395790 51.395670 34.263781
7574   0  1 51.395800 51.395662 37.119134
15153  0  1 49.968183 49.968048 35.691465
15173  0  1 49.968176 52.823351 35.691468
15553  0  1 52.823410 49.967979 35.691446
15573  0  1 52.823405 52.823296 35.691455
7973   0  1 54.251018 51.395622 34.263773
7974   0  1 54.251029 51.395614 37.119120
15953  0  1 55.678646 49.967945 35.691438
15973  0  1 55.678633 52.823267 35.691450
4393   0  1 28.553183 54.251064 34.263808
4394   0  1 28.553192 54.251084 37.119182
4793   0  1 31.408563 54.251078 34.263818
4794   0  1 31.408571 54.251094 37.119194
12393  0  1 29.980867 55.678677 35.691487
5193   0  1 34.263941 54.251101 34.263829
5194   0  1 34.263949 54.251111 37.119206
12793  0  1 32.836238 55.678691 35.691497
13193  0  1 35.691605 55.678708 35.691505
5593   0  1 37.119312 54.251124 34.263834
5594   0  1 37.119318 54.251126 37.119212
5993   0  1 39.974667 54.251133 34.263832
5994   0  1 39.974671 54.251129 37.119209
13593  0  1 38.546964 55.678722 35.691508
6393   0  1 42.829993 54.251119 34.263822
6394   0  1 42.829996 54.251112 37.119196
13993  0  1 41.402304 55.678724 35.691503
14393  0  1 44.257618 55.678708 35.691492
6793   0  1 45.685284 54.251080 34.263809
6794   0  1 45.685288 54.251071 37.119176
7193   0  1 48.540543 54.251026 34.263795
7194   0  1 48.540548 54.251018 37.119156
14793  0  1 47.112900 55.678676 35.691479
7593   0  1 51.395780 54.250974 34.263784
7594   0  1 51.395788 54.250966 37.119139
15193  0  1 49.968155 55.678636 35.691467
15593  0  1 52.823391 55.678599 35.691459
14     0  1 57.106230 57.106223 37.119135
13     0  1 57.106218 57.106229 34.263783
7993   0  1 54.251007 54.250937 34.263779
7994   0  1 54.251018 54.250929 37.119130
15993  0  1 55.678618 55.678578 35.691457
4235   0  1 28.553546 31.408167 39.973425
4635   0  1 31.408980 31.408269 39.974352
12214  0  1 29.981514 29.980067 38.546479
12215  0  1 29.981108 29.980445 41.401637
4236   0  1 28.553390 31.408269 42.829106
4636   0  1 31.408672 31.408312 42.829448
5035   0  1 34.264814 31.408336 39.975236
12614  0  1 32.837638 29.980172 38.547978
12615  0  1 32.836635 29.980485 41.402268
13014  0  1 35.693029 29.980353 38.548110
13015  0  1 35.692254 29.980538 41.402739
5435   0  1 37.120126 31.408351 39.975265
5835   0  1 39.974955 31.408354 39.974816
13414  0  1 38.547461 29.980511 38.547293
13415  0  1 38.547503 29.980592 41.402685
6235   0  1 42.829983 31.408369 39.974576
13814  0  1 41.402367 29.980619 38.546967
13815  0  1 41.402506 29.980644 41.402391
14214  0  1 44.257501 29.980679 38.546822
14215  0  1 44.257610 29.980684 41.402203
6635   0  1 45.685154 31.408380 39.974454
7035   0  1 48.540401 31.408386 39.974385
14614  0  1 47.112736 29.980710 38.546746
14615  0  1 47.112808 29.980710 41.402095
7435   0  1 51.395689 31.408388 39.974341
15014  0  1 49.968019 29.980727 38.546700
15015  0  1 49.968064 29.980725 41.402031
15414  0  1 52.823328 29.980734 38.546668
15415  0  1 52.823354 29.980733 41.401988
7436   0  1 51.395722 31.408385 42.829672
7835   0  1 54.251000 31.408387 39.974308
15814  0  1 55.678652 29.980736 38.546640
15815  0  1 55.678664 29.980737 41.401956
7836   0  1 54.251018 31.408385 42.829632
4255   0  1 28.553401 34.263894 39.973719
4655   0  1 31.408977 34.264084 39.974468
12234  0  1 29.981309 32.836192 38.546222
12235  0  1 29.981038 32.836059 41.401535
12254  0  1 29.981376 35.692353 38.547105
12255  0  1 29.981026 35.691675 41.401854
4656   0  1 31.408661 34.263828 42.829500
4256   0  1 28.553318 34.263746 42.829179
5055   0  1 34.264807 34.264143 39.975258
12634  0  1 32.837468 32.836392 38.547809
12635  0  1 32.836563 32.836141 41.402185
12654  0  1 32.837620 35.692602 38.548075
12655  0  1 32.836627 35.691793 41.402352
13034  0  1 35.692940 32.836289 38.548022
13035  0  1 35.692199 32.836163 41.402679
13054  0  1 35.692990 35.692187 38.548087
13055  0  1 35.692234 35.691785 41.402742
5455   0  1 37.120123 34.264015 39.975270
5855   0  1 39.974977 34.263865 39.974835
13434  0  1 38.547443 32.836143 38.547271
13435  0  1 38.547477 32.836129 41.402656
13454  0  1 38.547531 35.691769 38.547347
13455  0  1 38.547501 35.691663 41.402688
6255   0  1 42.830006 34.263788 39.974592
13834  0  1 41.402365 32.836095 38.546958
13835  0  1 41.402501 32.836087 41.402382
13854  0  1 41.402433 35.691570 38.547007
13855  0  1 41.402533 35.691532 41.402413
14234  0  1 44.257502 32.836075 38.546818
14235  0  1 44.257611 32.836066 41.402200
14254  0  1 44.257547 35.691471 38.546846
14255  0  1 44.257640 35.691450 41.402225
6655   0  1 45.685171 34.263746 39.974465
7055   0  1 48.540413 34.263721 39.974392
14634  0  1 47.112738 32.836063 38.546744
14635  0  1 47.112810 32.836054 41.402094
14654  0  1 47.112766 35.691415 38.546761
14655  0  1 47.112832 35.691400 41.402113
7455   0  1 51.395697 34.263704 39.974346
15034  0  1 49.968022 32.836054 38.546698
15035  0  1 49.968067 32.836046 41.402030
15054  0  1 49.968040 35.691381 38.546710
15055  0  1 49.968082 35.691368 41.402044
15434  0  1 52.823332 32.836046 38.546666
15435  0  1 52.823358 32.836039 41.401986
15454  0  1 52.823343 35.691357 38.546676
15455  0  1 52.823368 35.691346 41.401998
7855   0  1 54.251006 34.263690 39.974312
15834  0  1 55.678657 32.836037 38.546637
15835  0  1 55.678669 32.836032 41.401953
15854  0  1 55.678663 35.691340 38.546648
15855  0  1 55.678675 35.691328 41.401964
7856   0  1 54.251024 34.263682 42.829636
4275   0  1 28.553316 37.119738 39.974511
4295   0  1 28.553332 39.975511 39.975142
4675   0  1 31.409074 37.119929 39.974989
4695   0  1 31.409077 39.975600 39.975361
12274  0  1 29.981427 38.548357 38.547921
12275  0  1 29.981047 38.547345 41.402356
4276   0  1 28.553246 37.119259 42.829495
5075   0  1 34.264919 37.119998 39.975453
5095   0  1 34.264819 39.975603 39.975530
12674  0  1 32.837492 38.548454 38.548295
12675  0  1 32.836694 38.547446 41.402657
13074  0  1 35.693125 38.548185 38.548233
13075  0  1 35.692299 38.547431 41.402868
5475   0  1 37.120181 37.119691 39.975340
5495   0  1 37.120225 39.975362 39.975402
5875   0  1 39.975050 37.119388 39.974901
5895   0  1 39.975132 39.974910 39.974963
13474  0  1 38.547662 38.547397 38.547442
13475  0  1 38.547547 38.547209 41.402745
6275   0  1 42.830067 37.119214 39.974641
6295   0  1 42.830147 39.974648 39.974695
13874  0  1 41.402545 38.547053 38.547079
13875  0  1 41.402589 38.546988 41.402466
14274  0  1 44.257625 38.546873 38.546892
14275  0  1 44.257690 38.546842 41.402268
6675   0  1 45.685215 37.119117 39.974498
6695   0  1 45.685275 39.974494 39.974539
7075   0  1 48.540442 37.119059 39.974415
7095   0  1 48.540483 39.974401 39.974447
14674  0  1 47.112816 38.546771 38.546792
14675  0  1 47.112870 38.546752 41.402145
7475   0  1 51.395715 37.119021 39.974364
7495   0  1 51.395740 39.974344 39.974391
15074  0  1 49.968070 38.546710 38.546733
15075  0  1 49.968107 38.546695 41.402070
15474  0  1 52.823359 38.546671 38.546696
15475  0  1 52.823382 38.546657 41.402021
7875   0  1 54.251015 37.118995 39.974329
7895   0  1 54.251026 39.974306 39.974355
15874  0  1 55.678668 38.546646 38.546669
15875  0  1 55.678681 38.546630 41.401987
7876   0  1 54.251032 37.118983 42.829653
12294  0  1 29.981328 41.403622 38.547901
12295  0  1 29.981061 41.402908 41.402690
4315   0  1 28.553326 42.830818 39.975200
4715   0  1 31.408957 42.830839 39.975283
12314  0  1 29.981146 44.258445 38.547479
12315  0  1 29.981029 44.258184 41.402690
12694  0  1 32.837125 41.403621 38.548003
12695  0  1 32.836669 41.402949 41.402826
13094  0  1 35.692715 41.403457 38.547913
13095  0  1 35.692228 41.402910 41.402892
5115   0  1 34.264566 42.830815 39.975327
12714  0  1 32.836747 44.258449 38.547525
12715  0  1 32.836561 44.258191 41.402745
13114  0  1 35.692263 44.258396 38.547493
13115  0  1 35.692058 44.258154 41.402756
5515   0  1 37.120008 42.830668 39.975231
13494  0  1 38.547735 41.402968 38.547476
13495  0  1 38.547556 41.402719 41.402771
5915   0  1 39.975145 42.830355 39.974962
13514  0  1 38.547553 44.258197 38.547322
13515  0  1 38.547430 44.258030 41.402671
13894  0  1 41.402658 41.402534 38.547134
13895  0  1 41.402637 41.402435 41.402505
14294  0  1 44.257715 41.402279 38.546936
14295  0  1 44.257744 41.402238 41.402309
6315   0  1 42.830211 42.830064 39.974728
13914  0  1 41.402678 44.257911 38.547118
13915  0  1 41.402631 44.257817 41.402494
14314  0  1 44.257780 44.257660 38.546957
14315  0  1 44.257779 44.257614 41.402329
14694  0  1 47.112879 41.402132 38.546825
14695  0  1 47.112914 41.402110 41.402182
6715   0  1 45.685336 42.829870 39.974574
7115   0  1 48.540528 42.829748 39.974479
14714  0  1 47.112937 44.257490 38.546852
14715  0  1 47.112954 44.257465 41.402210
15094  0  1 49.968110 41.402044 38.546761
15095  0  1 49.968138 41.402028 41.402101
15494  0  1 52.823379 41.401990 38.546722
15495  0  1 52.823399 41.401975 41.402050
7515   0  1 51.395767 42.829672 39.974421
15114  0  1 49.968150 44.257381 38.546787
15115  0  1 49.968168 44.257365 41.402131
15514  0  1 52.823400 44.257315 38.546749
15515  0  1 52.823415 44.257300 41.402081
15894  0  1 55.678672 41.401958 38.546698
15895  0  1 55.678684 41.401941 41.402019
7915   0  1 54.251037 42.829624 39.974386
15914  0  1 55.678672 44.257278 38.546728
15915  0  1 55.678683 44.257261 41.402053
4355   0  1 28.553240 48.540848 39.974758
4335   0  1 28.553281 45.685827 39.974964
4735   0  1 31.408802 45.685835 39.975004
4755   0  1 31.408687 48.540856 39.974782
12334  0  1 29.981018 47.113347 38.547173
12335  0  1 29.980973 47.113286 41.402527
5135   0  1 34.264308 45.685828 39.975026
5155   0  1 34.264127 48.540862 39.974801
12734  0  1 32.836505 47.113363 38.547204
12735  0  1 32.836437 47.113289 41.402555
13134  0  1 35.691960 47.113361 38.547205
13135  0  1 35.691881 47.113272 41.402561
5535   0  1 37.119740 45.685766 39.974985
5555   0  1 37.119536 48.540846 39.974791
5935   0  1 39.975027 45.685612 39.974860
5955   0  1 39.974878 48.540782 39.974741
13534  0  1 38.547329 47.113297 38.547147
13535  0  1 38.547264 47.113210 41.402520
14335  0  1 44.257771 47.112939 41.402317
14334  0  1 44.257786 47.112983 38.546947
13935  0  1 41.402552 47.113090 41.402426
6335   0  1 42.830210 45.685408 39.974712
6355   0  1 42.830147 48.540669 39.974663
13934  0  1 41.402592 47.113158 38.547049
14735  0  1 47.112973 47.112802 41.402223
14734  0  1 47.112971 47.112828 38.546864
7155   0  1 48.540582 48.540419 39.974515
7135   0  1 48.540565 45.685091 39.974503
6755   0  1 45.685369 48.540537 39.974582
6735   0  1 45.685373 45.685224 39.974589
15535  0  1 52.823425 47.112628 41.402110
15534  0  1 52.823415 47.112643 38.546773
15135  0  1 49.968189 47.112698 41.402154
15134  0  1 49.968180 47.112716 38.546808
7555   0  1 51.395806 48.540331 39.974469
7535   0  1 51.395791 45.685003 39.974448
15935  0  1 55.678677 47.112588 41.402085
15934  0  1 55.678667 47.112605 38.546756
7955   0  1 54.251045 48.540277 39.974442
7935   0  1 54.251044 45.684949 39.974416
12375  0  1 29.980894 52.823524 41.402272
12374  0  1 29.980898 52.823512 38.546903
12355  0  1 29.980926 49.968383 41.402375
12354  0  1 29.980941 49.968384 38.546998
4775   0  1 31.408615 51.395953 39.974643
4375   0  1 28.553212 51.395945 39.974627
13175  0  1 35.691661 52.823534 41.402296
13174  0  1 35.691671 52.823539 38.546929
13155  0  1 35.691748 49.968386 41.402403
13154  0  1 35.691778 49.968414 38.547031
12775  0  1 32.836280 52.823530 41.402286
12774  0  1 32.836287 52.823525 38.546918
12755  0  1 32.836342 49.968389 41.402394
12754  0  1 32.836366 49.968401 38.547020
5175   0  1 34.264015 51.395963 39.974659
13575  0  1 38.547026 52.823527 41.402294
13574  0  1 38.547038 52.823543 38.546928
13555  0  1 38.547124 49.968362 41.402389
13554  0  1 38.547155 49.968401 38.547015
5975   0  1 39.974755 51.395942 39.974644
5575   0  1 37.119401 51.395964 39.974662
14375  0  1 44.257666 52.823454 41.402244
14374  0  1 44.257676 52.823476 38.546884
14355  0  1 44.257725 49.968211 41.402283
14354  0  1 44.257740 49.968246 38.546918
13975  0  1 41.402364 52.823502 41.402276
13974  0  1 41.402376 52.823523 38.546912
13955  0  1 41.402451 49.968302 41.402345
13954  0  1 41.402476 49.968343 38.546974
6375   0  1 42.830065 51.395888 39.974607
14775  0  1 47.112935 52.823390 41.402206
14774  0  1 47.112940 52.823409 38.546852
14755  0  1 47.112964 49.968110 41.402219
14754  0  1 47.112969 49.968134 38.546863
7175   0  1 48.540574 51.395723 39.974516
6775   0  1 45.685333 51.395809 39.974561
15575  0  1 52.823418 52.823274 41.402145
15574  0  1 52.823414 52.823286 38.546804
15555  0  1 52.823426 49.967955 41.402131
15554  0  1 52.823420 49.967969 38.546792
15175  0  1 49.968182 52.823325 41.402171
15174  0  1 49.968182 52.823341 38.546824
15155  0  1 49.968193 49.968020 41.402167
15154  0  1 49.968191 49.968037 38.546820
7575   0  1 51.395805 51.395650 39.974482
15975  0  1 55.678652 52.823244 41.402132
15974  0  1 55.678644 52.823257 38.546795
15955  0  1 55.678666 49.967918 41.402113
15954  0  1 55.678658 49.967933 38.546779
7975   0  1 54.251038 51.395602 39.974462
12395  0  1 29.980876 55.678703 41.402212
12394  0  1 29.980874 55.678692 38.546853
4795   0  1 31.408574 54.251109 39.974564
4395   0  1 28.553196 54.251102 39.974552
12794  0  1 32.836245 55.678702 38.546864
5195   0  1 34.263950 54.251119 39.974576
12795  0  1 32.836244 55.678709 41.402222
13194  0  1 35.691611 55.678714 38.546873
13195  0  1 35.691609 55.678715 41.402231
5595   0  1 37.119318 54.251125 39.974582
5995   0  1 39.974669 54.251121 39.974578
13594  0  1 38.546968 55.678721 38.546876
13595  0  1 38.546964 55.678716 41.402234
14395  0  1 44.257615 55.678687 41.402211
6395   0  1 42.829993 54.251098 39.974561
13994  0  1 41.402307 55.678718 38.546870
13995  0  1 41.402302 55.678708 41.402227
14394  0  1 44.257620 55.678700 38.546856
6795   0  1 45.685286 54.251057 39.974536
7195   0  1 48.540549 54.251005 39.974510
14794  0  1 47.112903 55.678667 38.546839
14795  0  1 47.112900 55.678654 41.402189
7595   0  1 51.395792 54.250955 39.974488
15194  0  1 49.968160 55.678627 38.546822
15195  0  1 49.968161 55.678616 41.402168
15594  0  1 52.823399 55.678592 38.546809
15595  0  1 52.823403 55.678582 41.402152
15995  0  1 55.678637 55.678561 41.402144
15994  0  1 55.678629 55.678570 38.546805
7995   0  1 54.251025 54.250920 39.974474
7615   0  1 54.251011 57.106226 39.974480
4237   0  1 28.553300 31.408320 45.684609
4637   0  1 31.408567 31.408342 45.684762
12216  0  1 29.980972 29.980588 44.257013
12217  0  1 29.980902 29.980657 47.112400
5036   0  1 34.264176 31.408350 42.829908
5037   0  1 34.263935 31.408363 45.684992
12616  0  1 32.836325 29.980610 44.257292
12617  0  1 32.836208 29.980670 47.112536
13016  0  1 35.691793 29.980634 44.257599
13017  0  1 35.691582 29.980684 47.112710
5436   0  1 37.119683 31.408369 42.830196
5437   0  1 37.119368 31.408377 45.685211
5836   0  1 39.974946 31.408373 42.830151
5837   0  1 39.974753 31.408383 45.685309
13416  0  1 38.547215 29.980656 44.257756
13417  0  1 38.546981 29.980696 47.112856
6236   0  1 42.830066 31.408375 42.829963
6237   0  1 42.830029 31.408383 45.685266
13816  0  1 41.402476 29.980678 44.257702
13817  0  1 41.402335 29.980705 47.112907
14216  0  1 44.257654 29.980698 44.257563
14217  0  1 44.257615 29.980715 47.112865
6636   0  1 45.685230 31.408380 42.829821
6637   0  1 45.685251 31.408383 45.685166
7036   0  1 48.540454 31.408384 42.829731
7037   0  1 48.540485 31.408384 45.685077
14616  0  1 47.112857 29.980715 44.257450
14617  0  1 47.112862 29.980724 47.112785
7437   0  1 51.395746 31.408384 45.685011
15016  0  1 49.968100 29.980727 44.257373
15017  0  1 49.968116 29.980731 47.112712
15416  0  1 52.823376 29.980734 44.257320
15417  0  1 52.823389 29.980737 47.112656
7837   0  1 54.251031 31.408383 45.684964
15816  0  1 55.678675 29.980738 44.257283
15817  0  1 55.678680 29.980740 47.112615
4657   0  1 31.408556 34.263746 45.684783
12236  0  1 29.980941 32.836033 44.256962
12237  0  1 29.980888 32.836029 47.112372
12256  0  1 29.980919 35.691471 44.257086
12257  0  1 29.980871 35.691396 47.112426
4257   0  1 28.553264 34.263704 45.684630
5056   0  1 34.264176 34.263877 42.829929
5057   0  1 34.263935 34.263773 45.685004
12636  0  1 32.836292 32.836071 44.257248
12637  0  1 32.836191 32.836050 47.112512
12656  0  1 32.836317 35.691529 44.257339
12657  0  1 32.836200 35.691427 47.112559
13036  0  1 35.691763 32.836094 44.257564
13037  0  1 35.691566 32.836064 47.112690
13056  0  1 35.691788 35.691553 44.257613
13057  0  1 35.691582 35.691443 47.112722
5456   0  1 37.119678 34.263872 42.830197
5457   0  1 37.119368 34.263783 45.685214
5856   0  1 39.974948 34.263823 42.830154
5857   0  1 39.974752 34.263773 45.685309
13436  0  1 38.547195 32.836095 44.257733
13437  0  1 38.546969 32.836070 47.112840
13456  0  1 38.547209 35.691532 44.257754
13457  0  1 38.546981 35.691443 47.112858
6256   0  1 42.830076 34.263770 42.829971
6257   0  1 42.830032 34.263748 45.685268
13836  0  1 41.402467 32.836079 44.257690
13837  0  1 41.402327 32.836065 47.112897
13856  0  1 41.402480 35.691480 44.257706
13857  0  1 41.402336 35.691426 47.112907
14236  0  1 44.257653 32.836061 44.257559
14237  0  1 44.257613 32.836056 47.112860
14256  0  1 44.257668 35.691426 44.257575
14257  0  1 44.257621 35.691398 47.112868
6656   0  1 45.685241 34.263734 42.829830
6657   0  1 45.685257 34.263723 45.685171
7056   0  1 48.540464 34.263711 42.829738
7057   0  1 48.540492 34.263703 45.685082
14636  0  1 47.112859 32.836049 44.257449
14637  0  1 47.112863 32.836046 47.112783
14656  0  1 47.112873 35.691385 44.257463
14657  0  1 47.112872 35.691369 47.112792
7456   0  1 51.395730 34.263695 42.829678
7457   0  1 51.395752 34.263687 45.685015
15036  0  1 49.968103 32.836041 44.257371
15037  0  1 49.968119 32.836038 47.112710
15056  0  1 49.968115 35.691356 44.257384
15057  0  1 49.968127 35.691346 47.112719
15436  0  1 52.823380 32.836034 44.257318
15437  0  1 52.823393 32.836031 47.112654
15456  0  1 52.823389 35.691336 44.257329
15457  0  1 52.823399 35.691327 47.112662
7857   0  1 54.251036 34.263675 45.684967
15836  0  1 55.678680 32.836027 44.257280
15837  0  1 55.678685 32.836025 47.112612
15856  0  1 55.678685 35.691319 44.257290
15857  0  1 55.678689 35.691312 47.112620
4277   0  1 28.553217 37.119099 45.684766
4296   0  1 28.553224 39.974831 42.829898
4297   0  1 28.553189 39.974529 45.684981
4676   0  1 31.408699 37.119365 42.829757
4677   0  1 31.408566 37.119155 45.684907
4696   0  1 31.408734 39.974914 42.830070
4697   0  1 31.408583 39.974585 45.685094
12276  0  1 29.980913 38.546940 44.257336
12277  0  1 29.980860 38.546775 47.112550
5076   0  1 34.264242 37.119426 42.830072
5077   0  1 34.263971 37.119192 45.685094
5096   0  1 34.264281 39.974958 42.830252
5097   0  1 34.264011 39.974623 45.685230
12676  0  1 32.836363 38.547006 44.257529
12677  0  1 32.836224 38.546814 47.112667
13076  0  1 35.691841 38.547030 44.257722
13077  0  1 35.691618 38.546834 47.112799
5476   0  1 37.119717 37.119390 42.830260
5477   0  1 37.119399 37.119198 45.685266
5496   0  1 37.119754 39.974910 42.830339
5497   0  1 37.119438 39.974624 45.685345
5876   0  1 39.974977 37.119283 42.830190
5877   0  1 39.974772 37.119169 45.685336
5896   0  1 39.975010 39.974747 42.830233
5897   0  1 39.974799 39.974575 45.685377
13476  0  1 38.547243 38.546984 44.257807
13477  0  1 38.547011 38.546827 47.112903
6276   0  1 42.830107 37.119172 42.830004
6277   0  1 42.830048 37.119118 45.685288
6296   0  1 42.830148 39.974582 42.830044
6297   0  1 42.830071 39.974497 45.685317
13876  0  1 41.402507 38.546891 44.257739
13877  0  1 41.402356 38.546795 47.112933
14276  0  1 44.257696 38.546798 44.257605
14277  0  1 44.257638 38.546747 47.112888
6676   0  1 45.685269 37.119094 42.829857
6677   0  1 45.685274 37.119067 45.685189
6696   0  1 45.685308 39.974462 42.829894
6697   0  1 45.685296 39.974418 45.685216
7076   0  1 48.540486 37.119042 42.829760
7077   0  1 48.540506 37.119025 45.685099
7096   0  1 48.540515 39.974381 42.829791
7097   0  1 48.540526 39.974356 45.685124
14676  0  1 47.112898 38.546728 44.257490
14677  0  1 47.112888 38.546699 47.112810
7476   0  1 51.395745 37.119008 42.829696
7477   0  1 51.395763 37.118995 45.685031
7496   0  1 51.395764 39.974327 42.829724
7497   0  1 51.395777 39.974309 45.685055
15076  0  1 49.968134 38.546678 44.257407
15077  0  1 49.968140 38.546659 47.112737
15476  0  1 52.823400 38.546643 44.257350
15477  0  1 52.823408 38.546629 47.112679
7877   0  1 54.251043 37.118972 45.684982
7896   0  1 54.251041 39.974291 42.829680
7897   0  1 54.251050 39.974276 45.685006
15876  0  1 55.678689 38.546617 44.257311
15877  0  1 55.678693 38.546606 47.112638
12296  0  1 29.980922 41.402425 44.257602
12297  0  1 29.980860 41.402176 47.112714
4316   0  1 28.553230 42.830320 42.830158
4317   0  1 28.553185 42.829971 45.685193
4716   0  1 31.408734 42.830362 42.830247
4717   0  1 31.408599 42.830011 45.685269
12316  0  1 29.980927 44.257835 44.257755
12317  0  1 29.980866 44.257573 47.112859
12696  0  1 32.836390 41.402473 44.257723
12697  0  1 32.836248 41.402212 47.112802
13096  0  1 35.691862 41.402483 44.257829
13097  0  1 35.691651 41.402229 47.112895
5116   0  1 34.264248 42.830373 42.830328
5117   0  1 34.264030 42.830035 45.685351
12716  0  1 32.836382 44.257857 44.257817
12717  0  1 32.836262 44.257597 47.112916
13116  0  1 35.691831 44.257850 44.257862
13117  0  1 35.691663 44.257605 47.112970
5516   0  1 37.119703 42.830319 42.830344
5517   0  1 37.119450 42.830026 45.685410
13496  0  1 38.547263 41.402426 44.257858
13497  0  1 38.547040 41.402216 47.112960
5916   0  1 39.975007 42.830172 42.830244
5917   0  1 39.974811 42.829969 45.685410
13516  0  1 38.547227 44.257793 44.257856
13517  0  1 38.547047 44.257585 47.113001
13896  0  1 41.402530 41.402302 44.257771
13897  0  1 41.402378 41.402169 47.112966
14296  0  1 44.257725 41.402176 44.257637
14297  0  1 44.257657 41.402102 47.112912
6316   0  1 42.830176 42.829979 42.830070
6317   0  1 42.830087 42.829872 45.685340
13916  0  1 41.402524 44.257679 44.257776
13917  0  1 41.402386 44.257532 47.112988
14316  0  1 44.257742 44.257541 44.257655
14317  0  1 44.257668 44.257455 47.112930
14696  0  1 47.112926 41.402077 44.257521
14697  0  1 47.112905 41.402036 47.112833
6716   0  1 45.685344 42.829829 42.829925
6717   0  1 45.685317 42.829773 45.685241
7116   0  1 48.540547 42.829724 42.829823
7117   0  1 48.540546 42.829692 45.685151
14716  0  1 47.112950 44.257426 44.257547
14717  0  1 47.112920 44.257376 47.112855
15096  0  1 49.968155 41.402007 44.257436
15097  0  1 49.968154 41.401981 47.112760
15496  0  1 52.823413 41.401958 44.257379
15497  0  1 52.823416 41.401940 47.112703
7516   0  1 51.395785 42.829654 42.829755
7517   0  1 51.395791 42.829632 45.685082
15116  0  1 49.968175 44.257340 44.257465
15117  0  1 49.968167 44.257310 47.112784
15516  0  1 52.823424 44.257281 44.257410
15517  0  1 52.823423 44.257260 47.112730
15896  0  1 55.678691 41.401925 44.257341
15897  0  1 55.678693 41.401910 47.112663
7916   0  1 54.251049 42.829607 42.829712
7917   0  1 54.251055 42.829590 45.685035
15916  0  1 55.678689 44.257243 44.257375
15917  0  1 55.678690 44.257225 47.112693
4336   0  1 28.553229 45.685613 42.830183
4356   0  1 28.553216 48.540782 42.830085
4357   0  1 28.553191 48.540643 45.685329
4736   0  1 31.408695 45.685629 42.830226
4737   0  1 31.408601 45.685375 45.685359
4756   0  1 31.408642 48.540789 42.830109
4757   0  1 31.408588 48.540654 45.685354
12336  0  1 29.980917 47.113117 44.257759
12337  0  1 29.980871 47.112922 47.112936
4337   0  1 28.553189 45.685353 45.685314
5136   0  1 34.264161 45.685625 42.830258
5137   0  1 34.264019 45.685383 45.685401
5156   0  1 34.264065 48.540786 42.830127
5157   0  1 34.263988 48.540653 45.685375
12736  0  1 32.836345 47.113124 44.257790
12737  0  1 32.836262 47.112934 47.112969
13136  0  1 35.691765 47.113112 44.257808
13137  0  1 35.691653 47.112932 47.112996
5536   0  1 37.119589 45.685582 42.830253
5537   0  1 37.119425 45.685366 45.685423
5556   0  1 37.119467 48.540763 42.830124
5557   0  1 37.119376 48.540637 45.685382
5936   0  1 39.974929 45.685480 42.830182
5937   0  1 39.974786 45.685312 45.685407
5956   0  1 39.974821 48.540705 42.830086
5957   0  1 39.974735 48.540596 45.685365
13536  0  1 38.547151 47.113069 44.257794
13537  0  1 38.547029 47.112910 47.113005
6336   0  1 42.830165 45.685328 42.830060
6337   0  1 42.830081 45.685222 45.685343
6356   0  1 42.830110 48.540610 42.830015
6357   0  1 42.830047 48.540527 45.685318
13936  0  1 41.402473 47.112985 44.257737
13937  0  1 41.402369 47.112861 47.112984
14336  0  1 44.257730 47.112872 44.257648
14337  0  1 44.257664 47.112789 47.112933
6736   0  1 45.685363 45.685180 42.829940
6737   0  1 45.685326 45.685119 45.685255
6756   0  1 45.685352 48.540496 42.829932
6757   0  1 45.685315 48.540441 45.685252
7136   0  1 48.540571 45.685065 42.829848
7137   0  1 48.540559 45.685029 45.685173
7156   0  1 48.540578 48.540392 42.829860
7157   0  1 48.540561 48.540357 45.685185
14736  0  1 47.112958 47.112762 44.257559
14737  0  1 47.112924 47.112710 47.112867
7536   0  1 51.395801 45.684984 42.829784
7537   0  1 51.395801 45.684960 45.685109
7556   0  1 51.395809 48.540312 42.829806
7557   0  1 51.395804 48.540288 45.685131
15136  0  1 49.968188 47.112672 44.257488
15137  0  1 49.968173 47.112640 47.112804
15536  0  1 52.823429 47.112609 44.257438
15537  0  1 52.823424 47.112586 47.112755
7936   0  1 54.251053 45.684932 42.829744
7937   0  1 54.251056 45.684912 45.685066
7956   0  1 54.251051 48.540260 42.829773
7957   0  1 54.251052 48.540241 45.685094
15936  0  1 55.678682 47.112570 44.257409
15937  0  1 55.678683 47.112551 47.112723
4376   0  1 28.553203 51.395933 42.829981
4377   0  1 28.553189 51.395873 45.685285
4776   0  1 31.408597 51.395938 42.829997
4777   0  1 31.408570 51.395878 45.685301
12356  0  1 29.980899 49.968319 44.257688
12357  0  1 29.980870 49.968208 47.112941
12376  0  1 29.980882 52.823505 44.257611
12377  0  1 29.980866 52.823452 47.112908
5176   0  1 34.263990 51.395939 42.830010
5177   0  1 34.263951 51.395878 45.685314
12756  0  1 32.836299 49.968322 44.257706
12757  0  1 32.836251 49.968213 47.112960
12776  0  1 32.836261 52.823508 44.257623
12777  0  1 32.836235 52.823455 47.112921
13156  0  1 35.691693 49.968314 44.257716
13157  0  1 35.691629 49.968208 47.112974
13176  0  1 35.691636 52.823505 44.257632
13177  0  1 35.691601 52.823451 47.112929
5576   0  1 37.119371 51.395931 42.830013
5577   0  1 37.119324 51.395867 45.685318
5976   0  1 39.974726 51.395903 42.829996
5977   0  1 39.974677 51.395841 45.685307
13556  0  1 38.547067 49.968288 44.257708
13557  0  1 38.546994 49.968189 47.112975
13576  0  1 38.546998 52.823493 44.257630
13577  0  1 38.546958 52.823439 47.112930
6376   0  1 42.830041 51.395850 42.829959
6377   0  1 42.830000 51.395796 45.685278
13956  0  1 41.402402 49.968237 44.257674
13957  0  1 41.402335 49.968151 47.112957
13976  0  1 41.402337 52.823465 44.257613
13977  0  1 41.402296 52.823414 47.112918
14356  0  1 44.257691 49.968161 44.257619
14357  0  1 44.257641 49.968095 47.112918
14376  0  1 44.257644 52.823420 44.257582
14377  0  1 44.257609 52.823377 47.112893
6776   0  1 45.685317 51.395777 42.829910
6777   0  1 45.685288 51.395735 45.685234
7176   0  1 48.540567 51.395700 42.829861
7177   0  1 48.540550 51.395669 45.685186
14756  0  1 47.112946 49.968074 44.257556
14757  0  1 47.112914 49.968029 47.112867
14776  0  1 47.112920 52.823363 44.257543
14777  0  1 47.112894 52.823329 47.112858
7576   0  1 51.395805 51.395633 42.829821
7577   0  1 51.395798 51.395611 45.685145
15156  0  1 49.968187 49.967995 44.257501
15157  0  1 49.968170 49.967965 47.112817
15176  0  1 49.968174 52.823305 44.257505
15177  0  1 49.968158 52.823280 47.112821
15556  0  1 52.823427 49.967936 44.257461
15557  0  1 52.823420 49.967914 47.112776
15576  0  1 52.823417 52.823258 44.257475
15577  0  1 52.823410 52.823239 47.112791
7976   0  1 54.251043 51.395587 42.829795
7977   0  1 54.251042 51.395570 45.685116
15956  0  1 55.678671 49.967901 44.257437
15957  0  1 55.678671 49.967882 47.112750
15976  0  1 55.678657 52.823229 44.257459
15977  0  1 55.678657 52.823213 47.112771
4396   0  1 28.553193 54.251106 42.829907
4397   0  1 28.553186 54.251085 45.685233
4796   0  1 31.408568 54.251111 42.829918
4797   0  1 31.408554 54.251089 45.685244
12396  0  1 29.980871 55.678701 44.257555
12397  0  1 29.980862 55.678681 47.112871
5196   0  1 34.263940 54.251114 42.829929
5197   0  1 34.263921 54.251089 45.685254
12796  0  1 32.836236 55.678704 44.257564
12797  0  1 32.836222 55.678683 47.112881
13196  0  1 35.691598 55.678706 44.257572
13197  0  1 35.691579 55.678683 47.112888
5596   0  1 37.119306 54.251113 42.829934
5597   0  1 37.119282 54.251085 45.685258
5996   0  1 39.974655 54.251103 42.829929
5997   0  1 39.974629 54.251071 45.685254
13596  0  1 38.546951 55.678702 44.257574
13597  0  1 38.546929 55.678677 47.112889
6396   0  1 42.829980 54.251077 42.829911
6397   0  1 42.829955 54.251046 45.685238
13996  0  1 41.402288 55.678690 44.257566
13997  0  1 41.402264 55.678665 47.112883
14396  0  1 44.257602 55.678668 44.257550
14397  0  1 44.257580 55.678644 47.112867
6796   0  1 45.685275 54.251037 42.829884
6797   0  1 45.685255 54.251010 45.685211
7196   0  1 48.540543 54.250988 42.829853
7197   0  1 48.540529 54.250966 45.685180
14796  0  1 47.112890 55.678637 44.257527
14797  0  1 47.112872 55.678616 47.112845
7596   0  1 51.395791 54.250942 42.829827
7597   0  1 51.395785 54.250925 45.685151
15196  0  1 49.968155 55.678602 44.257502
15197  0  1 49.968142 55.678586 47.112820
15596  0  1 52.823403 55.678571 44.257483
15597  0  1 52.823397 55.678558 47.112799
7217   0  1 51.395769 57.106229 45.685152
7996   0  1 54.251030 54.250908 42.829809
7997   0  1 54.251029 54.250894 45.685131
15996  0  1 55.678642 55.678551 44.257472
15997  0  1 55.678643 55.678540 47.112785
7616   0  1 54.251016 57.106219 42.829816
7617   0  1 54.251016 57.106211 45.685139
4238   0  1 28.553243 31.408349 48.540038
4239   0  1 28.553205 31.408367 51.395433
4638   0  1 31.408515 31.408361 48.540117
4639   0  1 31.408481 31.408374 51.395477
12218  0  1 29.980859 29.980695 49.967776
5038   0  1 34.263834 31.408374 48.540237
5039   0  1 34.263783 31.408381 51.395543
12618  0  1 32.836151 29.980703 49.967849
13018  0  1 35.691482 29.980712 49.967948
5438   0  1 37.119203 31.408383 48.540372
5439   0  1 37.119116 31.408387 51.395623
5838   0  1 39.974581 31.408387 48.540474
5839   0  1 39.974469 31.408390 51.395697
13418  0  1 38.546842 29.980719 49.968047
6238   0  1 42.829922 31.408388 48.540504
6239   0  1 42.829818 31.408390 51.395741
13818  0  1 41.402201 29.980724 49.968113
14218  0  1 44.257530 29.980728 49.968124
6638   0  1 45.685213 31.408387 48.540469
6639   0  1 45.685144 31.408388 51.395743
7038   0  1 48.540480 31.408386 48.540406
7039   0  1 48.540445 31.408386 51.395712
14618  0  1 47.112825 29.980732 49.968090
7438   0  1 51.395751 31.408385 48.540346
7439   0  1 51.395735 31.408385 51.395668
15018  0  1 49.968105 29.980736 49.968037
15418  0  1 52.823386 29.980739 49.967987
7838   0  1 54.251035 31.408383 48.540298
7839   0  1 54.251027 31.408383 51.395625
15818  0  1 55.678678 29.980741 49.967947
4258   0  1 28.553225 34.263691 48.540045
4259   0  1 28.553196 34.263687 51.395435
4658   0  1 31.408507 34.263714 48.540125
4659   0  1 31.408477 34.263700 51.395480
12238  0  1 29.980852 32.836031 49.967760
12258  0  1 29.980842 35.691364 49.967786
5058   0  1 34.263834 34.263728 48.540244
5059   0  1 34.263784 34.263707 51.395546
12638  0  1 32.836143 32.836043 49.967835
12658  0  1 32.836147 35.691380 49.967860
13038  0  1 35.691473 32.836051 49.967935
13058  0  1 35.691484 35.691389 49.967955
5458   0  1 37.119204 34.263736 48.540376
5459   0  1 37.119118 34.263711 51.395625
5858   0  1 39.974583 34.263735 48.540475
5859   0  1 39.974472 34.263710 51.395698
13438  0  1 38.546834 32.836055 49.968036
13458  0  1 38.546846 35.691391 49.968050
6258   0  1 42.829924 34.263725 48.540505
6259   0  1 42.829821 34.263705 51.395741
13838  0  1 41.402196 32.836054 49.968105
13858  0  1 41.402205 35.691384 49.968113
14238  0  1 44.257528 32.836048 49.968119
14258  0  1 44.257535 35.691370 49.968124
6658   0  1 45.685216 34.263709 48.540470
6659   0  1 45.685147 34.263696 51.395743
7058   0  1 48.540485 34.263694 48.540408
7059   0  1 48.540449 34.263685 51.395712
14638  0  1 47.112826 32.836041 49.968086
14658  0  1 47.112832 35.691352 49.968091
7458   0  1 51.395756 34.263681 48.540348
7459   0  1 51.395739 34.263676 51.395668
15038  0  1 49.968107 32.836034 49.968034
15058  0  1 49.968113 35.691335 49.968039
15438  0  1 52.823390 32.836028 49.967984
15458  0  1 52.823395 35.691319 49.967989
7858   0  1 54.251040 34.263671 48.540300
7859   0  1 54.251031 34.263667 51.395626
15838  0  1 55.678682 32.836023 49.967944
15858  0  1 55.678686 35.691307 49.967948
4298   0  1 28.553175 39.974398 48.540222
4278   0  1 28.553197 37.119036 48.540109
4279   0  1 28.553181 37.119008 51.395467
4299   0  1 28.553166 39.974337 51.395527
4678   0  1 31.408508 37.119067 48.540188
4679   0  1 31.408478 37.119025 51.395513
4698   0  1 31.408516 39.974432 48.540293
4699   0  1 31.408483 39.974357 51.395571
12278  0  1 29.980834 38.546702 49.967851
5078   0  1 34.263854 37.119087 48.540296
5079   0  1 34.263796 37.119035 51.395576
5098   0  1 34.263881 39.974456 48.540383
5099   0  1 34.263816 39.974369 51.395628
12678  0  1 32.836160 38.546723 49.967920
13078  0  1 35.691508 38.546734 49.968004
5478   0  1 37.119227 37.119094 48.540412
5479   0  1 37.119136 37.119038 51.395649
5498   0  1 37.119260 39.974463 48.540474
5499   0  1 37.119162 39.974373 51.395690
5878   0  1 39.974600 37.119087 48.540497
5879   0  1 39.974488 37.119034 51.395714
5898   0  1 39.974627 39.974449 48.540535
5899   0  1 39.974513 39.974367 51.395743
13478  0  1 38.546870 38.546734 49.968084
6278   0  1 42.829937 37.119066 48.540518
6279   0  1 42.829834 37.119024 51.395751
6298   0  1 42.829956 39.974415 48.540542
6299   0  1 42.829853 39.974350 51.395769
13878  0  1 41.402224 38.546721 49.968134
14278  0  1 44.257550 38.546698 49.968138
6678   0  1 45.685227 37.119036 48.540481
6679   0  1 45.685157 37.119007 51.395750
6698   0  1 45.685243 39.974371 48.540500
6699   0  1 45.685171 39.974326 51.395763
7078   0  1 48.540495 37.119007 48.540419
7079   0  1 48.540457 37.118988 51.395718
7098   0  1 48.540508 39.974327 48.540437
7099   0  1 48.540467 39.974299 51.395729
14678  0  1 47.112844 38.546669 49.968103
7478   0  1 51.395764 37.118982 48.540359
7479   0  1 51.395746 37.118970 51.395674
7498   0  1 51.395773 39.974291 48.540377
7499   0  1 51.395753 39.974273 51.395685
15078  0  1 49.968122 38.546641 49.968051
15478  0  1 52.823401 38.546617 49.968001
7878   0  1 54.251045 37.118963 48.540311
7879   0  1 54.251035 37.118955 51.395632
7898   0  1 54.251049 39.974262 48.540329
7899   0  1 54.251038 39.974251 51.395644
15878  0  1 55.678688 38.546597 49.967961
12298  0  1 29.980831 41.402053 49.967945
4318   0  1 28.553166 42.829778 48.540357
4319   0  1 28.553158 42.829679 51.395606
4718   0  1 31.408528 42.829809 48.540414
4719   0  1 31.408492 42.829699 51.395645
12318  0  1 29.980835 44.257415 49.968046
12698  0  1 32.836176 41.402076 49.968004
13098  0  1 35.691536 41.402088 49.968071
5118   0  1 34.263905 42.829829 48.540480
5119   0  1 34.263837 42.829712 51.395692
12718  0  1 32.836193 44.257433 49.968092
13118  0  1 35.691558 44.257442 49.968139
5518   0  1 37.119286 42.829832 48.540540
5519   0  1 37.119188 42.829715 51.395740
13498  0  1 38.546899 41.402086 49.968131
5918   0  1 39.974649 42.829812 48.540575
5919   0  1 39.974538 42.829706 51.395777
13518  0  1 38.546920 44.257437 49.968176
13898  0  1 41.402248 41.402066 49.968163
14298  0  1 44.257567 41.402033 49.968158
6318   0  1 42.829973 42.829768 48.540566
6319   0  1 42.829874 42.829685 51.395791
13918  0  1 41.402266 44.257413 49.968192
14318  0  1 44.257582 44.257372 49.968176
14698  0  1 47.112857 41.401993 49.968119
6718   0  1 45.685258 42.829711 48.540520
6719   0  1 45.685187 42.829653 51.395778
7118   0  1 48.540521 42.829655 48.540457
7119   0  1 48.540479 42.829618 51.395743
14718  0  1 47.112869 44.257324 49.968136
15098  0  1 49.968132 41.401955 49.968067
15498  0  1 52.823407 41.401923 49.968018
7518   0  1 51.395782 42.829608 48.540398
7519   0  1 51.395760 42.829585 51.395700
15118  0  1 49.968141 44.257277 49.968085
15518  0  1 52.823410 44.257239 49.968038
15898  0  1 55.678688 41.401898 49.967979
7918   0  1 54.251052 42.829573 48.540352
7919   0  1 54.251039 42.829557 51.395660
15918  0  1 55.678684 44.257210 49.968002
4338   0  1 28.553167 45.685154 48.540473
4339   0  1 28.553158 45.685030 51.395688
4358   0  1 28.553172 48.540492 48.540535
4359   0  1 28.553161 48.540373 51.395750
4738   0  1 31.408538 45.685175 48.540512
4739   0  1 31.408503 45.685046 51.395719
4758   0  1 31.408543 48.540505 48.540560
4759   0  1 31.408512 48.540384 51.395773
12338  0  1 29.980842 47.112768 49.968127
5138   0  1 34.263918 45.685187 48.540554
5139   0  1 34.263854 45.685056 51.395753
5158   0  1 34.263918 48.540509 48.540584
5159   0  1 34.263866 48.540390 51.395796
12738  0  1 32.836204 47.112780 49.968157
13138  0  1 35.691569 47.112783 49.968186
5538   0  1 37.119295 45.685184 48.540588
5539   0  1 37.119209 45.685057 51.395786
5558   0  1 37.119288 48.540501 48.540600
5559   0  1 37.119220 48.540388 51.395815
5938   0  1 39.974655 45.685159 48.540600
5939   0  1 39.974557 45.685045 51.395807
5958   0  1 39.974643 48.540477 48.540601
5959   0  1 39.974566 48.540375 51.395825
13538  0  1 38.546929 47.112774 49.968206
6338   0  1 42.829980 45.685112 48.540582
6339   0  1 42.829889 45.685020 51.395811
6358   0  1 42.829969 48.540434 48.540580
6359   0  1 42.829896 48.540349 51.395821
13938  0  1 41.402272 47.112748 49.968208
14338  0  1 44.257587 47.112706 49.968187
6738   0  1 45.685266 45.685049 48.540534
6739   0  1 45.685199 45.684984 51.395792
6758   0  1 45.685262 48.540376 48.540538
6759   0  1 45.685204 48.540313 51.395800
7138   0  1 48.540530 45.684986 48.540475
7139   0  1 48.540487 45.684944 51.395757
7158   0  1 48.540531 48.540314 48.540487
7159   0  1 48.540491 48.540272 51.395767
14738  0  1 47.112875 47.112655 49.968148
7538   0  1 51.395788 45.684933 48.540420
7539   0  1 51.395764 45.684906 51.395716
7558   0  1 51.395789 48.540260 48.540439
7559   0  1 51.395764 48.540233 51.395730
15138  0  1 49.968146 47.112604 49.968101
15538  0  1 52.823410 47.112563 49.968059
7938   0  1 54.251051 45.684893 48.540378
7939   0  1 54.251038 45.684875 51.395679
7958   0  1 54.251046 48.540220 48.540403
7959   0  1 54.251032 48.540201 51.395697
15938  0  1 55.678676 47.112533 49.968027
4378   0  1 28.553175 51.395783 48.540544
4379   0  1 28.553166 51.395693 51.395782
4778   0  1 31.408542 51.395790 48.540560
4779   0  1 31.408519 51.395701 51.395798
12358  0  1 29.980848 49.968092 49.968167
12378  0  1 29.980851 52.823382 49.968171
5178   0  1 34.263908 51.395790 48.540574
5179   0  1 34.263872 51.395703 51.395813
12758  0  1 32.836209 49.968098 49.968186
12778  0  1 32.836208 52.823385 49.968184
13158  0  1 35.691570 49.968097 49.968203
13178  0  1 35.691564 52.823383 49.968194
5578   0  1 37.119270 51.395783 48.540582
5579   0  1 37.119223 51.395699 51.395823
5978   0  1 39.974619 51.395763 48.540579
5979   0  1 39.974565 51.395687 51.395827
13558  0  1 38.546925 49.968086 49.968211
13578  0  1 38.546914 52.823374 49.968198
6378   0  1 42.829947 51.395730 48.540561
6379   0  1 42.829893 51.395665 51.395819
13958  0  1 41.402265 49.968062 49.968207
13978  0  1 41.402250 52.823356 49.968192
14358  0  1 44.257581 49.968025 49.968186
14378  0  1 44.257566 52.823328 49.968175
6778   0  1 45.685247 51.395684 48.540530
6779   0  1 45.685200 51.395633 51.395800
7178   0  1 48.540522 51.395633 48.540490
7179   0  1 48.540488 51.395597 51.395772
14758  0  1 47.112872 49.967979 49.968152
14778  0  1 47.112861 52.823292 49.968149
7578   0  1 51.395782 51.395586 48.540452
7579   0  1 51.395760 51.395562 51.395741
15158  0  1 49.968144 49.967932 49.968112
15178  0  1 49.968135 52.823254 49.968118
15558  0  1 52.823406 49.967892 49.968076
15578  0  1 52.823397 52.823221 49.968089
7978   0  1 54.251036 51.395551 48.540423
7979   0  1 54.251023 51.395533 51.395714
15958  0  1 55.678665 49.967864 49.968050
15978  0  1 55.678652 52.823198 49.968069
4398   0  1 28.553177 54.251040 48.540525
4399   0  1 28.553170 54.250987 51.395788
4798   0  1 31.408538 54.251045 48.540537
4799   0  1 31.408522 54.250992 51.395800
12398  0  1 29.980852 55.678647 49.968158
5198   0  1 34.263897 54.251045 48.540546
5199   0  1 34.263873 54.250994 51.395810
12798  0  1 32.836206 55.678650 49.968167
13198  0  1 35.691557 55.678649 49.968175
5598   0  1 37.119251 54.251040 48.540551
5599   0  1 37.119220 54.250990 51.395816
5998   0  1 39.974595 54.251028 48.540549
5999   0  1 39.974559 54.250981 51.395817
13598  0  1 38.546901 55.678644 49.968177
6398   0  1 42.829921 54.251007 48.540537
6399   0  1 42.829884 54.250965 51.395810
13998  0  1 41.402234 55.678633 49.968173
14398  0  1 44.257550 55.678616 49.968161
6819   0  1 48.540470 57.106227 51.395771
6798   0  1 45.685226 54.250977 48.540515
6799   0  1 45.685191 54.250943 51.395794
7198   0  1 48.540507 54.250941 48.540487
7199   0  1 48.540480 54.250916 51.395772
14798  0  1 47.112847 55.678594 49.968142
7219   0  1 51.395742 57.106211 51.395752
7218   0  1 51.395758 57.106220 48.540461
7598   0  1 51.395771 54.250907 48.540459
7599   0  1 51.395751 54.250889 51.395748
15198  0  1 49.968124 55.678569 49.968119
15598  0  1 52.823386 55.678546 49.968097
7619   0  1 54.251002 57.106197 51.395734
7618   0  1 54.251012 57.106203 48.540445
7998   0  1 54.251024 54.250880 48.540437
7999   0  1 54.251013 54.250867 51.395726
15998  0  1 55.678639 55.678530 49.968082
4240   0  1 28.553176 31.408379 54.250811
4640   0  1 31.408456 31.408383 54.250837
12219  0  1 29.980828 29.980718 52.823145
12220  0  1 29.980803 29.980732 55.678510
4621   0  1 31.408434 31.408390 57.106198
4221   0  1 28.553153 31.408388 57.106182
5040   0  1 34.263750 31.408387 54.250875
12619  0  1 32.836116 29.980723 52.823187
12620  0  1 32.836090 29.980736 55.678534
13019  0  1 35.691427 29.980728 52.823243
13020  0  1 35.691391 29.980739 55.678566
5021   0  1 34.263725 31.408391 57.106219
5440   0  1 37.119065 31.408389 54.250921
5840   0  1 39.974399 31.408390 54.250968
13419  0  1 38.546760 29.980733 52.823304
13420  0  1 38.546710 29.980740 55.678601
6240   0  1 42.829739 31.408389 54.251003
13819  0  1 41.402106 29.980735 52.823356
13820  0  1 41.402042 29.980741 55.678634
14219  0  1 44.257445 29.980737 52.823381
14220  0  1 44.257378 29.980741 55.678656
6640   0  1 45.685074 31.408387 54.251016
7040   0  1 48.540395 31.408386 54.251005
14619  0  1 47.112767 29.980738 52.823375
14620  0  1 47.112708 29.980741 55.678658
7440   0  1 51.395703 31.408384 54.250976
15019  0  1 49.968071 29.980740 52.823345
15020  0  1 49.968027 29.980742 55.678642
15419  0  1 52.823368 29.980742 52.823306
15420  0  1 52.823338 29.980743 55.678614
7840   0  1 54.251007 31.408383 54.250942
15819  0  1 55.678666 29.980743 52.823270
15820  0  1 55.678646 29.980743 55.678584
4260   0  1 28.553173 34.263687 54.250812
4660   0  1 31.408456 34.263694 54.250838
12239  0  1 29.980825 32.836034 52.823136
12240  0  1 29.980803 32.836038 55.678505
12259  0  1 29.980821 35.691349 52.823149
12260  0  1 29.980804 35.691343 55.678510
4241   0  1 28.553154 34.263690 57.106181
4641   0  1 31.408437 34.263692 57.106198
5060   0  1 34.263753 34.263696 54.250876
12639  0  1 32.836112 32.836041 52.823178
12640  0  1 32.836089 32.836041 55.678530
12659  0  1 32.836116 35.691357 52.823191
12660  0  1 32.836096 35.691345 55.678535
13039  0  1 35.691423 32.836044 52.823235
13040  0  1 35.691391 32.836041 55.678561
13059  0  1 35.691432 35.691360 52.823247
13060  0  1 35.691401 35.691344 55.678566
5041   0  1 34.263731 34.263690 57.106219
5460   0  1 37.119070 34.263696 54.250922
5860   0  1 39.974403 34.263693 54.250968
13439  0  1 38.546757 32.836046 52.823298
13440  0  1 38.546710 32.836039 55.678597
13459  0  1 38.546768 35.691359 52.823306
13460  0  1 38.546721 35.691339 55.678601
6260   0  1 42.829744 34.263689 54.251002
13839  0  1 41.402104 32.836044 52.823350
13840  0  1 41.402042 32.836036 55.678630
13859  0  1 41.402113 35.691355 52.823355
13860  0  1 41.402053 35.691334 55.678632
14239  0  1 44.257444 32.836041 52.823376
14240  0  1 44.257379 32.836033 55.678651
14259  0  1 44.257452 35.691346 52.823379
14260  0  1 44.257389 35.691327 55.678651
6660   0  1 45.685078 34.263683 54.251014
7060   0  1 48.540399 34.263676 54.251003
14639  0  1 47.112768 32.836036 52.823371
14640  0  1 47.112710 32.836029 55.678654
14659  0  1 47.112774 35.691335 52.823372
14660  0  1 47.112718 35.691320 55.678652
7460   0  1 51.395708 34.263669 54.250974
15039  0  1 49.968073 32.836031 52.823341
15040  0  1 49.968030 32.836026 55.678638
15059  0  1 49.968079 35.691323 52.823343
15060  0  1 49.968037 35.691313 55.678636
15439  0  1 52.823371 32.836026 52.823303
15440  0  1 52.823342 32.836023 55.678610
15459  0  1 52.823376 35.691312 52.823305
15460  0  1 52.823346 35.691306 55.678609
7860   0  1 54.251011 34.263663 54.250940
15839  0  1 55.678671 32.836022 52.823267
15840  0  1 55.678650 32.836021 55.678580
15859  0  1 55.678674 35.691303 52.823269
15860  0  1 55.678653 35.691300 55.678579
4280   0  1 28.553166 37.118996 54.250827
4300   0  1 28.553159 39.974308 54.250857
4680   0  1 31.408459 37.119004 54.250855
4700   0  1 31.408465 39.974318 54.250884
12279  0  1 29.980817 38.546667 52.823182
12280  0  1 29.980805 38.546650 55.678525
4261   0  1 28.553154 37.118992 57.106186
4281   0  1 28.553153 39.974298 57.106196
4661   0  1 31.408444 37.118994 57.106203
4681   0  1 31.408454 39.974300 57.106214
5080   0  1 34.263764 37.119007 54.250892
5100   0  1 34.263781 39.974323 54.250920
12679  0  1 32.836126 38.546677 52.823224
12680  0  1 32.836106 38.546653 55.678550
13079  0  1 35.691451 38.546681 52.823275
13080  0  1 35.691418 38.546651 55.678580
5061   0  1 34.263744 37.118991 57.106224
5480   0  1 37.119085 37.119005 54.250935
5500   0  1 37.119108 39.974322 54.250958
5880   0  1 39.974419 37.119001 54.250977
5900   0  1 39.974442 39.974316 54.250995
13479  0  1 38.546789 38.546679 52.823328
13480  0  1 38.546741 38.546646 55.678612
6280   0  1 42.829757 37.118993 54.251008
6300   0  1 42.829778 39.974305 54.251019
13879  0  1 41.402132 38.546671 52.823370
13880  0  1 41.402073 38.546638 55.678639
14279  0  1 44.257467 38.546658 52.823389
14280  0  1 44.257405 38.546628 55.678655
6680   0  1 45.685089 37.118983 54.251017
6700   0  1 45.685105 39.974290 54.251024
7080   0  1 48.540408 37.118971 54.251005
7100   0  1 48.540419 39.974274 54.251010
14679  0  1 47.112785 38.546641 52.823379
14680  0  1 47.112731 38.546617 55.678654
7480   0  1 51.395714 37.118959 54.250976
7500   0  1 51.395721 39.974257 54.250981
15079  0  1 49.968087 38.546622 52.823349
15080  0  1 49.968046 38.546606 55.678637
15479  0  1 52.823381 38.546605 52.823311
15480  0  1 52.823352 38.546595 55.678610
7880   0  1 54.251015 37.118949 54.250942
7900   0  1 54.251017 39.974242 54.250948
15879  0  1 55.678675 38.546591 52.823275
15880  0  1 55.678655 38.546586 55.678580
12299  0  1 29.980816 41.401992 52.823234
12300  0  1 29.980808 41.401962 55.678549
4320   0  1 28.553155 42.829630 54.250898
4720   0  1 31.408474 42.829641 54.250925
12319  0  1 29.980820 44.257327 52.823295
12320  0  1 29.980813 44.257283 55.678578
4301   0  1 28.553152 42.829610 57.106210
4701   0  1 31.408465 42.829614 57.106228
12699  0  1 32.836140 41.402004 52.823272
12700  0  1 32.836121 41.401966 55.678573
13099  0  1 35.691474 41.402009 52.823316
13100  0  1 35.691440 41.401966 55.678600
5120   0  1 34.263800 42.829647 54.250956
12719  0  1 32.836155 44.257339 52.823328
12720  0  1 32.836136 44.257288 55.678600
13119  0  1 35.691496 44.257344 52.823363
13120  0  1 35.691463 44.257289 55.678624
5520   0  1 37.119133 42.829646 54.250988
13499  0  1 38.546815 41.402007 52.823360
13500  0  1 38.546767 41.401960 55.678628
5920   0  1 39.974469 42.829640 54.251017
13519  0  1 38.546840 44.257341 52.823395
13520  0  1 38.546794 44.257284 55.678646
13899  0  1 41.402156 41.401996 52.823392
13900  0  1 41.402097 41.401951 55.678650
14299  0  1 44.257486 41.401978 52.823403
14300  0  1 44.257426 41.401939 55.678661
6320   0  1 42.829801 42.829626 54.251034
13919  0  1 41.402179 44.257328 52.823416
13920  0  1 41.402124 44.257274 55.678663
14319  0  1 44.257505 44.257306 52.823418
14320  0  1 44.257448 44.257260 55.678669
14699  0  1 47.112799 41.401955 52.823389
14700  0  1 47.112747 41.401924 55.678658
6720   0  1 45.685123 42.829608 54.251034
7120   0  1 48.540431 42.829586 54.251017
14719  0  1 47.112812 44.257277 52.823401
14720  0  1 47.112763 44.257242 55.678662
15099  0  1 49.968096 41.401930 52.823358
15100  0  1 49.968056 41.401909 55.678640
15499  0  1 52.823385 41.401907 52.823321
15500  0  1 52.823357 41.401894 55.678613
7520   0  1 51.395728 42.829564 54.250988
15119  0  1 49.968105 44.257247 52.823370
15120  0  1 49.968067 44.257222 55.678644
15519  0  1 52.823388 44.257219 52.823334
15520  0  1 52.823361 44.257204 55.678618
15899  0  1 55.678674 41.401888 52.823287
15900  0  1 55.678654 41.401882 55.678584
7920   0  1 54.251019 42.829545 54.250957
15919  0  1 55.678671 44.257198 52.823302
15920  0  1 55.678651 44.257190 55.678591
4340   0  1 28.553154 45.684962 54.250945
4360   0  1 28.553157 48.540297 54.250987
4740   0  1 31.408484 45.684972 54.250968
4760   0  1 31.408495 48.540306 54.251007
12339  0  1 29.980826 47.112667 52.823353
12340  0  1 29.980819 47.112613 55.678608
4321   0  1 28.553153 45.684932 57.106226
5140   0  1 34.263819 45.684978 54.250994
5160   0  1 34.263835 48.540310 54.251026
12739  0  1 32.836169 47.112677 52.823378
12740  0  1 32.836151 47.112618 55.678628
13139  0  1 35.691515 47.112680 52.823403
13140  0  1 35.691484 47.112619 55.678647
5540   0  1 37.119156 45.684977 54.251019
5560   0  1 37.119175 48.540309 54.251044
5940   0  1 39.974493 45.684970 54.251039
5960   0  1 39.974511 48.540301 54.251056
13539  0  1 38.546860 47.112676 52.823424
13540  0  1 38.546818 47.112615 55.678663
6340   0  1 42.829822 45.684955 54.251048
6360   0  1 42.829839 48.540285 54.251059
13939  0  1 41.402196 47.112661 52.823435
13940  0  1 41.402147 47.112604 55.678674
14339  0  1 44.257519 47.112637 52.823431
14340  0  1 44.257468 47.112588 55.678676
6740   0  1 45.685140 45.684933 54.251043
6760   0  1 45.685152 48.540263 54.251051
7140   0  1 48.540443 45.684908 54.251025
7160   0  1 48.540450 48.540236 54.251031
14739  0  1 47.112823 47.112605 52.823411
14740  0  1 47.112778 47.112568 55.678667
7540   0  1 51.395733 45.684882 54.250997
7560   0  1 51.395736 48.540209 54.251006
15139  0  1 49.968110 47.112572 52.823380
15140  0  1 49.968075 47.112546 55.678648
15539  0  1 52.823388 47.112541 52.823347
15540  0  1 52.823363 47.112525 55.678624
7940   0  1 54.251017 45.684860 54.250967
7960   0  1 54.251013 48.540186 54.250979
15939  0  1 55.678664 47.112519 52.823319
15940  0  1 55.678646 47.112510 55.678600
4380   0  1 28.553161 51.395627 54.251017
4780   0  1 31.408504 51.395634 54.251032
12359  0  1 29.980833 49.968000 52.823394
12360  0  1 29.980826 49.967945 55.678633
12379  0  1 29.980839 52.823316 52.823414
12380  0  1 29.980833 52.823272 55.678650
5180   0  1 34.263847 51.395637 54.251046
12759  0  1 32.836180 49.968007 52.823413
12760  0  1 32.836164 49.967950 55.678649
12779  0  1 32.836187 52.823320 52.823427
12780  0  1 32.836174 52.823276 55.678663
13159  0  1 35.691527 49.968008 52.823429
13160  0  1 35.691501 49.967950 55.678664
13179  0  1 35.691534 52.823320 52.823438
13180  0  1 35.691513 52.823276 55.678674
5580   0  1 37.119188 51.395635 54.251058
5980   0  1 39.974523 51.395627 54.251065
13559  0  1 38.546871 49.968002 52.823441
13560  0  1 38.546836 49.967946 55.678676
13579  0  1 38.546875 52.823314 52.823445
13580  0  1 38.546848 52.823273 55.678682
6380   0  1 42.829848 51.395612 54.251064
13959  0  1 41.402206 49.967987 52.823445
13960  0  1 41.402165 49.967936 55.678682
13979  0  1 41.402207 52.823302 52.823445
13980  0  1 41.402175 52.823264 55.678686
14359  0  1 44.257525 49.967964 52.823436
14360  0  1 44.257483 49.967920 55.678680
14379  0  1 44.257525 52.823282 52.823436
14380  0  1 44.257491 52.823250 55.678683
14780  0  1 47.112793 52.823232 55.678673
14779  0  1 47.112825 52.823257 52.823418
14760  0  1 47.112788 49.967900 55.678670
14759  0  1 47.112827 49.967933 52.823417
7180   0  1 48.540453 51.395566 54.251036
6780   0  1 45.685158 51.395591 54.251054
15580  0  1 52.823357 52.823193 55.678637
15579  0  1 52.823378 52.823204 52.823371
15560  0  1 52.823361 49.967856 55.678631
15559  0  1 52.823385 49.967871 52.823360
15180  0  1 49.968081 52.823212 55.678657
15179  0  1 49.968108 52.823229 52.823395
15160  0  1 49.968080 49.967877 55.678653
15159  0  1 49.968111 49.967900 52.823389
7580   0  1 51.395734 51.395541 54.251013
15980  0  1 55.678627 52.823178 55.678618
15979  0  1 55.678642 52.823185 52.823350
15960  0  1 55.678637 49.967840 55.678609
15959  0  1 55.678654 49.967849 52.823335
7980   0  1 54.251006 51.395520 54.250990
12400  0  1 29.980837 55.678586 55.678658
12399  0  1 29.980843 55.678611 52.823418
4800   0  1 31.408510 54.250948 54.251043
4400   0  1 28.553165 54.250943 54.251031
13200  0  1 35.691520 55.678591 55.678679
13199  0  1 35.691536 55.678615 52.823436
12800  0  1 32.836180 55.678590 55.678670
12799  0  1 32.836191 55.678614 52.823428
5200   0  1 34.263854 54.250950 54.251054
13600  0  1 38.546854 55.678589 55.678686
13599  0  1 38.546875 55.678611 52.823441
6000   0  1 39.974528 54.250942 54.251066
5600   0  1 37.119195 54.250948 54.251063
14400  0  1 44.257493 55.678574 55.678685
14399  0  1 44.257520 55.678591 52.823432
14000  0  1 41.402180 55.678583 55.678688
13999  0  1 41.402204 55.678604 52.823439
6400   0  1 42.829850 54.250931 54.251064
14800  0  1 47.112792 55.678561 55.678675
14799  0  1 47.112818 55.678574 52.823417
7200   0  1 48.540451 54.250895 54.251039
6800   0  1 45.685159 54.250915 54.251055
6820   0  1 48.540446 57.106219 54.251041
6420   0  1 45.685155 57.106231 54.251055
15199  0  1 49.968101 55.678555 52.823398
7220   0  1 51.395722 57.106206 54.251024
15600  0  1 52.823350 55.678531 55.678643
7600   0  1 51.395729 54.250875 54.251019
15599  0  1 52.823369 55.678536 52.823378
15200  0  1 49.968077 55.678546 55.678661
16000  0  1 55.678617 55.678519 55.678626
15999  0  1 55.678631 55.678523 52.823361
7620   0  1 54.250988 57.106194 54.251007
8000   0  1 54.250997 54.250857 54.250999

