Generated by pymatgen.io.lammps.data.LammpsData

531  atoms

  2  atom types

0.000000 57.106232  xlo xhi
0.000000 57.106232  ylo yhi
0.000000 57.106232  zlo zhi
0.000000 0.000000 0.000000  xy xz yz

Masses

1  55.847
2   4.001

Atoms

11767  1  1 27.125263 24.269575 18.558866
11387  1  1 24.269575 27.125263 18.558866
11787  1  1 27.125263 27.125263 18.559161
3749   1  1 25.697222 19.985996 22.841404
3369   1  1 22.840919 22.840919 22.840919
10968  1  1 21.413450 24.269127 21.413450
11348  1  1 24.269127 21.413450 21.413450
11368  1  1 24.268536 24.268536 21.412888
3768   1  1 25.697222 22.841404 19.985996
3769   1  1 25.696404 22.840460 22.840460
11748  1  1 27.125141 21.413581 21.413581
11768  1  1 27.124944 24.268655 21.413223
2989   1  1 19.985996 25.697222 22.841404
3388   1  1 22.841404 25.697222 19.985996
3389   1  1 22.840460 25.696404 22.840460
10988  1  1 21.413581 27.125141 21.413581
11388  1  1 24.268655 27.124944 21.413223
3788   1  1 25.697069 25.697069 19.986131
3789   1  1 25.695164 25.695164 22.839243
11788  1  1 27.124676 27.124676 21.413560
3350   1  1 22.841404 19.985996 25.697222
11330  1  1 24.269575 18.558866 27.125263
3750   1  1 25.697069 19.986131 25.697069
11729  1  1 27.125263 18.558866 24.269575
11730  1  1 27.125263 18.559161 27.125263
10570  1  1 18.558866 24.269575 27.125263
2970   1  1 19.985996 22.841404 25.697222
3370   1  1 22.840460 22.840460 25.696404
10949  1  1 21.413450 21.413450 24.269127
10950  1  1 21.413581 21.413581 27.125141
10969  1  1 21.412888 24.268536 24.268536
10970  1  1 21.413223 24.268655 27.124944
11349  1  1 24.268536 21.412888 24.268536
11350  1  1 24.268655 21.413223 27.124944
11369  1  1 24.267936 24.267936 24.267936
11370  1  1 24.267014 24.267014 27.123635
3770   1  1 25.695164 22.839243 25.695164
11749  1  1 27.124944 21.413223 24.268655
11750  1  1 27.124676 21.413560 27.124676
11769  1  1 27.123635 24.267014 24.267014
11770  1  1 27.120204 24.264561 27.120204
2990   1  1 19.986131 25.697069 25.697069
10589  1  1 18.558866 27.125263 24.269575
10590  1  1 18.559161 27.125263 27.125263
11390  1  1 24.264561 27.120204 27.120204
11389  1  1 24.267014 27.123635 24.267014
10990  1  1 21.413560 27.124676 27.124676
10989  1  1 21.413223 27.124944 24.268655
3390   1  1 22.839243 25.695164 25.695164
3790   1  1 25.694776 25.694776 25.694776
11789  1  1 27.120204 27.120204 24.264561
11790  1  1 27.119397 27.119397 27.119397
3351   1  1 22.841458 19.986089 28.553116
3352   1  1 22.841404 19.985996 31.409011
11331  1  1 24.269575 18.558866 29.980970
3752   1  1 25.697069 19.986131 31.409164
11731  1  1 27.125263 18.559161 29.980970
11732  1  1 27.125263 18.558866 32.836658
3751   1  1 25.697163 19.986398 28.553116
10571  1  1 18.558866 24.269575 29.980970
2971   1  1 19.986089 22.841458 28.553116
2972   1  1 19.985996 22.841404 31.409011
3371   1  1 22.840732 22.840732 28.553116
3372   1  1 22.840460 22.840460 31.409829
10951  1  1 21.413581 21.413581 29.981092
10952  1  1 21.413450 21.413450 32.837106
10971  1  1 21.413223 24.268655 29.981289
10972  1  1 21.412888 24.268536 32.837696
11351  1  1 24.268655 21.413223 29.981289
11352  1  1 24.268536 21.412888 32.837696
11371  1  1 24.267014 24.267014 29.982597
11372  1  1 24.267936 24.267936 32.838297
3771   1  1 25.695753 22.840107 28.553116
3772   1  1 25.695164 22.839243 31.411069
11751  1  1 27.124676 21.413560 29.981557
11752  1  1 27.124944 21.413223 32.837578
11771  1  1 27.120204 24.264561 29.986029
11772  1  1 27.123635 24.267013 32.839219
10592  1  1 18.558866 27.125263 32.836658
10591  1  1 18.559161 27.125263 29.980970
2992   1  1 19.986131 25.697069 31.409164
2991   1  1 19.986398 25.697163 28.553116
3391   1  1 22.840107 25.695753 28.553116
3392   1  1 22.839243 25.695164 31.411069
10991  1  1 21.413560 27.124676 29.981557
10992  1  1 21.413223 27.124944 32.837578
11391  1  1 24.264561 27.120204 29.986029
11392  1  1 24.267013 27.123635 32.839219
3791   1  1 25.691575 25.691575 28.553116
3792   1  1 25.694776 25.694776 31.411457
11791  1  1 27.119397 27.119397 29.986836
11792  1  1 27.120204 27.120204 32.841672
3753   1  1 25.697222 19.985996 34.264829
3373   1  1 22.840919 22.840919 34.265314
10973  1  1 21.413450 24.269127 35.692783
11353  1  1 24.269127 21.413450 35.692783
11373  1  1 24.268536 24.268536 35.693344
3773   1  1 25.696404 22.840460 34.265773
3774   1  1 25.697222 22.841404 37.120237
11753  1  1 27.125141 21.413581 35.692652
11773  1  1 27.124944 24.268655 35.693010
2993   1  1 19.985996 25.697222 34.264829
3393   1  1 22.840460 25.696404 34.265773
3394   1  1 22.841404 25.697222 37.120237
10993  1  1 21.413581 27.125141 35.692652
11393  1  1 24.268655 27.124944 35.693010
3793   1  1 25.695164 25.695164 34.266990
3794   1  1 25.697069 25.697069 37.120102
11793  1  1 27.124676 27.124676 35.692673
11774  1  1 27.125263 24.269575 38.547367
11394  1  1 24.269575 27.125263 38.547367
11794  1  1 27.125263 27.125263 38.547072
11407  1  1 24.269575 29.980970 18.558866
11807  1  1 27.125263 29.980970 18.559161
11827  1  1 27.125263 32.836658 18.558866
3009   1  1 19.986089 28.553116 22.841458
3029   1  1 19.985996 31.409011 22.841404
3408   1  1 22.841458 28.553116 19.986089
3409   1  1 22.840732 28.553116 22.840732
3428   1  1 22.841404 31.409011 19.985996
3429   1  1 22.840460 31.409829 22.840460
11008  1  1 21.413581 29.981092 21.413581
11408  1  1 24.268655 29.981289 21.413223
3809   1  1 25.695753 28.553116 22.840107
3828   1  1 25.697069 31.409164 19.986131
3829   1  1 25.695164 31.411069 22.839243
11808  1  1 27.124676 29.981557 21.413560
3808   1  1 25.697163 28.553116 19.986398
3449   1  1 22.840919 34.265314 22.840919
11028  1  1 21.413450 32.837106 21.413450
11428  1  1 24.268536 32.837696 21.412888
11448  1  1 24.269127 35.692783 21.413450
3848   1  1 25.697222 34.264829 19.985996
3849   1  1 25.696404 34.265773 22.840460
11828  1  1 27.124944 32.837578 21.413223
11848  1  1 27.125141 35.692652 21.413581
3869   1  1 25.697222 37.120237 22.841404
10610  1  1 18.559161 29.980970 27.125263
10609  1  1 18.558866 29.980970 24.269575
3030   1  1 19.986131 31.409164 25.697069
3010   1  1 19.986398 28.553116 25.697163
3410   1  1 22.840107 28.553116 25.695753
3430   1  1 22.839243 31.411069 25.695164
11009  1  1 21.413223 29.981289 24.268655
11010  1  1 21.413560 29.981557 27.124676
11409  1  1 24.267014 29.982597 24.267014
11410  1  1 24.264561 29.986029 27.120204
3810   1  1 25.691575 28.553116 25.691575
3830   1  1 25.694776 31.411457 25.694776
11809  1  1 27.120204 29.986029 24.264561
11810  1  1 27.119397 29.986836 27.119397
10630  1  1 18.558866 32.836658 27.125263
3050   1  1 19.985996 34.264829 25.697222
3450   1  1 22.840460 34.265773 25.696404
11029  1  1 21.412888 32.837696 24.268536
11030  1  1 21.413223 32.837578 27.124944
11049  1  1 21.413450 35.692783 24.269127
11050  1  1 21.413581 35.692652 27.125141
11429  1  1 24.267936 32.838297 24.267936
11430  1  1 24.267013 32.839219 27.123635
11449  1  1 24.268536 35.693344 24.268536
11450  1  1 24.268655 35.693010 27.124944
3850   1  1 25.695164 34.266990 25.695164
11829  1  1 27.123635 32.839219 24.267013
11830  1  1 27.120204 32.841672 27.120204
11849  1  1 27.124944 35.693010 24.268655
11850  1  1 27.124676 35.692673 27.124676
3470   1  1 22.841404 37.120237 25.697222
11470  1  1 24.269575 38.547367 27.125263
3870   1  1 25.697069 37.120102 25.697069
11869  1  1 27.125263 38.547367 24.269575
11870  1  1 27.125263 38.547072 27.125263
10611  1  1 18.559161 29.980970 29.980970
10612  1  1 18.558866 29.980970 32.836658
3011   1  1 19.986722 28.553116 28.553116
3032   1  1 19.986131 31.409164 31.409164
3012   1  1 19.986398 28.553116 31.409070
3031   1  1 19.986398 31.409070 28.553116
3411   1  1 22.839671 28.553116 28.553116
3412   1  1 22.840107 28.553116 31.410480
3431   1  1 22.840107 31.410480 28.553116
3432   1  1 22.839243 31.411069 31.411069
11011  1  1 21.413560 29.981557 29.981557
11012  1  1 21.413223 29.981289 32.837578
11411  1  1 24.264561 29.986029 29.986029
11412  1  1 24.267013 29.982597 32.839219
3811   1  1 25.653842 28.553116 28.553116
3812   1  1 25.691575 28.553116 31.414658
3831   1  1 25.691575 31.414658 28.553116
3832   1  1 25.694776 31.411457 31.411457
11811  1  1 27.119397 29.986836 29.986836
11812  1  1 27.120204 29.986029 32.841672
10631  1  1 18.558866 32.836658 29.980970
3051   1  1 19.986089 34.264775 28.553116
3052   1  1 19.985996 34.264829 31.409011
3451   1  1 22.840732 34.265501 28.553116
3452   1  1 22.840460 34.265773 31.409829
11031  1  1 21.413223 32.837578 29.981289
11032  1  1 21.412888 32.837696 32.837696
11051  1  1 21.413581 35.692652 29.981092
11052  1  1 21.413450 35.692783 32.837106
11431  1  1 24.267013 32.839219 29.982597
11432  1  1 24.267936 32.838297 32.838297
11451  1  1 24.268655 35.693010 29.981289
11452  1  1 24.268536 35.693344 32.837696
3851   1  1 25.695753 34.266125 28.553116
3852   1  1 25.695164 34.266990 31.411069
11831  1  1 27.120204 32.841672 29.986029
11832  1  1 27.123635 32.839219 32.839219
11851  1  1 27.124676 35.692673 29.981557
11852  1  1 27.124944 35.693010 32.837578
3471   1  1 22.841458 37.120144 28.553116
3472   1  1 22.841404 37.120237 31.409011
11471  1  1 24.269575 38.547367 29.980970
3872   1  1 25.697069 37.120102 31.409164
11871  1  1 27.125263 38.547072 29.980970
11872  1  1 27.125263 38.547367 32.836658
3871   1  1 25.697163 37.119835 28.553116
3013   1  1 19.986089 28.553116 34.264775
3033   1  1 19.985996 31.409011 34.264829
3413   1  1 22.840732 28.553116 34.265501
3414   1  1 22.841458 28.553116 37.120144
3433   1  1 22.840460 31.409829 34.265773
3434   1  1 22.841404 31.409011 37.120237
11013  1  1 21.413581 29.981092 35.692652
11413  1  1 24.268655 29.981289 35.693010
3813   1  1 25.695753 28.553116 34.266125
3833   1  1 25.695164 31.411069 34.266990
3834   1  1 25.697069 31.409164 37.120102
11813  1  1 27.124676 29.981557 35.692673
3814   1  1 25.697163 28.553116 37.119835
3453   1  1 22.840919 34.265314 34.265314
11033  1  1 21.413450 32.837106 35.692783
11433  1  1 24.268536 32.837696 35.693344
11453  1  1 24.269127 35.692783 35.692783
3853   1  1 25.696404 34.265773 34.265773
3854   1  1 25.697222 34.264829 37.120237
11833  1  1 27.124944 32.837578 35.693010
11853  1  1 27.125141 35.692652 35.692652
3873   1  1 25.697222 37.120237 34.264829
11414  1  1 24.269575 29.980970 38.547367
11814  1  1 27.125263 29.980970 38.547072
11834  1  1 27.125263 32.836658 38.547367
12167  1  1 29.980970 24.269575 18.558866
12187  1  1 29.980970 27.125263 18.559161
12587  1  1 32.836658 27.125263 18.558866
4149   1  1 28.553116 19.986089 22.841458
4549   1  1 31.409011 19.985996 22.841404
4168   1  1 28.553116 22.841458 19.986089
4169   1  1 28.553116 22.840732 22.840732
4568   1  1 31.409011 22.841404 19.985996
4569   1  1 31.409829 22.840460 22.840460
12168  1  1 29.981289 24.268655 21.413223
12148  1  1 29.981092 21.413581 21.413581
12548  1  1 32.837106 21.413450 21.413450
12968  1  1 35.692783 24.269127 21.413450
4969   1  1 34.265314 22.840919 22.840919
12568  1  1 32.837696 24.268536 21.412888
4189   1  1 28.553116 25.695753 22.840107
12188  1  1 29.981557 27.124676 21.413560
4588   1  1 31.409164 25.697069 19.986131
4589   1  1 31.411069 25.695164 22.839243
4188   1  1 28.553116 25.697163 19.986398
12988  1  1 35.692652 27.125141 21.413581
12588  1  1 32.837578 27.124944 21.413223
4988   1  1 34.264829 25.697222 19.985996
4989   1  1 34.265773 25.696404 22.840460
5389   1  1 37.120237 25.697222 22.841404
4150   1  1 28.553116 19.986398 25.697163
4550   1  1 31.409164 19.986131 25.697069
12129  1  1 29.980970 18.558866 24.269575
12130  1  1 29.980970 18.559161 27.125263
12530  1  1 32.836658 18.558866 27.125263
4950   1  1 34.264829 19.985996 25.697222
4170   1  1 28.553116 22.840107 25.695753
4570   1  1 31.411069 22.839243 25.695164
12170  1  1 29.986029 24.264561 27.120204
12169  1  1 29.982597 24.267014 24.267014
12150  1  1 29.981557 21.413560 27.124676
12149  1  1 29.981289 21.413223 24.268655
12550  1  1 32.837578 21.413223 27.124944
12549  1  1 32.837696 21.412888 24.268536
12970  1  1 35.693010 24.268655 27.124944
12969  1  1 35.693344 24.268536 24.268536
12950  1  1 35.692652 21.413581 27.125141
12949  1  1 35.692783 21.413450 24.269127
4970   1  1 34.265773 22.840460 25.696404
12570  1  1 32.839219 24.267013 27.123635
12569  1  1 32.838297 24.267936 24.267936
5370   1  1 37.120237 22.841404 25.697222
13370  1  1 38.547367 24.269575 27.125263
12190  1  1 29.986836 27.119397 27.119397
4190   1  1 28.553116 25.691575 25.691575
12189  1  1 29.986029 27.120204 24.264561
4590   1  1 31.411457 25.694776 25.694776
12990  1  1 35.692673 27.124676 27.124676
12989  1  1 35.693010 27.124944 24.268655
12590  1  1 32.841672 27.120204 27.120204
12589  1  1 32.839219 27.123635 24.267013
4990   1  1 34.266990 25.695164 25.695164
5390   1  1 37.120102 25.697069 25.697069
13389  1  1 38.547367 27.125263 24.269575
13390  1  1 38.547072 27.125263 27.125263
4151   1  1 28.553116 19.986722 28.553116
4552   1  1 31.409164 19.986131 31.409164
12131  1  1 29.980970 18.559161 29.980970
12132  1  1 29.980970 18.558866 32.836658
4152   1  1 28.553116 19.986398 31.409070
4551   1  1 31.409070 19.986398 28.553116
4951   1  1 34.264775 19.986089 28.553116
4952   1  1 34.264829 19.985996 31.409011
12531  1  1 32.836658 18.558866 29.980970
4171   1  1 28.553116 22.839671 28.553116
4172   1  1 28.553116 22.840107 31.410480
4571   1  1 31.410480 22.840107 28.553116
4572   1  1 31.411069 22.839243 31.411069
12151  1  1 29.981557 21.413560 29.981557
12152  1  1 29.981289 21.413223 32.837578
12171  1  1 29.986029 24.264561 29.986029
12172  1  1 29.982597 24.267013 32.839219
12972  1  1 35.693344 24.268536 32.837696
12971  1  1 35.693010 24.268655 29.981289
12952  1  1 35.692783 21.413450 32.837106
12951  1  1 35.692652 21.413581 29.981092
4971   1  1 34.265501 22.840732 28.553116
4972   1  1 34.265773 22.840460 31.409829
12572  1  1 32.838297 24.267936 32.838297
12571  1  1 32.839219 24.267013 29.982597
12551  1  1 32.837578 21.413223 29.981289
12552  1  1 32.837696 21.412888 32.837696
5371   1  1 37.120144 22.841458 28.553116
5372   1  1 37.120237 22.841404 31.409011
13371  1  1 38.547367 24.269575 29.980970
4191   1  1 28.553116 25.653842 28.553116
4192   1  1 28.553116 25.691575 31.414658
4591   1  1 31.414658 25.691575 28.553116
4592   1  1 31.411457 25.694776 31.411457
12191  1  1 29.986836 27.119397 29.986836
12192  1  1 29.986029 27.120204 32.841672
12992  1  1 35.693010 27.124944 32.837578
12991  1  1 35.692673 27.124676 29.981557
12592  1  1 32.839219 27.123635 32.839219
12591  1  1 32.841672 27.120204 29.986029
4991   1  1 34.266125 25.695753 28.553116
4992   1  1 34.266990 25.695164 31.411069
5392   1  1 37.120102 25.697069 31.409164
13391  1  1 38.547072 27.125263 29.980970
13392  1  1 38.547367 27.125263 32.836658
5391   1  1 37.119835 25.697163 28.553116
4153   1  1 28.553116 19.986089 34.264775
4553   1  1 31.409011 19.985996 34.264829
4173   1  1 28.553116 22.840732 34.265501
4174   1  1 28.553116 22.841458 37.120144
4573   1  1 31.409829 22.840460 34.265773
4574   1  1 31.409011 22.841404 37.120237
12153  1  1 29.981092 21.413581 35.692652
12173  1  1 29.981289 24.268655 35.693010
12973  1  1 35.692783 24.269127 35.692783
4973   1  1 34.265314 22.840919 34.265314
12573  1  1 32.837696 24.268536 35.693344
12553  1  1 32.837106 21.413450 35.692783
4194   1  1 28.553116 25.697163 37.119835
4193   1  1 28.553116 25.695753 34.266125
4593   1  1 31.411069 25.695164 34.266990
4594   1  1 31.409164 25.697069 37.120102
12193  1  1 29.981557 27.124676 35.692673
12993  1  1 35.692652 27.125141 35.692652
12593  1  1 32.837578 27.124944 35.693010
4993   1  1 34.265773 25.696404 34.265773
4994   1  1 34.264829 25.697222 37.120237
5393   1  1 37.120237 25.697222 34.264829
12174  1  1 29.980970 24.269575 38.547367
12194  1  1 29.980970 27.125263 38.547072
12594  1  1 32.836658 27.125263 38.547367
12207  1  1 29.980970 29.980970 18.559161
12607  1  1 32.836658 29.980970 18.558866
12227  1  1 29.980970 32.836658 18.558866
4208   1  1 28.553116 28.553116 19.986722
4209   1  1 28.553116 28.553116 22.839671
4229   1  1 28.553116 31.410480 22.840107
4609   1  1 31.410480 28.553116 22.840107
4628   1  1 31.409164 31.409164 19.986131
4629   1  1 31.411069 31.411069 22.839243
12208  1  1 29.981557 29.981557 21.413560
4608   1  1 31.409070 28.553116 19.986398
4228   1  1 28.553116 31.409070 19.986398
13008  1  1 35.692652 29.981092 21.413581
5008   1  1 34.264775 28.553116 19.986089
5009   1  1 34.265501 28.553116 22.840732
5028   1  1 34.264829 31.409011 19.985996
5029   1  1 34.265773 31.409829 22.840460
12608  1  1 32.837578 29.981289 21.413223
5409   1  1 37.120144 28.553116 22.841458
5429   1  1 37.120237 31.409011 22.841404
4248   1  1 28.553116 34.264775 19.986089
4249   1  1 28.553116 34.265501 22.840732
4648   1  1 31.409011 34.264829 19.985996
4649   1  1 31.409829 34.265773 22.840460
12228  1  1 29.981289 32.837578 21.413223
12248  1  1 29.981092 35.692652 21.413581
13028  1  1 35.692783 32.837106 21.413450
5049   1  1 34.265314 34.265314 22.840919
12628  1  1 32.837696 32.837696 21.412888
12648  1  1 32.837106 35.692783 21.413450
4269   1  1 28.553116 37.120144 22.841458
4669   1  1 31.409011 37.120237 22.841404
4210   1  1 28.553116 28.553116 25.653842
4230   1  1 28.553116 31.414658 25.691575
4610   1  1 31.414658 28.553116 25.691575
4630   1  1 31.411457 31.411457 25.694776
12209  1  1 29.986029 29.986029 24.264561
12210  1  1 29.986836 29.986836 27.119397
13010  1  1 35.692673 29.981557 27.124676
13009  1  1 35.693010 29.981289 24.268655
5010   1  1 34.266125 28.553116 25.695753
5030   1  1 34.266990 31.411069 25.695164
12609  1  1 32.839219 29.982597 24.267013
12610  1  1 32.841672 29.986029 27.120204
5430   1  1 37.120102 31.409164 25.697069
13409  1  1 38.547367 29.980970 24.269575
13410  1  1 38.547072 29.980970 27.125263
5410   1  1 37.119835 28.553116 25.697163
4250   1  1 28.553116 34.266125 25.695753
4650   1  1 31.411069 34.266990 25.695164
12229  1  1 29.982597 32.839219 24.267013
12230  1  1 29.986029 32.841672 27.120204
12249  1  1 29.981289 35.693010 24.268655
12250  1  1 29.981557 35.692673 27.124676
13050  1  1 35.692652 35.692652 27.125141
13049  1  1 35.692783 35.692783 24.269127
13030  1  1 35.693010 32.837578 27.124944
13029  1  1 35.693344 32.837696 24.268536
5050   1  1 34.265773 34.265773 25.696404
12629  1  1 32.838297 32.838297 24.267936
12630  1  1 32.839219 32.839219 27.123635
12649  1  1 32.837696 35.693344 24.268536
12650  1  1 32.837578 35.693010 27.124944
5450   1  1 37.120237 34.264829 25.697222
13430  1  1 38.547367 32.836658 27.125263
4670   1  1 31.409164 37.120102 25.697069
12269  1  1 29.980970 38.547367 24.269575
12270  1  1 29.980970 38.547072 27.125263
4270   1  1 28.553116 37.119835 25.697163
5070   1  1 34.264829 37.120237 25.697222
12670  1  1 32.836658 38.547367 27.125263
4212   1  1 28.553116 28.553116 31.452391
4231   1  1 28.553116 31.452391 28.553116
4232   1  1 28.553116 31.414658 31.414658
4611   1  1 31.452391 28.553116 28.553116
4612   1  1 31.414658 28.553116 31.414658
4631   1  1 31.414658 31.414658 28.553116
4632   1  1 31.411457 31.411457 31.411457
12211  1  1 29.986836 29.986836 29.986836
12212  1  1 29.986029 29.986029 32.841672
4211   1  2 28.553116 28.553116 28.553116
5011   1  1 34.266562 28.553116 28.553116
5012   1  1 34.266125 28.553116 31.410480
5031   1  1 34.266125 31.410480 28.553116
5032   1  1 34.266990 31.411069 31.411069
12611  1  1 32.841672 29.986029 29.986029
12612  1  1 32.839219 29.982597 32.839219
13011  1  1 35.692673 29.981557 29.981557
13012  1  1 35.693010 29.981289 32.837578
5411   1  1 37.119511 28.553116 28.553116
5432   1  1 37.120102 31.409164 31.409164
13411  1  1 38.547072 29.980970 29.980970
13412  1  1 38.547367 29.980970 32.836658
5412   1  1 37.119835 28.553116 31.409070
5431   1  1 37.119835 31.409070 28.553116
4251   1  1 28.553116 34.266562 28.553116
4252   1  1 28.553116 34.266125 31.410480
4651   1  1 31.410480 34.266125 28.553116
4652   1  1 31.411069 34.266990 31.411069
12231  1  1 29.986029 32.841672 29.986029
12232  1  1 29.982597 32.839219 32.839219
12251  1  1 29.981557 35.692673 29.981557
12252  1  1 29.981289 35.693010 32.837578
5051   1  1 34.265501 34.265501 28.553116
5052   1  1 34.265773 34.265773 31.409829
12631  1  1 32.839219 32.839219 29.982597
12632  1  1 32.838297 32.838297 32.838297
12651  1  1 32.837578 35.693010 29.981289
12652  1  1 32.837696 35.693344 32.837696
13031  1  1 35.693010 32.837578 29.981289
13032  1  1 35.693344 32.837696 32.837696
13051  1  1 35.692652 35.692652 29.981092
13052  1  1 35.692783 35.692783 32.837106
5451   1  1 37.120144 34.264775 28.553116
5452   1  1 37.120237 34.264829 31.409011
13431  1  1 38.547367 32.836658 29.980970
4271   1  1 28.553116 37.119511 28.553116
4672   1  1 31.409164 37.120102 31.409164
12271  1  1 29.980970 38.547072 29.980970
12272  1  1 29.980970 38.547367 32.836658
4272   1  1 28.553116 37.119835 31.409070
4671   1  1 31.409070 37.119835 28.553116
5071   1  1 34.264775 37.120144 28.553116
5072   1  1 34.264829 37.120237 31.409011
12671  1  1 32.836658 38.547367 29.980970
4213   1  1 28.553116 28.553116 34.266562
4214   1  1 28.553116 28.553116 37.119511
4233   1  1 28.553116 31.410480 34.266125
4613   1  1 31.410480 28.553116 34.266125
4633   1  1 31.411069 31.411069 34.266990
4634   1  1 31.409164 31.409164 37.120102
12213  1  1 29.981557 29.981557 35.692673
4234   1  1 28.553116 31.409070 37.119835
4614   1  1 31.409070 28.553116 37.119835
5013   1  1 34.265501 28.553116 34.265501
5014   1  1 34.264775 28.553116 37.120144
5033   1  1 34.265773 31.409829 34.265773
5034   1  1 34.264829 31.409011 37.120237
12613  1  1 32.837578 29.981289 35.693010
13013  1  1 35.692652 29.981092 35.692652
5413   1  1 37.120144 28.553116 34.264775
5433   1  1 37.120237 31.409011 34.264829
4253   1  1 28.553116 34.265501 34.265501
4254   1  1 28.553116 34.264775 37.120144
4653   1  1 31.409829 34.265773 34.265773
4654   1  1 31.409011 34.264829 37.120237
12233  1  1 29.981289 32.837578 35.693010
12253  1  1 29.981092 35.692652 35.692652
5053   1  1 34.265314 34.265314 34.265314
12633  1  1 32.837696 32.837696 35.693344
12653  1  1 32.837106 35.692783 35.692783
13033  1  1 35.692783 32.837106 35.692783
4273   1  1 28.553116 37.120144 34.264775
4673   1  1 31.409011 37.120237 34.264829
12214  1  1 29.980970 29.980970 38.547072
12614  1  1 32.836658 29.980970 38.547367
12234  1  1 29.980970 32.836658 38.547367

