Generated by pymatgen.io.lammps.data.LammpsData

531  atoms

  2  atom types

0.000000 57.106232  xlo xhi
0.000000 57.106232  ylo yhi
0.000000 57.106232  zlo zhi
0.000000 0.000000 0.000000  xy xz yz

Masses

1  55.847
2   4.001

Atoms

11767  1  1 27.125368 24.269459 18.558868
11387  1  1 24.269666 27.125190 18.558966
11787  1  1 27.125277 27.125130 18.559075
3749   1  1 25.697567 19.986148 22.841450
3369   1  1 22.843009 22.841792 22.841829
10968  1  1 21.413833 24.268717 21.413255
11348  1  1 24.269625 21.413809 21.413825
11368  1  1 24.269727 24.268652 21.413405
3768   1  1 25.697529 22.841449 19.986188
3769   1  1 25.697947 22.841509 22.841648
11748  1  1 27.125610 21.414006 21.414037
11768  1  1 27.125674 24.268789 21.413672
2989   1  1 19.985561 25.696753 22.840399
3388   1  1 22.841747 25.697069 19.986154
3389   1  1 22.841309 25.695122 22.840404
10988  1  1 21.414166 27.124991 21.413658
11388  1  1 24.269448 27.124345 21.413811
3788   1  1 25.697383 25.696836 19.986159
3789   1  1 25.697457 25.695364 22.840514
11788  1  1 27.124985 27.124123 21.413432
3350   1  1 22.841676 19.985956 25.696911
11330  1  1 24.269629 18.558807 27.125109
3750   1  1 25.697449 19.985954 25.696817
11729  1  1 27.125406 18.558812 24.269430
11730  1  1 27.125311 18.558934 27.125116
10570  1  1 18.558300 24.268856 27.124948
2970   1  1 19.985389 22.840207 25.696512
3370   1  1 22.841073 22.839886 25.694958
10949  1  1 21.413760 21.413128 24.268566
10950  1  1 21.413849 21.413230 27.124699
10969  1  1 21.411380 24.266176 24.266202
10970  1  1 21.411088 24.265624 27.123344
11349  1  1 24.269787 21.413253 24.268664
11350  1  1 24.269224 21.413156 27.124215
11369  1  1 24.273802 24.271005 24.271383
11370  1  1 24.268216 24.266431 27.120767
3770   1  1 25.697607 22.840005 25.695776
11749  1  1 27.125775 21.413520 24.268926
11750  1  1 27.125117 21.412854 27.124376
11769  1  1 27.126243 24.269575 24.270140
11770  1  1 27.123331 24.265496 27.121497
2990   1  1 19.984714 25.695587 25.695611
10589  1  1 18.558519 27.125157 24.269055
10590  1  1 18.558790 27.124831 27.124862
11390  1  1 24.249208 27.101230 27.103368
11389  1  1 24.268788 27.120455 24.267980
10990  1  1 21.410631 27.121196 27.121846
10989  1  1 21.411637 27.123618 24.266409
3390   1  1 22.833808 25.688206 25.688745
3790   1  1 25.710354 25.704324 25.705749
11789  1  1 27.122927 27.119760 24.266802
11790  1  1 27.162109 27.150999 27.155661
3351   1  1 22.841721 19.986061 28.552875
3352   1  1 22.841685 19.986032 31.408872
11331  1  1 24.269616 18.558830 29.980896
3752   1  1 25.697241 19.986055 31.408934
11731  1  1 27.125262 18.558999 29.980930
11732  1  1 27.125337 18.558872 32.836584
3751   1  1 25.697261 19.986159 28.552816
10571  1  1 18.558420 24.268981 29.981018
2971   1  1 19.985465 22.840323 28.552889
2972   1  1 19.985561 22.840506 31.409176
3371   1  1 22.841292 22.840294 28.552189
3372   1  1 22.841397 22.840371 31.409217
10951  1  1 21.413904 21.413337 29.980921
10952  1  1 21.413818 21.413373 32.837019
10971  1  1 21.411569 24.266025 29.981106
10972  1  1 21.412096 24.266902 32.837864
11351  1  1 24.269238 21.413280 29.980717
11352  1  1 24.269275 21.413176 32.836963
11371  1  1 24.269088 24.267107 29.980596
11372  1  1 24.271519 24.269590 32.834555
3771   1  1 25.696553 22.840097 28.551831
3772   1  1 25.696620 22.839881 31.409313
11751  1  1 27.124870 21.413077 29.981082
11752  1  1 27.125465 21.413484 32.836692
11771  1  1 27.122161 24.264766 29.982968
11772  1  1 27.125518 24.268020 32.835820
10592  1  1 18.558977 27.125293 32.836645
10591  1  1 18.559015 27.124899 29.980906
2992   1  1 19.985412 25.695988 31.409277
2991   1  1 19.985079 25.695440 28.552535
3391   1  1 22.835293 25.689215 28.550832
3392   1  1 22.836548 25.690288 31.411217
10991  1  1 21.411954 27.121526 29.980931
10992  1  1 21.412969 27.123504 32.837508
11391  1  1 24.257058 27.105567 29.984683
11392  1  1 24.262300 27.113351 32.842930
3791   1  1 25.695090 25.693488 28.546775
3792   1  1 25.705008 25.700916 31.400212
11791  1  1 27.153205 27.130136 29.948187
11792  1  1 27.122148 27.109518 32.843696
3753   1  1 25.697421 19.986113 34.264497
3373   1  1 22.842088 22.841284 34.264188
10973  1  1 21.412887 24.268057 35.693346
11353  1  1 24.269352 21.413522 35.692319
11373  1  1 24.268719 24.267327 35.693553
3773   1  1 25.697225 22.840761 34.264374
3774   1  1 25.697167 22.840751 37.120382
11753  1  1 27.125357 21.413569 35.692104
11773  1  1 27.125134 24.266774 35.693687
2993   1  1 19.985821 25.696887 34.265039
3393   1  1 22.838661 25.692747 34.267334
3394   1  1 22.841170 25.696777 37.120365
10993  1  1 21.413554 27.124967 35.692626
11393  1  1 24.268416 27.123192 35.693059
3793   1  1 25.695678 25.691637 34.267784
3794   1  1 25.696875 25.695980 37.120598
11793  1  1 27.124657 27.121492 35.693853
11774  1  1 27.125136 24.268984 38.547734
11394  1  1 24.269568 27.125268 38.547189
11794  1  1 27.125138 27.124886 38.547190
11407  1  1 24.269735 29.980895 18.559058
11807  1  1 27.125268 29.980861 18.559220
11827  1  1 27.125338 32.836415 18.559142
3009   1  1 19.985829 28.553028 22.840742
3029   1  1 19.985876 31.408851 22.840939
3408   1  1 22.841953 28.553011 19.986455
3409   1  1 22.842266 28.552418 22.841651
3428   1  1 22.841993 31.408738 19.986459
3429   1  1 22.842632 31.408308 22.841915
11008  1  1 21.414347 29.980885 21.413893
11408  1  1 24.269934 29.980548 21.414386
3809   1  1 25.697061 28.551440 22.841754
3828   1  1 25.697456 31.408672 19.986648
3829   1  1 25.697991 31.407890 22.842582
11808  1  1 27.124946 29.980592 21.414259
3808   1  1 25.697378 28.552783 19.986628
3449   1  1 22.842979 34.262322 22.842359
11028  1  1 21.414226 32.836602 21.413899
11428  1  1 24.269932 32.836043 21.414248
11448  1  1 24.269397 35.691631 21.413924
3848   1  1 25.697495 34.264062 19.986579
3849   1  1 25.697385 34.262989 22.842334
11828  1  1 27.125484 32.835872 21.414863
11848  1  1 27.125316 35.691406 21.414072
3869   1  1 25.697132 37.120085 22.840541
10610  1  1 18.559266 29.980805 27.125332
10609  1  1 18.558668 29.980963 24.269303
3030   1  1 19.986065 31.408532 25.696885
3010   1  1 19.985714 28.552714 25.696319
3410   1  1 22.836622 28.550478 25.691591
3430   1  1 22.838833 31.408450 25.693450
11009  1  1 21.412555 29.980706 24.267355
11010  1  1 21.413552 29.980433 27.124154
11409  1  1 24.271329 29.979989 24.270643
11410  1  1 24.260100 29.981057 27.112670
3810   1  1 25.696648 28.544739 25.697284
3830   1  1 25.711879 31.393979 25.710978
11809  1  1 27.122453 29.980646 24.269669
11810  1  1 27.155416 29.928005 27.158229
10630  1  1 18.559182 32.836137 27.125498
3050   1  1 19.986153 34.263669 25.697176
3450   1  1 22.839456 34.263346 25.693538
11029  1  1 21.412894 32.836096 24.267843
11030  1  1 21.414537 32.835007 27.125174
11049  1  1 21.412901 35.691691 24.267923
11050  1  1 21.412392 35.692461 27.123337
11429  1  1 24.274273 32.830693 24.273360
11430  1  1 24.266108 32.834323 27.118481
11449  1  1 24.267758 35.693190 24.266736
11450  1  1 24.257405 35.703997 27.112331
3850   1  1 25.693690 34.268543 25.692372
11829  1  1 27.125265 32.834136 24.272570
11830  1  1 27.117547 32.849831 27.119461
11849  1  1 27.125095 35.693460 24.266949
11850  1  1 27.125760 35.700945 27.117379
3470   1  1 22.837327 37.123158 25.692696
11470  1  1 24.268123 38.548936 27.123442
3870   1  1 25.696756 37.122952 25.693327
11869  1  1 27.125439 38.548373 24.267985
11870  1  1 27.125519 38.548267 27.123992
10611  1  1 18.559572 29.980596 29.980796
10612  1  1 18.559400 29.980988 32.836164
3011   1  1 19.986543 28.551924 28.552513
3032   1  1 19.987789 31.408236 31.407845
3012   1  1 19.986968 28.552464 31.408527
3031   1  1 19.987634 31.408039 28.553451
3411   1  1 22.836178 28.546449 28.549332
3412   1  1 22.840924 28.548833 31.408358
3431   1  1 22.845404 31.406123 28.554656
3432   1  1 22.847060 31.406015 31.403771
11011  1  1 21.416092 29.978823 29.980133
11012  1  1 21.415516 29.980586 32.835131
11411  1  1 24.279025 29.968984 29.978990
11412  1  1 24.269136 29.977380 32.836125
3811   1  1 25.605764 28.505418 28.512049
3812   1  1 25.680286 28.523084 31.421640
3831   1  1 25.690840 31.399752 28.541116
3832   1  1 25.702243 31.394716 31.398492
11811  1  1 27.167740 29.649713 29.877747
11812  1  1 27.122362 29.965990 32.825787
10631  1  1 18.559390 32.836205 29.980859
3051   1  1 19.986633 34.263875 28.552863
3052   1  1 19.986663 34.263660 31.408680
3451   1  1 22.839898 34.266339 28.549590
3452   1  1 22.840490 34.265568 31.410193
11031  1  1 21.416223 32.836218 29.980266
11032  1  1 21.415310 32.834648 32.835331
11051  1  1 21.413088 35.692194 29.980659
11052  1  1 21.412612 35.691910 32.837521
11431  1  1 24.272525 32.844784 29.978378
11432  1  1 24.270741 32.830574 32.834896
11451  1  1 24.261002 35.701782 29.979969
11452  1  1 24.259492 35.701686 32.846228
3851   1  1 25.667444 34.296679 28.522747
3852   1  1 25.668765 34.295110 31.434823
11831  1  1 27.068771 33.022257 29.977485
11832  1  1 27.122567 32.846401 32.834672
11851  1  1 27.122530 35.702838 29.980067
11852  1  1 27.126577 35.698897 32.841701
3471   1  1 22.838161 37.122790 28.551478
3472   1  1 22.838395 37.122329 31.409495
11471  1  1 24.268611 38.548436 29.980674
3872   1  1 25.694927 37.122878 31.410850
11871  1  1 27.125199 38.547269 29.980651
11872  1  1 27.125628 38.548036 32.837130
3871   1  1 25.694252 37.123488 28.549387
3013   1  1 19.986677 28.553340 34.264177
3033   1  1 19.986815 31.408548 34.263881
3413   1  1 22.841121 28.551757 34.264819
3414   1  1 22.842012 28.553287 37.119484
3433   1  1 22.842351 31.407227 34.263662
3434   1  1 22.842314 31.408508 37.119396
11013  1  1 21.414162 29.980871 35.692014
11413  1  1 24.270836 29.980465 35.690485
3813   1  1 25.696550 28.547964 34.264817
3833   1  1 25.701935 31.405437 34.258670
3834   1  1 25.698264 31.408078 37.118320
11813  1  1 27.125790 29.978899 35.689557
3814   1  1 25.697535 28.552471 37.119038
3453   1  1 22.841322 34.261875 34.264814
11033  1  1 21.414091 32.836012 35.692125
11433  1  1 24.270752 32.834453 35.690785
11453  1  1 24.268437 35.692259 35.693751
3853   1  1 25.694723 34.266444 34.266171
3854   1  1 25.697472 34.263536 37.119475
11833  1  1 27.125686 32.835610 35.689666
11853  1  1 27.125040 35.692505 35.693208
3873   1  1 25.697264 37.121687 34.266879
11414  1  1 24.270039 29.980949 38.546805
11814  1  1 27.125428 29.980650 38.546518
11834  1  1 27.125400 32.836009 38.546693
12167  1  1 29.981066 24.269498 18.558897
12187  1  1 29.981010 27.125159 18.559075
12587  1  1 32.836643 27.125178 18.558985
4149   1  1 28.553429 19.986313 22.841550
4549   1  1 31.409105 19.986368 22.841625
4168   1  1 28.553385 22.841529 19.986337
4169   1  1 28.553860 22.841997 22.842153
4568   1  1 31.409078 22.841611 19.986368
4569   1  1 31.409259 22.842329 22.842425
12168  1  1 29.981382 24.269071 21.413906
12148  1  1 29.981343 21.414147 21.414168
12548  1  1 32.836954 21.414188 21.414194
12968  1  1 35.692105 24.269105 21.414068
4969   1  1 34.263007 22.843072 22.843117
12568  1  1 32.836704 24.269301 21.414100
4189   1  1 28.553619 25.696115 22.841052
12188  1  1 29.981304 27.124377 21.413490
4588   1  1 31.409057 25.697022 19.986298
4589   1  1 31.408909 25.696618 22.841565
4188   1  1 28.553275 25.696956 19.986297
12988  1  1 35.692021 27.124850 21.414153
12588  1  1 32.836831 27.124546 21.414045
4988   1  1 34.264542 25.697106 19.986394
4989   1  1 34.264074 25.696316 22.842066
5389   1  1 37.119878 25.697055 22.841558
4150   1  1 28.553382 19.986121 25.696989
4550   1  1 31.409170 19.986178 25.697032
12129  1  1 29.981106 18.558856 24.269476
12130  1  1 29.981091 18.558941 27.125136
12530  1  1 32.836732 18.558875 27.125138
4950   1  1 34.264552 19.986379 25.697123
4170   1  1 28.553818 22.840672 25.696677
4570   1  1 31.409057 22.841413 25.697035
12170  1  1 29.983486 24.267164 27.122538
12169  1  1 29.982007 24.270629 24.271048
12150  1  1 29.981582 21.413033 27.124578
12149  1  1 29.981471 21.413822 24.269219
12550  1  1 32.836882 21.413881 27.124737
12549  1  1 32.836748 21.414096 24.269402
12970  1  1 35.692553 24.268705 27.124587
12969  1  1 35.692259 24.269066 24.269237
12950  1  1 35.691984 21.414116 27.124867
12949  1  1 35.691992 21.414152 24.269228
4970   1  1 34.263703 22.842275 25.696833
12570  1  1 32.834982 24.270646 27.124017
12569  1  1 32.831687 24.274105 24.274327
5370   1  1 37.119916 22.841462 25.697050
13370  1  1 38.547419 24.269385 27.125085
12190  1  1 29.941229 27.162406 27.164614
4190   1  1 28.554937 25.698896 25.700216
12189  1  1 29.983025 27.121271 24.267837
4590   1  1 31.394642 25.710457 25.711206
12990  1  1 35.693161 27.124045 27.124528
12989  1  1 35.692379 27.124432 24.269115
12590  1  1 32.839884 27.119778 27.121662
12589  1  1 32.836025 27.122376 24.270154
4990   1  1 34.265176 25.695989 25.696623
5390   1  1 37.120092 25.696847 25.696966
13389  1  1 38.547315 27.125140 24.269494
13390  1  1 38.547235 27.125098 27.125133
4151   1  1 28.553217 19.986053 28.552943
4552   1  1 31.409276 19.986084 31.408754
12131  1  1 29.981084 18.558964 29.980907
12132  1  1 29.981073 18.558880 32.836563
4152   1  1 28.553302 19.986252 31.408817
4551   1  1 31.409171 19.986178 28.552847
4951   1  1 34.264589 19.986358 28.552830
4952   1  1 34.264656 19.986233 31.408686
12531  1  1 32.836753 18.558857 29.980846
4171   1  1 28.553339 22.837817 28.552620
4172   1  1 28.553916 22.840550 31.408921
4571   1  1 31.409311 22.840879 28.552344
4572   1  1 31.409887 22.840548 31.408345
12151  1  1 29.981667 21.413014 29.980961
12152  1  1 29.981672 21.413515 32.836647
12171  1  1 29.984131 24.266236 29.982335
12172  1  1 29.984123 24.267898 32.836466
12972  1  1 35.692987 24.268307 32.836378
12971  1  1 35.692804 24.268398 29.980395
12952  1  1 35.692283 21.413849 32.836606
12951  1  1 35.692087 21.414006 29.980627
4971   1  1 34.263902 22.842018 28.552324
4972   1  1 34.264296 22.841616 31.408238
12572  1  1 32.834034 24.271587 32.831961
12571  1  1 32.835675 24.269861 29.979905
12551  1  1 32.837069 21.413692 29.980465
12552  1  1 32.837228 21.413515 32.836353
5371   1  1 37.119964 22.841358 28.552771
5372   1  1 37.120114 22.841291 31.408677
13371  1  1 38.547462 24.269328 29.980809
4191   1  1 28.553594 25.654922 28.551824
4192   1  1 28.557665 25.695588 31.407970
4591   1  1 31.405555 25.699344 28.551119
4592   1  1 31.399000 25.705865 31.395056
12191  1  1 29.948321 27.154252 29.942314
12192  1  1 29.996769 27.107122 32.850524
12992  1  1 35.692943 27.123800 32.836680
12991  1  1 35.693311 27.123719 29.980939
12592  1  1 32.839661 27.118914 32.837076
12591  1  1 32.841045 27.118375 29.982508
4991   1  1 34.265823 25.695382 28.552133
4992   1  1 34.266309 25.694659 31.408457
5392   1  1 37.120308 25.696566 31.408701
13391  1  1 38.547247 27.125056 29.980877
13392  1  1 38.547360 27.125093 32.836530
5391   1  1 37.120168 25.696691 28.552764
4153   1  1 28.553314 19.986207 34.264395
4553   1  1 31.409164 19.986137 34.264444
4173   1  1 28.553775 22.840935 34.264196
4174   1  1 28.553227 22.840617 37.120392
4573   1  1 31.410472 22.840626 34.264445
4574   1  1 31.409404 22.840524 37.120499
12153  1  1 29.981348 21.413539 35.692107
12173  1  1 29.982153 24.266491 35.694059
12973  1  1 35.693047 24.268390 35.692350
4973   1  1 34.264026 22.841948 34.263045
12573  1  1 32.839120 24.266639 35.694058
12553  1  1 32.837367 21.413428 35.692254
4194   1  1 28.553207 25.695425 37.120954
4193   1  1 28.554530 25.691239 34.268457
4593   1  1 31.415077 25.690096 34.270045
4594   1  1 31.410018 25.695284 37.121426
12193  1  1 29.983113 27.120808 35.695498
12993  1  1 35.693028 27.124308 35.692327
12593  1  1 32.841483 27.120905 35.696178
4993   1  1 34.266238 25.694331 34.264761
4994   1  1 34.266324 25.695773 37.121121
5393   1  1 37.120255 25.696807 34.264465
12174  1  1 29.981075 24.268831 38.547854
12194  1  1 29.981089 27.124661 38.547477
12594  1  1 32.837337 27.124604 38.547978
12207  1  1 29.980952 29.980853 18.559208
12607  1  1 32.836603 29.980828 18.559028
12227  1  1 29.980927 32.836374 18.559144
4208   1  1 28.553074 28.552818 19.986501
4209   1  1 28.552830 28.551881 22.839144
4229   1  1 28.553047 31.407592 22.843293
4609   1  1 31.409082 28.551648 22.841542
4628   1  1 31.408958 31.408529 19.986560
4629   1  1 31.409186 31.407404 22.841772
12208  1  1 29.981157 29.980576 21.414084
4608   1  1 31.408917 28.552800 19.986565
4228   1  1 28.553098 31.408470 19.986944
13008  1  1 35.692039 29.980572 21.414143
5008   1  1 34.264490 28.552835 19.986495
5009   1  1 34.263979 28.552063 22.842201
5028   1  1 34.264495 31.408586 19.986406
5029   1  1 34.264171 31.407776 22.842000
12608  1  1 32.836762 29.980222 21.414169
5409   1  1 37.119799 28.552810 22.841607
5429   1  1 37.119888 31.408598 22.841610
4248   1  1 28.553169 34.263954 19.986693
4249   1  1 28.553405 34.262822 22.842534
4648   1  1 31.408882 34.264000 19.986498
4649   1  1 31.409935 34.263098 22.841518
12228  1  1 29.981039 32.835725 21.414696
12248  1  1 29.981136 35.691385 21.413933
13028  1  1 35.692193 32.836440 21.413998
5049   1  1 34.263956 34.262384 22.842196
12628  1  1 32.836905 32.835838 21.413969
12648  1  1 32.837190 35.691702 21.413637
4269   1  1 28.553340 37.120033 22.840442
4669   1  1 31.409543 37.120100 22.840256
4210   1  1 28.551914 28.548659 25.656567
4230   1  1 28.553988 31.402845 25.703000
4610   1  1 31.408424 28.546428 25.698030
4630   1  1 31.399398 31.392100 25.706855
12209  1  1 29.983446 29.980583 24.268454
12210  1  1 29.956410 29.927639 27.151322
13010  1  1 35.692583 29.980576 27.124762
13009  1  1 35.692287 29.980212 24.269186
5010   1  1 34.265240 28.551522 25.696663
5030   1  1 34.265011 31.407551 25.696512
12609  1  1 32.835860 29.978908 24.270387
12610  1  1 32.839178 29.980854 27.121962
5430   1  1 37.119851 31.408552 25.697093
13409  1  1 38.547278 29.980822 24.269536
13410  1  1 38.547104 29.980848 27.125211
5410   1  1 37.119861 28.552736 25.697106
4250   1  1 28.554140 34.268331 25.692434
4650   1  1 31.417368 34.270086 25.688739
12229  1  1 29.982713 32.833978 24.270806
12230  1  1 30.003305 32.853205 27.103163
12249  1  1 29.982487 35.693568 24.266418
12250  1  1 29.989562 35.700780 27.115969
13050  1  1 35.692471 35.691557 27.124890
13049  1  1 35.692685 35.691780 24.268865
13030  1  1 35.691903 32.835902 27.124894
13029  1  1 35.692433 32.835909 24.269067
5050   1  1 34.265045 34.263326 25.695846
12629  1  1 32.833921 32.830493 24.272243
12630  1  1 32.836416 32.834359 27.122683
12649  1  1 32.839930 35.693625 24.266175
12650  1  1 32.840503 35.694503 27.122786
5450   1  1 37.119854 34.264084 25.697218
13430  1  1 38.547163 32.836406 27.125253
4670   1  1 31.412487 37.122793 25.693476
12269  1  1 29.981630 38.548319 24.267985
12270  1  1 29.982321 38.548312 27.123911
4270   1  1 28.554601 37.122894 25.693313
5070   1  1 34.266176 37.120397 25.696347
12670  1  1 32.837971 38.548161 27.124698
4212   1  1 28.581443 28.521925 31.480382
4231   1  1 28.607172 31.458851 28.479684
4232   1  1 28.620521 31.402417 31.486121
4611   1  1 31.454653 28.545743 28.551264
4612   1  1 31.413385 28.541817 31.408574
4631   1  1 31.404961 31.403699 28.550466
4632   1  1 31.398177 31.395137 31.399261
12211  1  1 29.964219 29.923627 29.946939
12212  1  1 30.008304 29.964532 32.858845
4211   1  2 27.657694 31.348309 29.988359
5011   1  1 34.267950 28.551533 28.552864
5012   1  1 34.265530 28.550863 31.408970
5031   1  1 34.263762 31.407864 28.552788
5032   1  1 34.264154 31.408095 31.409029
12611  1  1 32.838453 29.981138 29.983676
12612  1  1 32.837746 29.978320 32.836595
13011  1  1 35.692298 29.980658 29.981251
13012  1  1 35.692226 29.980227 32.836559
5411   1  1 37.119911 28.552756 28.553016
5432   1  1 37.119666 31.408662 31.408872
13411  1  1 38.547057 29.980865 29.980947
13412  1  1 38.547233 29.980841 32.836509
5412   1  1 37.119807 28.552649 31.408779
5431   1  1 37.119469 31.408520 28.553042
4251   1  1 28.569908 34.285678 28.533817
4252   1  1 28.569730 34.279850 31.424799
4651   1  1 31.415867 34.270645 28.549681
4652   1  1 31.416217 34.270394 31.411226
12231  1  1 29.995113 32.854529 29.983193
12232  1  1 30.002761 32.850710 32.854682
12251  1  1 29.985931 35.698241 29.980763
12252  1  1 29.988702 35.699109 32.843821
5051   1  1 34.264160 34.263167 28.552457
5052   1  1 34.264508 34.263425 31.408666
12631  1  1 32.834694 32.834272 29.980735
12632  1  1 32.834914 32.832539 32.833951
12651  1  1 32.839952 35.694287 29.980556
12652  1  1 32.840175 35.694247 32.837919
13031  1  1 35.691617 32.835932 29.980754
13032  1  1 35.692300 32.836257 32.836568
13051  1  1 35.692371 35.691603 29.980752
13052  1  1 35.692554 35.691902 32.836717
5451   1  1 37.119649 34.264000 28.553001
5452   1  1 37.119768 34.264119 31.408706
13431  1  1 38.547135 32.836416 29.980898
4271   1  1 28.555302 37.122250 28.550561
4672   1  1 31.411645 37.121965 31.409237
12271  1  1 29.981797 38.547873 29.980784
12272  1  1 29.981988 38.548140 32.837357
4272   1  1 28.555195 37.121633 31.410229
4671   1  1 31.411985 37.122237 28.551948
5071   1  1 34.265958 37.120376 28.552685
5072   1  1 34.265878 37.120469 31.408889
12671  1  1 32.837819 38.548150 29.980841
4213   1  1 28.554549 28.546176 34.269911
4214   1  1 28.553264 28.551803 37.119657
4233   1  1 28.554883 31.405547 34.261985
4613   1  1 31.419598 28.543804 34.274067
4633   1  1 31.416531 31.408026 34.270969
4634   1  1 31.409822 31.408260 37.120537
12213  1  1 29.983508 29.978579 35.693602
4234   1  1 28.553217 31.407813 37.118182
4614   1  1 31.410455 28.551464 37.121137
5013   1  1 34.265721 28.551053 34.264727
5014   1  1 34.266040 28.552360 37.120923
5033   1  1 34.265202 31.408156 34.264385
5034   1  1 34.265781 31.408690 37.120813
12613  1  1 32.840441 29.979556 35.695096
13013  1  1 35.692723 29.980569 35.692146
5413   1  1 37.119989 28.552752 34.264338
5433   1  1 37.119927 31.408669 34.264315
4253   1  1 28.554248 34.266764 34.267158
4254   1  1 28.553002 34.263832 37.119630
4653   1  1 31.417738 34.269832 34.271835
4654   1  1 31.409434 34.264449 37.120607
12233  1  1 29.982390 32.836274 35.692732
12253  1  1 29.981877 35.692995 35.693967
5053   1  1 34.264783 34.263330 34.263938
12633  1  1 32.839752 32.836554 35.694654
12653  1  1 32.839727 35.693917 35.694833
13033  1  1 35.692686 32.836633 35.692245
4273   1  1 28.554270 37.121761 34.266763
4673   1  1 31.411800 37.122097 34.267286
12214  1  1 29.980975 29.980568 38.546911
12614  1  1 32.837091 29.980707 38.547742
12234  1  1 29.980782 32.836145 38.546994

