Generated by pymatgen.io.lammps.data.LammpsData

531  atoms

  2  atom types

0.000000 57.106232  xlo xhi
0.000000 57.106232  ylo yhi
0.000000 57.106232  zlo zhi
0.000000 0.000000 0.000000  xy xz yz

Masses

1  55.847
2   4.001

Atoms

11767  1  1 27.125262 24.269190 18.558668
11387  1  1 24.269498 27.124952 18.558709
11787  1  1 27.125192 27.124897 18.558778
3749   1  1 25.697546 19.986325 22.841747
3369   1  1 22.843149 22.842040 22.842372
10968  1  1 21.413678 24.268398 21.413295
11348  1  1 24.269581 21.413858 21.414059
11368  1  1 24.269538 24.268331 21.413331
3768   1  1 25.697386 22.841217 19.986149
3769   1  1 25.697778 22.841796 22.842131
11748  1  1 27.125454 21.414008 21.414265
11768  1  1 27.125342 24.268342 21.413352
2989   1  1 19.985555 25.696447 22.840582
3388   1  1 22.841458 25.696647 19.985905
3389   1  1 22.840826 25.694476 22.840150
10988  1  1 21.413659 27.124381 21.413310
11388  1  1 24.268755 27.123536 21.412863
3788   1  1 25.697187 25.696404 19.985742
3789   1  1 25.697010 25.694950 22.839854
11788  1  1 27.124699 27.123452 21.412248
3350   1  1 22.841920 19.986251 25.697184
11330  1  1 24.269737 18.558979 27.125217
3750   1  1 25.697510 19.986361 25.697165
11729  1  1 27.125388 18.558979 24.269626
11730  1  1 27.125325 18.559131 27.125238
10570  1  1 18.558353 24.268874 27.124979
2970   1  1 19.985685 22.840462 25.696745
3370   1  1 22.842014 22.841002 25.696041
10949  1  1 21.414094 21.413492 24.268976
10950  1  1 21.414237 21.413622 27.124897
10969  1  1 21.412099 24.266739 24.267245
10970  1  1 21.411810 24.266458 27.123785
11349  1  1 24.269934 21.413750 24.269253
11350  1  1 24.269787 21.414035 27.124789
11369  1  1 24.274133 24.272059 24.272461
11370  1  1 24.270107 24.269218 27.122647
3770   1  1 25.697862 22.841436 25.696783
11749  1  1 27.125635 21.414122 24.269535
11750  1  1 27.125134 21.413930 27.124860
11769  1  1 27.125741 24.270566 24.270694
11770  1  1 27.123351 24.268829 27.122527
2990   1  1 19.984883 25.695663 25.695975
10589  1  1 18.558425 27.124936 24.269052
10590  1  1 18.558674 27.124813 27.124880
11390  1  1 24.253724 27.107295 27.108808
11389  1  1 24.267420 27.119399 24.266493
10990  1  1 21.410661 27.121795 27.122348
10989  1  1 21.411610 27.123092 24.266674
3390   1  1 22.835752 25.690342 25.691194
3790   1  1 25.710793 25.707437 25.707489
11789  1  1 27.122209 27.119308 24.264591
11790  1  1 27.162454 27.159706 27.158135
3351   1  1 22.841971 19.986381 28.552951
3352   1  1 22.841906 19.986302 31.408747
11331  1  1 24.269724 18.559000 29.980885
3752   1  1 25.697370 19.986489 31.408776
11731  1  1 27.125278 18.559176 29.980914
11732  1  1 27.125339 18.559051 32.836474
3751   1  1 25.697463 19.986638 28.552963
10571  1  1 18.558391 24.268938 29.980890
2971   1  1 19.985705 22.840516 28.552818
2972   1  1 19.985661 22.840576 31.408898
3371   1  1 22.842156 22.841430 28.552404
3372   1  1 22.842020 22.841233 31.408695
10951  1  1 21.414232 21.413673 29.980792
10952  1  1 21.414042 21.413584 32.836760
10971  1  1 21.411926 24.266622 29.980688
10972  1  1 21.412096 24.266862 32.837162
11351  1  1 24.269749 21.414150 29.980653
11352  1  1 24.269649 21.413815 32.836448
11371  1  1 24.270251 24.269729 29.980482
11372  1  1 24.272505 24.271377 32.833077
3771   1  1 25.697394 22.842110 28.552479
3772   1  1 25.697256 22.841867 31.408560
11751  1  1 27.124905 21.414211 29.981013
11752  1  1 27.125422 21.414425 32.836138
11771  1  1 27.122323 24.269816 29.982733
11772  1  1 27.125205 24.271002 32.834594
10592  1  1 18.558698 27.125046 32.836655
10591  1  1 18.558826 27.124913 29.980856
2992   1  1 19.985161 25.695880 31.408954
2991   1  1 19.985061 25.695648 28.552519
3391   1  1 22.836364 25.691296 28.551057
3392   1  1 22.836585 25.691309 31.410156
10991  1  1 21.411351 27.122169 29.980869
10992  1  1 21.411740 27.122620 32.837968
11391  1  1 24.256786 27.110426 29.983775
11392  1  1 24.259209 27.111647 32.844655
3791   1  1 25.698562 25.699527 28.549860
3792   1  1 25.707288 25.707131 31.397492
11791  1  1 27.155354 27.158635 29.945454
11792  1  1 27.121321 27.114952 32.844448
3753   1  1 25.697499 19.986395 34.264226
3373   1  1 22.842463 22.841583 34.263475
10973  1  1 21.412462 24.267312 35.693319
11353  1  1 24.269477 21.413709 35.691973
11373  1  1 24.268663 24.266926 35.693399
3773   1  1 25.697444 22.841639 34.263556
3774   1  1 25.697266 22.840611 37.120200
11753  1  1 27.125421 21.413902 35.691649
11773  1  1 27.125194 24.267069 35.693323
2993   1  1 19.985365 25.696282 34.265055
3393   1  1 22.837383 25.691297 34.267659
3394   1  1 22.839842 25.695128 37.121375
10993  1  1 21.412453 27.123833 35.693218
11393  1  1 24.264692 27.119440 35.696756
3793   1  1 25.695455 25.692203 34.267887
3794   1  1 25.696425 25.694605 37.121747
11793  1  1 27.123404 27.119474 35.697240
11774  1  1 27.125149 24.268387 38.548087
11394  1  1 24.268743 27.124249 38.548163
11794  1  1 27.124897 27.124096 38.548079
11407  1  1 24.269513 29.980748 18.558745
11807  1  1 27.125235 29.980760 18.558942
11827  1  1 27.125265 32.836397 18.558855
3009   1  1 19.985630 28.552663 22.840719
3029   1  1 19.985718 31.408819 22.840891
3408   1  1 22.841492 28.552581 19.985955
3409   1  1 22.840865 28.551322 22.840313
3428   1  1 22.841485 31.408593 19.985913
3429   1  1 22.840988 31.408044 22.840358
11008  1  1 21.413689 29.980534 21.413374
11408  1  1 24.268817 29.979964 21.412998
3809   1  1 25.695850 28.550424 22.839333
3828   1  1 25.697089 31.408467 19.985930
3829   1  1 25.696252 31.407578 22.839538
11808  1  1 27.124757 29.980299 21.412783
3808   1  1 25.697049 28.552403 19.985924
3449   1  1 22.841685 34.262899 22.841267
11028  1  1 21.413638 32.836652 21.413398
11428  1  1 24.268880 32.836046 21.412982
11448  1  1 24.268657 35.692252 21.412884
3848   1  1 25.697172 34.264216 19.985954
3849   1  1 25.695292 34.264472 22.839490
11828  1  1 27.124937 32.836194 21.413359
11848  1  1 27.124855 35.692071 21.412945
3869   1  1 25.696312 37.121237 22.839445
10610  1  1 18.559037 29.980812 27.125089
10609  1  1 18.558571 29.980892 24.269211
3030   1  1 19.985844 31.408694 25.696565
3010   1  1 19.985381 28.552387 25.696087
3410   1  1 22.836550 28.549854 25.691743
3430   1  1 22.838440 31.408369 25.692740
11009  1  1 21.412139 29.980273 24.267089
11010  1  1 21.412549 29.980206 27.123226
11409  1  1 24.268159 29.978455 24.266997
11410  1  1 24.259684 29.980056 27.112835
3810   1  1 25.692954 28.542847 25.691988
3830   1  1 25.705796 31.391901 25.701104
11809  1  1 27.121168 29.979684 24.264313
11810  1  1 27.144755 29.921790 27.144531
10630  1  1 18.559098 32.836395 27.125342
3050   1  1 19.986171 34.264262 25.697219
3450   1  1 22.839670 34.264541 25.693895
11029  1  1 21.412664 32.836494 24.267774
11030  1  1 21.414143 32.835899 27.124378
11049  1  1 21.412885 35.692338 24.268410
11050  1  1 21.413705 35.691684 27.125036
11429  1  1 24.271075 32.831252 24.269696
11430  1  1 24.266939 32.835371 27.117307
11449  1  1 24.264987 35.695872 24.264383
11450  1  1 24.263451 35.697129 27.120416
3850   1  1 25.685684 34.275218 25.683130
11829  1  1 27.122319 32.836384 24.266356
11830  1  1 27.096609 32.864526 27.089645
11849  1  1 27.123173 35.696453 24.263204
11850  1  1 27.123685 35.695467 27.118727
3470   1  1 22.839345 37.121495 25.695858
11470  1  1 24.269247 38.547569 27.125167
3870   1  1 25.695871 37.121823 25.694814
11869  1  1 27.125021 38.548165 24.268552
11870  1  1 27.125358 38.546974 27.124849
10611  1  1 18.559336 29.980752 29.980839
10612  1  1 18.559019 29.980907 32.836454
3011   1  1 19.986041 28.552213 28.552495
3032   1  1 19.987003 31.408393 31.408612
3012   1  1 19.986277 28.552418 31.408853
3031   1  1 19.987046 31.408245 28.552873
3411   1  1 22.835186 28.548146 28.549768
3412   1  1 22.838302 28.548797 31.410411
3431   1  1 22.842900 31.406717 28.551311
3432   1  1 22.843469 31.406729 31.408696
11011  1  1 21.414408 29.979725 29.980656
11012  1  1 21.413669 29.980195 32.837007
11411  1  1 24.267188 29.976175 29.981916
11412  1  1 24.265110 29.977146 32.841127
3811   1  1 25.617295 28.518704 28.524955
3812   1  1 25.672412 28.522843 31.426989
3831   1  1 25.697323 31.399141 28.532807
3832   1  1 25.707362 31.390245 31.410495
11811  1  1 27.073129 29.807998 29.931246
11812  1  1 27.103036 29.957815 32.856931
10631  1  1 18.559288 32.836250 29.980870
3051   1  1 19.986847 34.263784 28.553157
3052   1  1 19.986816 34.263748 31.408512
3451   1  1 22.842518 34.262541 28.552212
3452   1  1 22.842807 34.262216 31.408164
11031  1  1 21.415643 32.835046 29.980470
11032  1  1 21.414402 32.835854 32.836350
11051  1  1 21.414237 35.691263 29.980802
11052  1  1 21.413928 35.691590 32.836354
11431  1  1 24.274693 32.830848 29.979381
11432  1  1 24.270852 32.831937 32.836399
11451  1  1 24.266299 35.694321 29.980387
11452  1  1 24.265048 35.695668 32.839000
3851   1  1 25.683888 34.276109 28.541204
3852   1  1 25.685498 34.273995 31.416639
11831  1  1 27.085581 32.885365 29.976557
11832  1  1 27.103049 32.857331 32.860772
11851  1  1 27.126979 35.688197 29.979750
11852  1  1 27.124939 35.693063 32.839178
3471   1  1 22.840354 37.120653 28.552981
3472   1  1 22.840628 37.120549 31.408673
11471  1  1 24.269780 38.547205 29.980856
3872   1  1 25.697568 37.119119 31.408380
11871  1  1 27.125994 38.545713 29.980604
11872  1  1 27.125530 38.546839 32.836159
3871   1  1 25.697215 37.119370 28.552389
3013   1  1 19.985883 28.552787 34.264660
3033   1  1 19.986231 31.408815 34.264372
3413   1  1 22.838589 28.550247 34.266992
3414   1  1 22.840199 28.552064 37.121109
3433   1  1 22.840352 31.408239 34.265809
3434   1  1 22.840593 31.408620 37.120903
11013  1  1 21.413043 29.980679 35.692789
11413  1  1 24.266188 29.978908 35.695412
3813   1  1 25.687491 28.541306 34.274927
3833   1  1 25.692944 31.405968 34.271743
3834   1  1 25.696411 31.407937 37.121116
11813  1  1 27.122894 29.977224 35.695840
3814   1  1 25.695485 28.550659 37.121801
3453   1  1 22.841250 34.263431 34.264438
11033  1  1 21.413363 32.836796 35.692549
11433  1  1 24.267110 32.836081 35.694640
11453  1  1 24.266196 35.694888 35.695147
3853   1  1 25.687776 34.272266 34.273700
3854   1  1 25.696196 34.265006 37.121185
11833  1  1 27.123132 32.837645 35.695264
11853  1  1 27.123865 35.694600 35.695087
3873   1  1 25.696749 37.120800 34.265094
11414  1  1 24.269031 29.980557 38.547900
11814  1  1 27.125089 29.980366 38.547398
11834  1  1 27.125189 32.836297 38.547442
12167  1  1 29.981005 24.269177 18.558666
12187  1  1 29.981035 27.124844 18.558740
12587  1  1 32.836835 27.124805 18.558613
4149   1  1 28.553296 19.986485 22.841851
4549   1  1 31.408929 19.986485 22.841896
4168   1  1 28.553213 22.841227 19.986241
4169   1  1 28.553458 22.842189 22.842481
4568   1  1 31.408990 22.841256 19.986224
4569   1  1 31.408913 22.842225 22.842608
12168  1  1 29.981140 24.268407 21.413438
12148  1  1 29.981138 21.414087 21.414351
12548  1  1 32.836828 21.414056 21.414288
12968  1  1 35.692647 24.268340 21.413599
4969   1  1 34.263120 22.842597 22.843100
12568  1  1 32.836863 24.268411 21.413571
4189   1  1 28.553177 25.695399 22.839917
12188  1  1 29.981522 27.123312 21.412080
4588   1  1 31.409112 25.696303 19.985695
4589   1  1 31.409354 25.695104 22.840042
4188   1  1 28.553119 25.696364 19.985714
12988  1  1 35.692909 27.123985 21.413332
12588  1  1 32.837966 27.123005 21.412462
4988   1  1 34.264992 25.696400 19.985850
4989   1  1 34.265671 25.694345 22.840527
5389   1  1 37.120362 25.696450 22.841299
4150   1  1 28.553241 19.986612 25.697379
4550   1  1 31.408892 19.986589 25.697379
12129  1  1 29.981017 18.559028 24.269678
12130  1  1 29.980974 18.559173 27.125276
12530  1  1 32.836526 18.559093 27.125298
4950   1  1 34.264254 19.986583 25.697439
4170   1  1 28.553357 22.842143 25.697476
4570   1  1 31.408423 22.842391 25.697657
12170  1  1 29.982388 24.269975 27.123245
12169  1  1 29.981301 24.271159 24.271231
12150  1  1 29.981067 21.414165 27.125062
12149  1  1 29.981096 21.414351 24.269766
12550  1  1 32.836138 21.414659 27.125331
12549  1  1 32.836459 21.414291 24.269801
12970  1  1 35.692543 24.268534 27.125128
12969  1  1 35.692710 24.268311 24.269300
12950  1  1 35.691659 21.414272 27.125234
12949  1  1 35.691857 21.414127 24.269525
4970   1  1 34.263267 22.842495 25.697513
12570  1  1 32.833879 24.271909 27.125084
12569  1  1 32.832036 24.273432 24.273957
5370   1  1 37.119939 22.841305 25.697330
13370  1  1 38.547452 24.269301 27.125268
12190  1  1 29.942967 27.163925 27.160686
4190   1  1 28.553624 25.701355 25.700509
12189  1  1 29.983714 27.119404 24.264438
4590   1  1 31.395414 25.710140 25.709855
12990  1  1 35.693401 27.123857 27.124737
12989  1  1 35.693609 27.123161 24.268258
12590  1  1 32.841904 27.118338 27.120510
12589  1  1 32.839810 27.118680 24.266060
4990   1  1 34.266235 25.694769 25.696339
5390   1  1 37.120324 25.696485 25.697228
13389  1  1 38.547530 27.124875 24.269492
13390  1  1 38.547247 27.125075 27.125295
4151   1  1 28.553070 19.986643 28.553076
4552   1  1 31.408836 19.986622 31.408674
12131  1  1 29.980942 18.559191 29.980913
12132  1  1 29.980961 18.559087 32.836443
4152   1  1 28.553100 19.986781 31.408623
4551   1  1 31.408686 19.986782 28.553065
4951   1  1 34.264199 19.986683 28.553044
4952   1  1 34.264264 19.986562 31.408660
12531  1  1 32.836522 18.559092 29.980882
4171   1  1 28.552762 22.840138 28.553039
4172   1  1 28.552951 22.842881 31.408115
4571   1  1 31.407878 22.842857 28.552964
4572   1  1 31.408242 22.842582 31.407886
12151  1  1 29.980938 21.414283 29.980979
12152  1  1 29.980951 21.414603 32.835973
12171  1  1 29.981881 24.270547 29.982428
12172  1  1 29.981445 24.271614 32.834177
12972  1  1 35.692736 24.268387 32.835994
12971  1  1 35.692566 24.268530 29.980563
12952  1  1 35.691917 21.414103 32.836491
12951  1  1 35.691684 21.414251 29.980763
4971   1  1 34.263043 22.842740 28.552862
4972   1  1 34.263317 22.842434 31.408097
12572  1  1 32.832123 24.273472 32.830798
12571  1  1 32.833849 24.271870 29.980216
12551  1  1 32.836128 21.414640 29.980604
12552  1  1 32.836451 21.414293 32.835984
5371   1  1 37.119873 22.841309 28.553007
5372   1  1 37.119998 22.841300 31.408681
13371  1  1 38.547456 24.269324 29.980880
4191   1  1 28.551819 25.661103 28.552848
4192   1  1 28.553118 25.703620 31.404656
4591   1  1 31.402773 25.703431 28.552682
4592   1  1 31.394949 25.710798 31.393863
12191  1  1 29.940363 27.166947 29.942549
12192  1  1 29.988234 27.116185 32.844645
12992  1  1 35.692732 27.124035 32.836057
12991  1  1 35.693052 27.124235 29.980911
12592  1  1 32.839575 27.118980 32.836070
12591  1  1 32.840681 27.119389 29.982470
4991   1  1 34.265717 25.695590 28.552662
4992   1  1 34.265856 25.695156 31.408019
5392   1  1 37.120218 25.696689 31.408563
13391  1  1 38.547185 27.125203 29.980890
13392  1  1 38.547291 27.125171 32.836364
5391   1  1 37.120151 25.696722 28.553029
4153   1  1 28.553225 19.986572 34.264095
4553   1  1 31.408883 19.986530 34.264098
4173   1  1 28.553401 22.842258 34.263149
4174   1  1 28.553290 22.840645 37.120053
4573   1  1 31.409162 22.842136 34.263044
4574   1  1 31.409260 22.840703 37.120032
12153  1  1 29.981167 21.413995 35.691546
12173  1  1 29.981701 24.267246 35.693145
12973  1  1 35.692974 24.268168 35.691963
4973   1  1 34.263280 22.842503 34.262427
12573  1  1 32.838081 24.267293 35.692798
12553  1  1 32.836946 21.413938 35.691688
4194   1  1 28.553102 25.694342 37.121980
4193   1  1 28.553760 25.693530 34.267528
4593   1  1 31.411995 25.692950 34.267216
4594   1  1 31.410008 25.694336 37.121908
12193  1  1 29.982872 27.119117 35.697816
12993  1  1 35.693431 27.123622 35.692322
12593  1  1 32.843512 27.117783 35.698167
4993   1  1 34.266134 25.694082 34.263954
4994   1  1 34.267044 25.694548 37.121520
5393   1  1 37.120217 25.696761 34.264139
12174  1  1 29.981132 24.268345 38.548088
12194  1  1 29.981258 27.123903 38.548230
12594  1  1 32.837924 27.123721 38.548594
12207  1  1 29.981071 29.980704 18.558896
12607  1  1 32.836844 29.980648 18.558636
12227  1  1 29.981014 32.836410 18.558815
4208   1  1 28.553135 28.552422 19.985733
4209   1  1 28.553119 28.550974 22.836424
4229   1  1 28.553847 31.408210 22.840112
4609   1  1 31.411334 28.549513 22.838144
4628   1  1 31.409429 31.408387 19.985703
4629   1  1 31.411631 31.407662 22.838107
12208  1  1 29.981986 29.980061 21.412408
4608   1  1 31.409408 28.552135 19.985673
4228   1  1 28.553257 31.408484 19.986261
13008  1  1 35.693025 29.980158 21.413190
5008   1  1 34.265056 28.552279 19.985747
5009   1  1 34.266273 28.550517 22.839805
5028   1  1 34.265092 31.408456 19.985650
5029   1  1 34.266580 31.407649 22.839435
12608  1  1 32.838179 29.979541 21.412333
5409   1  1 37.120444 28.552329 22.841206
5429   1  1 37.120504 31.408518 22.841173
4248   1  1 28.553107 34.264124 19.986017
4249   1  1 28.553217 34.264396 22.839580
4648   1  1 31.409170 34.264346 19.985732
4649   1  1 31.412266 34.265649 22.838073
12228  1  1 29.981836 32.836433 21.413053
12248  1  1 29.981224 35.692238 21.412712
13028  1  1 35.693127 32.836532 21.413084
5049   1  1 34.265953 34.263389 22.840187
12628  1  1 32.838151 32.836153 21.412271
12648  1  1 32.837961 35.692688 21.412210
4269   1  1 28.552910 37.121387 22.839228
4669   1  1 31.409852 37.121611 22.838935
4210   1  1 28.552486 28.548085 25.648933
4230   1  1 28.557034 31.405559 25.685253
4610   1  1 31.417148 28.539801 25.687883
4630   1  1 31.408864 31.392727 25.693966
12209  1  1 29.987376 29.978773 24.261913
12210  1  1 29.977928 29.915486 27.126505
13010  1  1 35.692871 29.980461 27.123984
13009  1  1 35.693654 29.979676 24.267923
5010   1  1 34.267471 28.549908 25.694468
5030   1  1 34.267201 31.407939 25.693754
12609  1  1 32.840600 29.977239 24.264873
12610  1  1 32.842615 29.979999 27.117060
5430   1  1 37.120183 31.408536 25.696810
13409  1  1 38.547497 29.980700 24.269460
13410  1  1 38.547121 29.980821 27.125188
5410   1  1 37.120235 28.552348 25.696905
4250   1  1 28.552848 34.274705 25.681511
4650   1  1 31.428752 34.282217 25.675860
12229  1  1 29.986853 32.838101 24.264483
12230  1  1 30.031079 32.880817 27.069785
12249  1  1 29.982966 35.697232 24.262302
12250  1  1 29.986384 35.695965 27.117453
13050  1  1 35.692525 35.691648 27.125555
13049  1  1 35.693740 35.692657 24.268536
13030  1  1 35.692095 32.836313 27.124300
13029  1  1 35.693667 32.836327 24.268053
5050   1  1 34.267064 34.265470 25.694079
12629  1  1 32.838771 32.832413 24.266669
12630  1  1 32.838928 32.837243 27.117937
12649  1  1 32.844071 35.698336 24.261974
12650  1  1 32.841273 35.695456 27.124131
5450   1  1 37.120156 34.264354 25.697259
13430  1  1 38.547184 32.836428 27.125280
4670   1  1 31.411781 37.122368 25.694303
12269  1  1 29.981294 38.548233 24.268450
12270  1  1 29.981357 38.546987 27.124748
4270   1  1 28.553516 37.121590 25.694119
5070   1  1 34.266589 37.121118 25.697064
12670  1  1 32.837006 38.547530 27.125590
4212   1  1 28.558625 28.548768 31.469297
4231   1  1 28.619650 31.490445 28.299846
4232   1  1 28.618128 31.422878 31.650512
4611   1  1 31.458700 28.544954 28.548537
4612   1  1 31.413656 28.542618 31.407766
4631   1  1 31.404209 31.404950 28.537744
4632   1  1 31.393381 31.395084 31.408080
12211  1  1 29.970755 29.923107 29.943908
12212  1  1 30.021266 29.947438 32.877030
4211   1  2 28.105001 31.245724 29.970479
5011   1  1 34.267633 28.552366 28.552796
5012   1  1 34.264666 28.552112 31.408184
5031   1  1 34.263079 31.408198 28.550911
5032   1  1 34.262690 31.408040 31.409899
12611  1  1 32.835578 29.984690 29.982791
12612  1  1 32.838175 29.977275 32.838885
13011  1  1 35.691458 29.981496 29.980975
13012  1  1 35.691957 29.980171 32.836653
5411   1  1 37.119717 28.553040 28.553078
5432   1  1 37.119349 31.408656 31.408932
13411  1  1 38.546936 29.981016 29.980900
13412  1  1 38.547184 29.980848 32.836450
5412   1  1 37.119524 28.553041 31.408524
5431   1  1 37.119247 31.408573 28.552775
4251   1  1 28.558367 34.264823 28.535055
4252   1  1 28.557880 34.257964 31.419674
4651   1  1 31.416133 34.269679 28.551916
4652   1  1 31.414297 34.267640 31.406971
12231  1  1 29.990426 32.838578 29.978280
12232  1  1 30.023161 32.872484 32.879546
12251  1  1 29.978949 35.688229 29.979995
12252  1  1 29.984631 35.693708 32.840453
5051   1  1 34.263572 34.262341 28.553122
5052   1  1 34.263420 34.262207 31.407765
12631  1  1 32.831708 32.830183 29.980218
12632  1  1 32.835189 32.833834 32.836224
12651  1  1 32.839429 35.693742 29.980693
12652  1  1 32.839756 35.694267 32.835775
13031  1  1 35.690884 32.835181 29.980685
13032  1  1 35.691987 32.836275 32.836620
13051  1  1 35.692099 35.691326 29.980895
13052  1  1 35.692242 35.691769 32.836134
5451   1  1 37.119496 34.263801 28.553238
5452   1  1 37.119524 34.263859 31.408573
13431  1  1 38.547026 32.836296 29.980911
4271   1  1 28.553696 37.117528 28.551016
4672   1  1 31.408624 37.119164 31.407809
12271  1  1 29.980295 38.546092 29.980653
12272  1  1 29.981023 38.546878 32.836271
4272   1  1 28.553553 37.116928 31.408994
4671   1  1 31.409004 37.119330 28.553248
5071   1  1 34.265809 37.120570 28.553386
5072   1  1 34.265534 37.120585 31.408579
12671  1  1 32.836545 38.547357 29.980940
4213   1  1 28.552776 28.543794 34.278069
4214   1  1 28.553144 28.550651 37.122051
4233   1  1 28.557241 31.407147 34.278589
4613   1  1 31.424732 28.536754 34.280525
4633   1  1 31.421365 31.406926 34.278856
4634   1  1 31.411081 31.407878 37.122289
12213  1  1 29.985935 29.975959 35.698066
4234   1  1 28.553761 31.407962 37.120414
4614   1  1 31.411846 28.549580 37.123065
5013   1  1 34.266419 28.549909 34.265316
5014   1  1 34.267040 28.551324 37.121737
5033   1  1 34.265758 31.407999 34.265329
5034   1  1 34.266776 31.408426 37.121662
12613  1  1 32.842901 29.977809 35.697892
13013  1  1 35.693134 29.980197 35.692333
5413   1  1 37.120024 28.552600 34.264199
5433   1  1 37.119935 31.408626 34.264258
4253   1  1 28.552728 34.270826 34.274699
4254   1  1 28.553034 34.264833 37.121226
4653   1  1 31.425792 34.278832 34.280373
4654   1  1 31.410843 34.266044 37.122141
12233  1  1 29.985643 32.839342 35.697196
12253  1  1 29.981973 35.695259 35.695717
5053   1  1 34.265434 34.264337 34.264286
12633  1  1 32.842157 32.837078 35.697189
12653  1  1 32.842364 35.697212 35.697063
13033  1  1 35.693068 32.836711 35.692380
4273   1  1 28.553336 37.120485 34.265276
4673   1  1 31.410640 37.121391 34.265564
12214  1  1 29.981442 29.980148 38.547656
12614  1  1 32.837747 29.980289 38.548387
12234  1  1 29.981270 32.836504 38.547638

