Generated by pymatgen.io.lammps.data.LammpsData

531  atoms

  2  atom types

0.000000 57.106232  xlo xhi
0.000000 57.106232  ylo yhi
0.000000 57.106232  zlo zhi
0.000000 0.000000 0.000000  xy xz yz

Masses

1  55.847
2   4.001

Atoms

1    0  2 -0.331358 -0.104627  -0.224818
2    0  1 -1.545345 -1.422336  -1.497975
3    0  1 -1.523032 -1.395805   1.429048
4    0  1 -1.452433  1.516851  -1.483254
5    0  1 -1.432167  1.494035   1.400728
6    0  1  1.322363 -1.442956  -1.460543
7    0  1  1.296270 -1.436727   1.418650
8    0  1  1.369186  1.410351  -1.456066
9    0  1  1.346728  1.390804   1.387385
10   0  1 -2.938480  0.077106  -0.026571
11   0  1 -0.118973 -2.889215  -0.016516
12   0  1 -0.066821  0.019651  -2.949783
13   0  1 -0.071850  0.018124   2.888370
14   0  1  0.018613  2.937208  -0.031211
15   0  1  2.781339 -0.052478  -0.014121
16   0  1 -2.924158 -2.826840  -0.009321
17   0  1 -2.892292  0.076415  -2.895940
18   0  1 -2.883700  0.078820   2.850790
19   0  1 -2.812813  2.963812  -0.021373
20   0  1 -0.080699 -2.854070  -2.893468
21   0  1 -0.107290 -2.843828   2.877942
22   0  1  0.023795  2.900022  -2.900713
23   0  1  0.022670  2.884724   2.854838
24   0  1  2.745678 -2.863003   0.002778
25   0  1  2.788753 -0.033257  -2.879450
26   0  1  2.773091 -0.035201   2.850005
27   0  1  2.838251  2.802255  -0.013262
28   0  1 -4.314788 -1.371864  -1.450940
29   0  1 -4.307052 -1.372250   1.431299
30   0  1 -4.273357  1.533705  -1.445900
31   0  1 -4.264754  1.532744   1.417501
32   0  1 -1.500493 -4.281389  -1.448066
33   0  1 -1.508296 -4.271183   1.438874
34   0  1 -1.485799 -1.406176  -4.324307
35   0  1 -1.495199 -1.391795   4.300760
36   0  1 -1.439730  1.493744  -4.323937
37   0  1 -1.434109  1.481875   4.281386
38   0  1 -1.361341  4.363124  -1.466447
39   0  1 -1.360913  4.353822   1.422619
40   0  1  1.348177 -4.275831  -1.439495
41   0  1  1.324868 -4.273196   1.443471
42   0  1  1.374101 -1.433342  -4.317102
43   0  1  1.354504 -1.428388   4.298073
44   0  1  1.411195  1.428570  -4.316353
45   0  1  1.404923  1.416439   4.289178
46   0  1  1.485404  4.288866  -1.453909
47   0  1  1.481855  4.278050   1.422283
48   0  1  4.206858 -1.455966  -1.430523
49   0  1  4.192818 -1.462822   1.434938
50   0  1  4.231564  1.356371  -1.435858
51   0  1  4.231522  1.354553   1.417137
52   0  1 -2.916478 -2.838842  -2.888374
53   0  1 -2.909908 -2.824030   2.870297
54   0  1 -2.831542  2.954335  -2.888855
55   0  1 -2.813866  2.938444   2.846525
56   0  1  2.791346 -2.849861  -2.866250
57   0  1  2.756606 -2.855847   2.865237
58   0  1  2.848888  2.812977  -2.871176
59   0  1  2.839430  2.791583   2.838577
60   0  1 -5.701004  0.073695  -0.001786
61   0  1 -0.057633 -5.705652   0.004075
62   0  1 -0.020084  0.016260  -5.740218
63   0  1 -0.030168  0.017255   5.722641
64   0  1  0.091587  5.745903  -0.013341
65   0  1  5.660341 -0.057529   0.002004
66   0  1 -4.312385 -4.263841  -1.428428
67   0  1 -4.318649 -4.255583   1.439380
68   0  1 -4.303360 -1.382005  -4.296437
69   0  1 -4.299395 -1.373781   4.284100
70   0  1 -4.284061  1.506559  -4.301732
71   0  1 -4.278110  1.504106   4.277440
72   0  1 -4.227446  4.379950  -1.434278
73   0  1 -4.219066  4.374084   1.426825
74   0  1 -1.464130 -4.280649  -4.297209
75   0  1 -1.488264 -4.269392   4.315914
76   0  1 -1.379446  4.333101  -4.323641
77   0  1 -1.379794  4.330706   4.289253
78   0  1  1.400140 -4.269889  -4.292665
79   0  1  1.359948 -4.267804   4.305610
80   0  1  1.481441  4.282553  -4.319508
81   0  1  1.481279  4.273252   4.290893
82   0  1  4.227806 -4.260178  -1.412858
83   0  1  4.215134 -4.267148   1.443529
84   0  1  4.257038 -1.433450  -4.287656
85   0  1  4.229711 -1.447248   4.285165
86   0  1  4.261603  1.387836  -4.289490
87   0  1  4.256033  1.370775   4.281075
88   0  1  4.293978  4.220589  -1.433040
89   0  1  4.304662  4.204244   1.423337
90   0  1 -5.724962 -2.816495   0.002623
91   0  1 -5.711188  0.069284  -2.858693
92   0  1 -5.703742  0.069769   2.850211
93   0  1 -5.672608  2.949733   0.001900
94   0  1 -2.891778 -5.702668   0.007987
95   0  1 -2.867803  0.047093  -5.729974
96   0  1 -2.872834  0.052771   5.710741
97   0  1 -2.769467  5.786770  -0.010359
98   0  1 -0.028654 -5.706318  -2.863020
99   0  1 -0.061554 -5.696504   2.878645
100  0  1 -0.028186 -2.851494  -5.728915
101  0  1 -0.048972 -2.837259   5.733154
102  0  1  0.021081  2.874990  -5.745673
103  0  1  0.014921  2.872717   5.710691
104  0  1  0.087357  5.740521  -2.890543
105  0  1  0.080710  5.731369   2.864754
106  0  1  2.795356 -5.687814   0.015568
107  0  1  2.836406 -0.009764  -5.729399
108  0  1  2.826841 -0.019007   5.722999
109  0  1  2.922188  5.680171  -0.002178
110  0  1  5.657026 -2.853681   0.013522
111  0  1  5.678386 -0.035059  -2.851177
112  0  1  5.669481 -0.046845   2.850703
113  0  1  5.696205  2.768913  -0.009953
114  0  1 -5.723460 -2.829424  -2.856741
115  0  1 -5.727053 -2.818155   2.867217
116  0  1 -5.685471  2.939363  -2.854825
117  0  1 -5.682743  2.932199   2.850756
118  0  1 -2.877385 -5.714087  -2.852605
119  0  1 -2.892758 -5.697686   2.872389
120  0  1 -2.878761 -2.844727  -5.723254
121  0  1 -2.894002 -2.830233   5.727907
122  0  1 -2.841923  2.907183  -5.743944
123  0  1 -2.841966  2.902302   5.709615
124  0  1 -2.791610  5.769338  -2.880553
125  0  1 -2.785000  5.774239   2.860018
126  0  1  2.835608 -5.685798  -2.848508
127  0  1  2.804821 -5.689503   2.873555
128  0  1  2.850373 -2.843869  -5.716381
129  0  1  2.818111 -2.848922   5.725936
130  0  1  2.863009  2.830861  -5.738587
131  0  1  2.871206  2.825517   5.719138
132  0  1  2.913058  5.692984  -2.871364
133  0  1  2.925432  5.672545   2.857990
134  0  1  5.685098 -2.848112  -2.845762
135  0  1  5.670335 -2.857219   2.860561
136  0  1  5.695489  2.794416  -2.851929
137  0  1  5.703932  2.773245   2.850880
138  0  1 -4.299869 -4.276746  -4.282485
139  0  1 -4.308790 -4.264940   4.298043
140  0  1 -4.252782  4.344251  -4.306668
141  0  1 -4.246234  4.343685   4.282265
142  0  1  4.276329 -4.262745  -4.275729
143  0  1  4.247039 -4.264478   4.292918
144  0  1  4.293193  4.240211  -4.294306
145  0  1  4.305690  4.219452   4.279073
146  0  1 -7.135151 -1.389840  -1.423770
147  0  1 -7.135182 -1.386007   1.432457
148  0  1 -7.115688  1.490545  -1.416818
149  0  1 -7.117270  1.489534   1.424490
150  0  1 -1.436731 -7.138604  -1.420378
151  0  1 -1.452005 -7.132339   1.442245
152  0  1 -1.436771 -1.417701  -7.146184
153  0  1 -1.450870 -1.408739   7.145026
154  0  1 -1.421242  1.452561  -7.159175
155  0  1 -1.426976  1.449785   7.133591
156  0  1 -1.337268  7.177319  -1.447292
157  0  1 -1.336920  7.179046   1.430492
158  0  1  1.416285 -7.126438  -1.423560
159  0  1  1.395203 -7.124380   1.445438
160  0  1  1.419581 -1.425668  -7.151962
161  0  1  1.412048 -1.419253   7.152757
162  0  1  1.425509  1.424958  -7.166337
163  0  1  1.428966  1.435564   7.143068
164  0  1  1.511957  7.143273  -1.435760
165  0  1  1.515798  7.131872   1.434190
166  0  1  7.117572 -1.442843  -1.420555
167  0  1  7.115416 -1.446710   1.430972
168  0  1  7.122496  1.370184  -1.428109
169  0  1  7.124419  1.366573   1.421141
170  0  1 -5.712115 -5.699045   0.008835
171  0  1 -5.711922  0.033676  -5.708976
172  0  1 -5.712215  0.037808   5.704275
173  0  1 -5.670877  5.762147   0.006705
174  0  1  0.007043 -5.698674  -5.709653
175  0  1 -0.019240 -5.703483   5.729402
176  0  1  0.055374  5.729363  -5.736785
177  0  1  0.053124  5.718391   5.723222
178  0  1  5.685702 -5.682001   0.012820
179  0  1  5.709858  0.003336  -5.709917
180  0  1  5.702696 -0.024947   5.709351
181  0  1  5.733957  5.653729   0.003337
182  0  1 -7.138870 -4.275348  -1.421433
183  0  1 -7.143024 -4.269761   1.435199
184  0  1 -7.136129 -1.406962  -4.277790
185  0  1 -7.141465 -1.394330   4.283548
186  0  1 -7.127915  1.472799  -4.275487
187  0  1 -7.130879  1.469120   4.277566
188  0  1 -7.120470  4.329429  -1.416828
189  0  1 -7.120431  4.328114   1.434138
190  0  1 -4.284165 -7.135247  -1.415251
191  0  1 -4.290859 -7.129870   1.438978
192  0  1 -4.282001 -1.410980  -7.135933
193  0  1 -4.286368 -1.401190   7.141658
194  0  1 -4.280851  1.446797  -7.149590
195  0  1 -4.286580  1.451396   7.135449
196  0  1 -4.237776  7.173473  -1.433412
197  0  1 -4.231619  7.178280   1.427637
198  0  1 -1.425003 -7.129167  -4.281832
199  0  1 -1.447741 -7.126388   4.301999
200  0  1 -1.429241 -4.279549  -7.140021
201  0  1 -1.443249 -4.272898   7.149690
202  0  1 -1.403612  4.306397  -7.159928
203  0  1 -1.412217  4.296536   7.138206
204  0  1 -1.364571  7.163529  -4.301915
205  0  1 -1.365836  7.159699   4.300575
206  0  1  1.440615 -7.124022  -4.281224
207  0  1  1.410985 -7.128297   4.292306
208  0  1  1.432662 -4.268598  -7.142253
209  0  1  1.419565 -4.277563   7.147508
210  0  1  1.450020  4.283228  -7.163336
211  0  1  1.452155  4.279809   7.148070
212  0  1  1.494823  7.149705  -4.303613
213  0  1  1.503610  7.123004   4.297444
214  0  1  4.270126 -7.114074  -1.414331
215  0  1  4.266589 -7.113355   1.440569
216  0  1  4.292316 -1.420735  -7.136449
217  0  1  4.283172 -1.428592   7.146905
218  0  1  4.283849  1.419517  -7.151490
219  0  1  4.288227  1.408607   7.149201
220  0  1  4.331899  7.112364  -1.423357
221  0  1  4.341202  7.104575   1.434782
222  0  1  7.127561 -4.259967  -1.414908
223  0  1  7.123912 -4.266644   1.433357
224  0  1  7.137020 -1.418035  -4.278498
225  0  1  7.133407 -1.434157   4.276775
226  0  1  7.136580  1.408104  -4.273567
227  0  1  7.137337  1.384845   4.281622
228  0  1  7.134545  4.236656  -1.427453
229  0  1  7.142897  4.214118   1.422055
230  0  1 -5.708131 -5.707230  -2.846096
231  0  1 -5.722544 -5.697290   2.865280
232  0  1 -5.709170 -2.843518  -5.704232
233  0  1 -5.714860 -2.830666   5.716667
234  0  1 -5.702932  2.889927  -5.722991
235  0  1 -5.705591  2.891508   5.707578
236  0  1 -5.685902  5.744644  -2.858275
237  0  1 -5.680883  5.752062   2.858520
238  0  1 -2.858371 -5.702025  -5.707708
239  0  1 -2.879907 -5.701912   5.732807
240  0  1 -2.820986  5.745569  -5.730018
241  0  1 -2.827825  5.738620   5.722491
242  0  1  2.861476 -5.692338  -5.709060
243  0  1  2.845170 -5.699449   5.714078
244  0  1  2.892825  5.702287  -5.733325
245  0  1  2.910398  5.685760   5.724763
246  0  1  5.701579 -5.685856  -2.836824
247  0  1  5.693561 -5.688679   2.864807
248  0  1  5.718585 -2.844299  -5.703826
249  0  1  5.710902 -2.847303   5.711551
250  0  1  5.711333  2.827645  -5.709998
251  0  1  5.716052  2.811600   5.712312
252  0  1  5.719764  5.673157  -2.854447
253  0  1  5.740936  5.652362   2.855626
254  0  1 -8.555200  0.029052   0.003486
255  0  1  0.001148 -8.560752   0.009277
256  0  1 -0.004416  0.002870  -8.578601
257  0  1 -0.005959  0.009865   8.564802
258  0  1  0.079713  8.580045   0.001617
259  0  1  8.563954 -0.024516  -0.001288
260  0  1 -8.566097 -2.844289   0.005729
261  0  1 -8.556210  0.021878  -2.845294
262  0  1 -8.560180  0.027489   2.852696
263  0  1 -8.558327  2.884730   0.007853
264  0  1 -2.856175 -8.562536   0.010180
265  0  1 -2.848569  0.012128  -8.566576
266  0  1 -2.852912  0.015547   8.564045
267  0  1 -2.800913  8.587644  -0.004085
268  0  1  0.007093 -8.556791  -2.854874
269  0  1 -0.010051 -8.559822   2.867709
270  0  1 -0.003614 -2.851079  -8.571169
271  0  1 -0.005087 -2.848637   8.569424
272  0  1  0.009343  2.866271  -8.587586
273  0  1  0.000945  2.862881   8.565395
274  0  1  0.066255  8.582439  -2.866836
275  0  1  0.073167  8.567777   2.871893
276  0  1  2.856065 -8.551863   0.010033
277  0  1  2.859960 -0.006077  -8.573429
278  0  1  2.854981  0.003511   8.574748
279  0  1  2.917125  8.557110   0.008175
280  0  1  8.564248 -2.845943   0.005331
281  0  1  8.570978 -0.009852  -2.852475
282  0  1  8.569737 -0.018147   2.851993
283  0  1  8.562286  2.815324  -0.009662
284  0  1 -7.134959 -4.279644  -4.276710
285  0  1 -7.145186 -4.268467   4.294667
286  0  1 -7.131907  4.300204  -4.282249
287  0  1 -7.134013  4.304423   4.283002
288  0  1 -4.279593 -7.133548  -4.278225
289  0  1 -4.295307 -7.126503   4.292758
290  0  1 -4.287116 -4.276988  -7.135631
291  0  1 -4.295200 -4.268352   7.152793
292  0  1 -4.275915  4.307579  -7.146728
293  0  1 -4.280250  4.292512   7.141769
294  0  1 -4.261243  7.156189  -4.288819
295  0  1 -4.258911  7.158514   4.290796
296  0  1  4.289799 -7.120604  -4.276518
297  0  1  4.281061 -7.125906   4.289953
298  0  1  4.292804 -4.273014  -7.133410
299  0  1  4.284562 -4.276072   7.141180
300  0  1  4.293961  4.269703  -7.149077
301  0  1  4.301352  4.258039   7.153747
302  0  1  4.315778  7.125442  -4.290230
303  0  1  4.330965  7.110939   4.288339
304  0  1  7.140006 -4.272445  -4.272835
305  0  1  7.139407 -4.275490   4.284698
306  0  1  7.134907  4.260237  -4.275933
307  0  1  7.148019  4.238801   4.282825
308  0  1 -8.563074 -2.849269  -2.853376
309  0  1 -8.568974 -2.843718   2.861548
310  0  1 -8.558041  2.875326  -2.842651
311  0  1 -8.563033  2.873909   2.854643
312  0  1 -2.852063 -8.560097  -2.849250
313  0  1 -2.860276 -8.556864   2.867501
314  0  1 -2.856245 -2.850137  -8.563214
315  0  1 -2.858312 -2.845206   8.572946
316  0  1 -2.850786  2.871263  -8.572334
317  0  1 -2.853290  2.862482   8.562085
318  0  1 -2.815105  8.578619  -2.864925
319  0  1 -2.811483  8.580472   2.865582
320  0  1  2.865288 -8.555547  -2.854801
321  0  1  2.855949 -8.555295   2.862619
322  0  1  2.866234 -2.848011  -8.565882
323  0  1  2.854595 -2.851905   8.571725
324  0  1  2.860280  2.852266  -8.581184
325  0  1  2.860516  2.848639   8.579243
326  0  1  2.907679  8.563970  -2.855371
327  0  1  2.911068  8.553075   2.864230
328  0  1  8.566970 -2.844353  -2.852589
329  0  1  8.568383 -2.851461   2.855229
330  0  1  8.562177  2.840196  -2.849013
331  0  1  8.568677  2.819759   2.853289
332  0  1 -5.709389 -5.706004  -5.702756
333  0  1 -5.720157 -5.699318   5.721742
334  0  1 -5.707819  5.724128  -5.710619
335  0  1 -5.707841  5.717997   5.715267
336  0  1  5.716092 -5.700910  -5.702812
337  0  1  5.713277 -5.701172   5.715209
338  0  1  5.719619  5.696222  -5.711835
339  0  1  5.729031  5.679324   5.714927
340  0  1 -9.992002 -1.423715  -1.425981
341  0  1 -9.994012 -1.420893   1.431813
342  0  1 -9.990701  1.434002  -1.422425
343  0  1 -9.993749  1.433886   1.429420
344  0  1 -1.422698 -9.987690  -1.423475
345  0  1 -1.428048 -9.989510   1.435672
346  0  1 -1.428823 -1.424349  -9.995603
347  0  1 -1.426606 -1.420519   9.995975
348  0  1 -1.426281  1.436207  -9.997401
349  0  1 -1.426797  1.434942   9.995108
350  0  1 -1.393154  9.997487  -1.429199
351  0  1 -1.389481  9.993968   1.437266
352  0  1  1.433863 -9.984003  -1.424685
353  0  1  1.431034 -9.986153   1.433399
354  0  1  1.431097 -1.427292  -9.994470
355  0  1  1.425069 -1.422836   9.996439
356  0  1  1.431998  1.425772  -9.999400
357  0  1  1.423722  1.430162   9.997913
358  0  1  1.469373  9.999205  -1.425048
359  0  1  1.469725  9.996364   1.436715
360  0  1  9.997313 -1.425744  -1.424729
361  0  1  9.998224 -1.425319   1.428701
362  0  1  9.998149  1.425740  -1.429819
363  0  1  9.997029  1.421836   1.424768
364  0  1 -7.133514 -7.136598  -1.418684
365  0  1 -7.136651 -7.133897   1.433679
366  0  1 -7.136129 -1.419271  -7.133102
367  0  1 -7.141772 -1.415231   7.137674
368  0  1 -7.136130  1.435053  -7.137222
369  0  1 -7.134948  1.432286   7.140143
370  0  1 -7.128407  7.143454  -1.423586
371  0  1 -7.128529  7.149365   1.430330
372  0  1 -1.423386 -7.130785  -7.133038
373  0  1 -1.432035 -7.136454   7.144977
374  0  1 -1.406994  7.154990  -7.141291
375  0  1 -1.410159  7.142902   7.147439
376  0  1  1.433730 -7.129237  -7.136243
377  0  1  1.430698 -7.136458   7.139994
378  0  1  1.448126  7.149698  -7.146986
379  0  1  1.457701  7.130598   7.153487
380  0  1  7.132570 -7.125386  -1.418022
381  0  1  7.131672 -7.125326   1.434165
382  0  1  7.145192 -1.419224  -7.131867
383  0  1  7.146129 -1.426269   7.139744
384  0  1  7.144687  1.431686  -7.134720
385  0  1  7.147040  1.421089   7.139399
386  0  1  7.142076  7.125121  -1.423187
387  0  1  7.150360  7.116763   1.430104
388  0  1 -8.563117 -5.706973   0.006618
389  0  1 -8.561606  0.011671  -5.704783
390  0  1 -8.570178  0.013375   5.710501
391  0  1 -8.559593  5.721478   0.006561
392  0  1 -5.708605 -8.565792   0.008243
393  0  1 -5.709813  0.006722  -8.564551
394  0  1 -5.707824  0.004994   8.569928
395  0  1 -5.699203  8.575188   0.000140
396  0  1  0.008213 -8.556189  -5.706516
397  0  1 -0.002721 -8.560890   5.715516
398  0  1  0.004592 -5.704521  -8.564761
399  0  1 -0.000407 -5.709970   8.567674
400  0  1  0.010696  5.719806  -8.572724
401  0  1  0.007509  5.710436   8.572726
402  0  1  0.030086  8.581501  -5.713367
403  0  1  0.040736  8.560754   5.726353
404  0  1  5.709236 -8.553291   0.006293
405  0  1  5.718749  0.002844  -8.565454
406  0  1  5.718725 -0.003044   8.571591
407  0  1  5.728664  8.561284   0.005967
408  0  1  8.560517 -5.702770   0.005616
409  0  1  8.573301  0.009076  -5.704179
410  0  1  8.575597 -0.002860   5.709796
411  0  1  8.566340  5.688683   0.001253
412  0  1 -8.561097 -5.709971  -2.850132
413  0  1 -8.564642 -5.705146   2.860980
414  0  1 -8.559833 -2.851550  -5.706639
415  0  1 -8.571740 -2.844330   5.713430
416  0  1 -8.561588  2.863417  -5.709757
417  0  1 -8.564161  2.861573   5.715576
418  0  1 -8.559017  5.714837  -2.851737
419  0  1 -8.560226  5.721960   2.860598
420  0  1 -5.706462 -8.562093  -2.851324
421  0  1 -5.711403 -8.562175   2.862907
422  0  1 -5.706572 -2.846101  -8.563671
423  0  1 -5.709571 -2.840092   8.572200
424  0  1 -5.708940  2.862864  -8.565808
425  0  1 -5.707106  2.856295   8.572197
426  0  1 -5.704830  8.569203  -2.854869
427  0  1 -5.701912  8.573085   2.856308
428  0  1 -2.851390 -8.560657  -5.707663
429  0  1 -2.863613 -8.558737   5.719891
430  0  1 -2.853988 -5.707288  -8.563121
431  0  1 -2.854763 -5.705873   8.572232
432  0  1 -2.851095  5.722750  -8.565176
433  0  1 -2.851694  5.713562   8.567584
434  0  1 -2.845751  8.573260  -5.706744
435  0  1 -2.845698  8.569194   5.720662
436  0  1  2.863901 -8.555855  -5.708558
437  0  1  2.856399 -8.561416   5.709844
438  0  1  2.861002 -5.703087  -8.562239
439  0  1  2.859275 -5.708668   8.566813
440  0  1  2.865003  5.716452  -8.568345
441  0  1  2.866878  5.708577   8.578339
442  0  1  2.881908  8.571647  -5.718479
443  0  1  2.885461  8.558412   5.722314
444  0  1  5.710911 -8.556137  -2.848567
445  0  1  5.712922 -8.557326   2.861943
446  0  1  5.719768 -2.850950  -8.561591
447  0  1  5.715257 -2.853477   8.569853
448  0  1  5.716521  2.853147  -8.568122
449  0  1  5.718639  2.848735   8.574781
450  0  1  5.717117  8.567047  -2.852561
451  0  1  5.726863  8.563511   2.858688
452  0  1  8.564128 -5.703047  -2.846850
453  0  1  8.566030 -5.703744   2.856540
454  0  1  8.569805 -2.848010  -5.703987
455  0  1  8.570544 -2.851717   5.709273
456  0  1  8.567116  2.862228  -5.705786
457  0  1  8.574305  2.851015   5.713565
458  0  1  8.564103  5.707739  -2.853042
459  0  1  8.569324  5.689369   2.853316
460  0  1 -9.988857 -4.280715  -1.424616
461  0  1 -9.992120 -4.279316   1.431889
462  0  1 -9.988185 -1.421455  -4.280451
463  0  1 -9.995718 -1.418582   4.284828
464  0  1 -9.987313  1.436552  -4.277422
465  0  1 -9.995210  1.436744   4.284464
466  0  1 -9.989288  4.290947  -1.421704
467  0  1 -9.989829  4.292175   1.432737
468  0  1 -4.279949 -9.990459  -1.423991
469  0  1 -4.280526 -9.990607   1.435932
470  0  1 -4.277871 -1.419769  -9.990017
471  0  1 -4.276069 -1.419444   9.998565
472  0  1 -4.280129  1.432890  -9.991296
473  0  1 -4.276984  1.431573   9.996386
474  0  1 -4.273507  9.996729  -1.430570
475  0  1 -4.270353  9.997242   1.430095
476  0  1 -1.422866 -9.986603  -4.279677
477  0  1 -1.430906 -9.988620   4.292234
478  0  1 -1.426915 -4.280869  -9.992933
479  0  1 -1.424472 -4.279084   9.997252
480  0  1 -1.425523  4.294210  -9.997034
481  0  1 -1.427168  4.285653   9.996199
482  0  1 -1.413504 10.001335  -4.281860
483  0  1 -1.404578  9.990128   4.295289
484  0  1  1.434406 -9.986626  -4.281147
485  0  1  1.428315 -9.988328   4.285356
486  0  1  1.433100 -4.277958  -9.991064
487  0  1  1.428468 -4.281753   9.994616
488  0  1  1.435942  4.291685 -10.000096
489  0  1  1.430001  4.283813   9.999261
490  0  1  1.455845 10.002080  -4.284432
491  0  1  1.455812  9.993370   4.294374
492  0  1  4.286132 -9.987232  -1.423354
493  0  1  4.287788 -9.986245   1.432204
494  0  1  4.292264 -1.425128  -9.993548
495  0  1  4.285231 -1.426261   9.997519
496  0  1  4.287854  1.427484  -9.995758
497  0  1  4.288351  1.425374  10.001270
498  0  1  4.297212  9.999036  -1.422454
499  0  1  4.297877  9.997715   1.433085
500  0  1  9.992453 -4.278654  -1.423396
501  0  1  9.995444 -4.280129   1.429010
502  0  1 10.000437 -1.422848  -4.280533
503  0  1 10.000250 -1.427000   4.282253
504  0  1  9.997464  1.436743  -4.278355
505  0  1 10.000221  1.428657   4.284450
506  0  1  9.996177  4.284205  -1.428196
507  0  1  9.994624  4.272278   1.425555
508  0  1 -7.135065 -7.136480  -4.278175
509  0  1 -7.139476 -7.134711   4.289516
510  0  1 -7.132366 -4.277777  -7.135563
511  0  1 -7.139822 -4.269292   7.144668
512  0  1 -7.135517  4.291050  -7.138276
513  0  1 -7.135541  4.286378   7.146127
514  0  1 -7.134338  7.142579  -4.278958
515  0  1 -7.132014  7.146611   4.287059
516  0  1 -4.280880 -7.133369  -7.134003
517  0  1 -4.289804 -7.133648   7.149278
518  0  1 -4.280326  7.146075  -7.134127
519  0  1 -4.282678  7.142521   7.145265
520  0  1  4.288359 -7.129553  -7.134388
521  0  1  4.285493 -7.133818   7.137041
522  0  1  4.295558  7.140589  -7.140972
523  0  1  4.301575  7.135061   7.148832
524  0  1  7.138118 -7.129833  -4.274132
525  0  1  7.140875 -7.130461   4.287313
526  0  1  7.144172 -4.278459  -7.131978
527  0  1  7.143163 -4.277904   7.140905
528  0  1  7.139377  4.282816  -7.135993
529  0  1  7.145194  4.276973   7.144604
530  0  1  7.138172  7.138348  -4.280579
531  0  1  7.146000  7.129823   4.284794

