Generated by pymatgen.io.lammps.data.LammpsData

16000  atoms

    2  atom types

0.000000 57.106232  xlo xhi
0.000000 57.106232  ylo yhi
0.000000 57.106232  zlo zhi
0.000000 0.000000 0.000000  xy xz yz

Masses

1  55.845
2   4.003

Atoms

1      1  0.000000  0.000000  0.000000
2      1  0.000000  0.000000  2.855289
3      1  0.000000  0.000000  5.710583
4      1  0.000000  0.000000  8.565881
5      1  0.000000  0.000000 11.421189
21     1  0.000000  2.855289  0.000000
22     1  0.000000  2.855289  2.855289
23     1  0.000000  2.855286  5.710580
24     1  0.000000  2.855286  8.565881
25     1  0.000000  2.855283 11.421187
41     1  0.000000  5.710583  0.000000
42     1  0.000000  5.710580  2.855286
43     1  0.000000  5.710578  5.710578
44     1  0.000000  5.710575  8.565878
45     1  0.000000  5.710572 11.421184
61     1  0.000000  8.565881  0.000000
62     1  0.000000  8.565881  2.855286
63     1  0.000000  8.565878  5.710575
64     1  0.000000  8.565872  8.565872
65     1  0.000000  8.565869 11.421178
81     1  0.000000 11.421189  0.000000
82     1  0.000000 11.421187  2.855283
83     1  0.000000 11.421184  5.710572
84     1  0.000000 11.421178  8.565869
85     1  0.000000 11.421175 11.421175
401    1  2.855289  0.000000  0.000000
402    1  2.855289  0.000000  2.855289
403    1  2.855286  0.000000  5.710580
404    1  2.855286  0.000000  8.565881
405    1  2.855283  0.000000 11.421187
421    1  2.855289  2.855289  0.000000
422    1  2.855289  2.855289  2.855289
423    1  2.855286  2.855286  5.710580
424    1  2.855283  2.855283  8.565878
425    1  2.855280  2.855280 11.421187
441    1  2.855286  5.710580  0.000000
442    1  2.855286  5.710580  2.855286
443    1  2.855283  5.710578  5.710578
444    1  2.855280  5.710572  8.565875
445    1  2.855277  5.710569 11.421181
461    1  2.855286  8.565881  0.000000
462    1  2.855283  8.565878  2.855283
463    1  2.855280  8.565875  5.710572
464    1  2.855275  8.565869  8.565869
465    1  2.855272  8.565863 11.421175
481    1  2.855283 11.421187  0.000000
482    1  2.855280 11.421187  2.855280
483    1  2.855277 11.421181  5.710569
484    1  2.855272 11.421175  8.565863
485    1  2.855266 11.421169 11.421169
801    1  5.710583  0.000000  0.000000
802    1  5.710580  0.000000  2.855286
803    1  5.710578  0.000000  5.710578
804    1  5.710575  0.000000  8.565878
805    1  5.710572  0.000000 11.421184
821    1  5.710580  2.855286  0.000000
822    1  5.710580  2.855286  2.855286
823    1  5.710578  2.855283  5.710578
824    1  5.710572  2.855280  8.565875
825    1  5.710569  2.855277 11.421181
841    1  5.710578  5.710578  0.000000
842    1  5.710578  5.710578  2.855283
843    1  5.710572  5.710572  5.710572
844    1  5.710563  5.710563  8.565866
845    1  5.710558  5.710558 11.421172
861    1  5.710575  8.565878  0.000000
862    1  5.710572  8.565875  2.855280
863    1  5.710563  8.565866  5.710563
864    1  5.710555  8.565858  8.565858
865    1  5.710543  8.565846 11.421161
881    1  5.710572 11.421184  0.000000
882    1  5.710569 11.421181  2.855277
883    1  5.710558 11.421172  5.710558
884    1  5.710543 11.421161  8.565846
885    1  5.710532 11.421149 11.421149
1201   1  8.565881  0.000000  0.000000
1202   1  8.565881  0.000000  2.855286
1203   1  8.565878  0.000000  5.710575
1204   1  8.565872  0.000000  8.565872
1205   1  8.565869  0.000000 11.421178
1221   1  8.565881  2.855286  0.000000
1222   1  8.565878  2.855283  2.855283
1223   1  8.565875  2.855280  5.710572
1224   1  8.565869  2.855275  8.565869
1225   1  8.565863  2.855272 11.421175
1241   1  8.565878  5.710575  0.000000
1242   1  8.565875  5.710572  2.855280
1243   1  8.565866  5.710563  5.710563
1244   1  8.565858  5.710555  8.565858
1245   1  8.565846  5.710543 11.421161
1261   1  8.565872  8.565872  0.000000
1262   1  8.565869  8.565869  2.855275
1263   1  8.565858  8.565858  5.710555
1264   1  8.565841  8.565841  8.565841
1265   1  8.565826  8.565826 11.421141
1281   1  8.565869 11.421178  0.000000
1282   1  8.565863 11.421175  2.855272
1283   1  8.565846 11.421161  5.710543
1284   1  8.565826 11.421141  8.565826
1285   1  8.565804 11.421121 11.421121
1601   1 11.421189  0.000000  0.000000
1602   1 11.421187  0.000000  2.855283
1603   1 11.421184  0.000000  5.710572
1604   1 11.421178  0.000000  8.565869
1605   1 11.421175  0.000000 11.421175
1621   1 11.421187  2.855283  0.000000
1622   1 11.421187  2.855280  2.855280
1623   1 11.421181  2.855277  5.710569
1624   1 11.421175  2.855272  8.565863
1625   1 11.421169  2.855266 11.421169
1641   1 11.421184  5.710572  0.000000
1642   1 11.421181  5.710569  2.855277
1643   1 11.421172  5.710558  5.710558
1644   1 11.421161  5.710543  8.565846
1645   1 11.421149  5.710532 11.421149
1661   1 11.421178  8.565869  0.000000
1662   1 11.421175  8.565863  2.855272
1663   1 11.421161  8.565846  5.710543
1664   1 11.421141  8.565826  8.565826
1665   1 11.421121  8.565804 11.421121
1681   1 11.421175 11.421175  0.000000
1682   1 11.421169 11.421169  2.855266
1683   1 11.421149 11.421149  5.710532
1684   1 11.421121 11.421121  8.565804
1685   1 11.421089 11.421089 11.421089
2001   1 14.276501  0.000000  0.000000
2002   1 14.276501  0.000000  2.855283
2003   1 14.276498  0.000000  5.710569
2004   1 14.276492  0.000000  8.565866
2005   1 14.276490  0.000000 11.421172
2021   1 14.276501  2.855283  0.000000
2022   1 14.276498  2.855280  2.855280
2023   1 14.276495  2.855275  5.710566
2024   1 14.276490  2.855269  8.565861
2025   1 14.276484  2.855263 11.421164
2041   1 14.276498  5.710569  0.000000
2042   1 14.276495  5.710566  2.855275
2043   1 14.276487  5.710552  5.710552
2044   1 14.276475  5.710538  8.565841
2045   1 14.276464  5.710523 11.421141
2061   1 14.276492  8.565866  0.000000
2062   1 14.276490  8.565861  2.855269
2063   1 14.276475  8.565841  5.710538
2064   1 14.276452  8.565815  8.565815
2065   1 14.276430  8.565786 11.421104
2081   1 14.276490 11.421172  0.000000
2082   1 14.276484 11.421164  2.855263
2083   1 14.276464 11.421141  5.710523
2084   1 14.276430 11.421104  8.565786
2085   1 14.276392 11.421061 11.421061
2401   1 17.131821  0.000000  0.000000
2402   1 17.131818  0.000000  2.855280
2403   1 17.131818  0.000000  5.710569
2404   1 17.131815  0.000000  8.565866
2405   1 17.131813  0.000000 11.421175
2421   1 17.131818  2.855280  0.000000
2422   1 17.131818  2.855280  2.855280
2423   1 17.131815  2.855272  5.710563
2424   1 17.131810  2.855266  8.565858
2425   1 17.131807  2.855260 11.421164
2441   1 17.131818  5.710569  0.000000
2442   1 17.131815  5.710563  2.855272
2443   1 17.131807  5.710549  5.710549
2444   1 17.131798  5.710535  8.565838
2445   1 17.131787  5.710520 11.421138
2461   1 17.131815  8.565866  0.000000
2462   1 17.131810  8.565858  2.855266
2463   1 17.131798  8.565838  5.710535
2464   1 17.131778  8.565806  8.565806
2465   1 17.131756  8.565778 11.421095
2481   1 17.131813 11.421175  0.000000
2482   1 17.131807 11.421164  2.855260
2483   1 17.131787 11.421138  5.710520
2484   1 17.131756 11.421095  8.565778
2485   1 17.131718 11.421044 11.421044
8001   1  1.427644  1.427644  1.427644
8002   1  1.427644  1.427644  4.282936
8003   1  1.427642  1.427642  7.138231
8004   1  1.427642  1.427642  9.993534
8005   1  1.427642  1.427642 12.848845
8021   1  1.427644  4.282936  1.427644
8022   1  1.427642  4.282933  4.282933
8023   1  1.427642  4.282930  7.138228
8024   1  1.427642  4.282927  9.993531
8025   1  1.427639  4.282925 12.848842
8041   1  1.427642  7.138231  1.427642
8042   1  1.427642  7.138228  4.282930
8043   1  1.427639  7.138225  7.138225
8044   1  1.427639  7.138219  9.993525
8045   1  1.427636  7.138216 12.848837
8061   1  1.427642  9.993534  1.427642
8062   1  1.427642  9.993531  4.282927
8063   1  1.427639  9.993525  7.138219
8064   1  1.427636  9.993522  9.993522
8065   1  1.427633  9.993516 12.848831
8081   1  1.427642 12.848845  1.427642
8082   1  1.427639 12.848842  4.282925
8083   1  1.427636 12.848837  7.138216
8084   1  1.427633 12.848831  9.993516
8085   1  1.427630 12.848828 12.848828
8401   1  4.282936  1.427644  1.427644
8402   1  4.282933  1.427642  4.282933
8403   1  4.282930  1.427642  7.138228
8404   1  4.282927  1.427642  9.993531
8405   1  4.282925  1.427639 12.848842
8421   1  4.282933  4.282933  1.427642
8422   1  4.282930  4.282930  4.282930
8423   1  4.282927  4.282927  7.138225
8424   1  4.282922  4.282922  9.993525
8425   1  4.282919  4.282919 12.848837
8441   1  4.282930  7.138228  1.427642
8442   1  4.282927  7.138225  4.282927
8443   1  4.282922  7.138219  7.138219
8444   1  4.282913  7.138211  9.993519
8445   1  4.282910  7.138205 12.848828
8461   1  4.282927  9.993531  1.427642
8462   1  4.282922  9.993525  4.282922
8463   1  4.282913  9.993519  7.138211
8464   1  4.282907  9.993511  9.993511
8465   1  4.282899  9.993505 12.848819
8481   1  4.282925 12.848842  1.427639
8482   1  4.282919 12.848837  4.282919
8483   1  4.282910 12.848828  7.138205
8484   1  4.282899 12.848819  9.993505
8485   1  4.282893 12.848814 12.848814
8801   1  7.138231  1.427642  1.427642
8802   1  7.138228  1.427642  4.282930
8803   1  7.138225  1.427639  7.138225
8804   1  7.138219  1.427639  9.993525
8805   1  7.138216  1.427636 12.848837
8821   1  7.138228  4.282930  1.427642
8822   1  7.138225  4.282927  4.282927
8823   1  7.138219  4.282922  7.138219
8824   1  7.138211  4.282913  9.993519
8825   1  7.138205  4.282910 12.848828
8841   1  7.138225  7.138225  1.427639
8842   1  7.138219  7.138219  4.282922
8843   1  7.138208  7.138208  7.138208
8844   1  7.138199  7.138199  9.993505
8845   1  7.138188  7.138188 12.848814
8861   1  7.138219  9.993525  1.427639
8862   1  7.138211  9.993519  4.282913
8863   1  7.138199  9.993505  7.138199
8864   1  7.138182  9.993491  9.993491
8865   1  7.138171  9.993479 12.848799
8881   1  7.138216 12.848837  1.427636
8882   1  7.138205 12.848828  4.282910
8883   1  7.138188 12.848814  7.138188
8884   1  7.138171 12.848799  9.993479
8885   1  7.138153 12.848782 12.848782
9201   1  9.993534  1.427642  1.427642
9202   1  9.993531  1.427642  4.282927
9203   1  9.993525  1.427639  7.138219
9204   1  9.993522  1.427636  9.993522
9205   1  9.993516  1.427633 12.848831
9221   1  9.993531  4.282927  1.427642
9222   1  9.993525  4.282922  4.282922
9223   1  9.993519  4.282913  7.138211
9224   1  9.993511  4.282907  9.993511
9225   1  9.993505  4.282899 12.848819
9241   1  9.993525  7.138219  1.427639
9242   1  9.993519  7.138211  4.282913
9243   1  9.993505  7.138199  7.138199
9244   1  9.993491  7.138182  9.993491
9245   1  9.993479  7.138171 12.848799
9261   1  9.993522  9.993522  1.427636
9262   1  9.993511  9.993511  4.282907
9263   1  9.993491  9.993491  7.138182
9264   1  9.993468  9.993468  9.993468
9265   1  9.993448  9.993448 12.848771
9281   1  9.993516 12.848831  1.427633
9282   1  9.993505 12.848819  4.282899
9283   1  9.993479 12.848799  7.138171
9284   1  9.993448 12.848771  9.993448
9285   1  9.993419 12.848742 12.848742
9601   1 12.848845  1.427642  1.427642
9602   1 12.848842  1.427639  4.282925
9603   1 12.848837  1.427636  7.138216
9604   1 12.848831  1.427633  9.993516
9605   1 12.848828  1.427630 12.848828
9621   1 12.848842  4.282925  1.427639
9622   1 12.848837  4.282919  4.282919
9623   1 12.848828  4.282910  7.138205
9624   1 12.848819  4.282899  9.993505
9625   1 12.848814  4.282893 12.848814
9641   1 12.848837  7.138216  1.427636
9642   1 12.848828  7.138205  4.282910
9643   1 12.848814  7.138188  7.138188
9644   1 12.848799  7.138171  9.993479
9645   1 12.848782  7.138153 12.848782
9661   1 12.848831  9.993516  1.427633
9662   1 12.848819  9.993505  4.282899
9663   1 12.848799  9.993479  7.138171
9664   1 12.848771  9.993448  9.993448
9665   1 12.848742  9.993419 12.848742
9681   1 12.848828 12.848828  1.427630
9682   1 12.848814 12.848814  4.282893
9683   1 12.848782 12.848782  7.138153
9684   1 12.848742 12.848742  9.993419
9685   1 12.848697 12.848697 12.848697
10001  1 15.704160  1.427642  1.427642
10002  1 15.704157  1.427639  4.282922
10003  1 15.704154  1.427636  7.138213
10004  1 15.704151  1.427633  9.993516
10005  1 15.704148  1.427630 12.848828
10021  1 15.704157  4.282922  1.427639
10022  1 15.704154  4.282916  4.282916
10023  1 15.704145  4.282905  7.138202
10024  1 15.704140  4.282896  9.993499
10025  1 15.704134  4.282887 12.848811
10041  1 15.704154  7.138213  1.427636
10042  1 15.704145  7.138202  4.282905
10043  1 15.704134  7.138182  7.138182
10044  1 15.704117  7.138162  9.993471
10045  1 15.704103  7.138145 12.848774
10061  1 15.704151  9.993516  1.427633
10062  1 15.704140  9.993499  4.282896
10063  1 15.704117  9.993471  7.138162
10064  1 15.704088  9.993434  9.993434
10065  1 15.704057  9.993397 12.848720
10081  1 15.704148 12.848828  1.427630
10082  1 15.704134 12.848811  4.282887
10083  1 15.704103 12.848774  7.138145
10084  1 15.704057 12.848720  9.993397
10085  1 15.704003 12.848662 12.848662
10401  1 18.559480  1.427639  1.427639
10402  1 18.559480  1.427639  4.282922
10403  1 18.559477  1.427633  7.138213
10404  1 18.559474  1.427630  9.993516
10405  1 18.559474  1.427630 12.848831
10421  1 18.559480  4.282922  1.427639
10422  1 18.559477  4.282916  4.282916
10423  1 18.559471  4.282905  7.138202
10424  1 18.559466  4.282893  9.993499
10425  1 18.559460  4.282890 12.848811
10441  1 18.559477  7.138213  1.427633
10442  1 18.559471  7.138202  4.282905
10443  1 18.559460  7.138179  7.138179
10444  1 18.559446  7.138156  9.993468
10445  1 18.559434  7.138142 12.848768
10461  1 18.559474  9.993516  1.427630
10462  1 18.559466  9.993499  4.282893
10463  1 18.559446  9.993468  7.138156
10464  1 18.559420  9.993425  9.993425
10465  1 18.559391  9.993388 12.848711
10481  1 18.559474 12.848831  1.427630
10482  1 18.559460 12.848811  4.282890
10483  1 18.559434 12.848768  7.138142
10484  1 18.559391 12.848711  9.993388
10485  1 18.559340 12.848642 12.848642
101    1  0.000000 14.276501  0.000000
102    1  0.000000 14.276501  2.855283
103    1  0.000000 14.276498  5.710569
104    1  0.000000 14.276492  8.565866
105    1  0.000000 14.276490 11.421172
501    1  2.855283 14.276501  0.000000
502    1  2.855280 14.276498  2.855280
503    1  2.855275 14.276495  5.710566
504    1  2.855269 14.276490  8.565861
505    1  2.855263 14.276484 11.421164
901    1  5.710569 14.276498  0.000000
902    1  5.710566 14.276495  2.855275
903    1  5.710552 14.276487  5.710552
904    1  5.710538 14.276475  8.565841
905    1  5.710523 14.276464 11.421141
1301   1  8.565866 14.276492  0.000000
1302   1  8.565861 14.276490  2.855269
1303   1  8.565841 14.276475  5.710538
1304   1  8.565815 14.276452  8.565815
1305   1  8.565786 14.276430 11.421104
1701   1 11.421172 14.276490  0.000000
1702   1 11.421164 14.276484  2.855263
1703   1 11.421141 14.276464  5.710523
1704   1 11.421104 14.276430  8.565786
1705   1 11.421061 14.276392 11.421061
2101   1 14.276490 14.276490  0.000000
2102   1 14.276481 14.276481  2.855260
2103   1 14.276455 14.276455  5.710515
2104   1 14.276412 14.276412  8.565766
2105   1 14.276353 14.276353 11.421021
2501   1 17.131813 14.276492  0.000000
2502   1 17.131804 14.276481  2.855260
2503   1 17.131781 14.276452  5.710515
2504   1 17.131738 14.276398  8.565758
2505   1 17.131676 14.276327 11.420998
6      1  0.000000  0.000000 14.276501
26     1  0.000000  2.855283 14.276501
46     1  0.000000  5.710569 14.276498
66     1  0.000000  8.565866 14.276492
86     1  0.000000 11.421172 14.276490
2506   1 17.131604 14.276247 14.276247
406    1  2.855283  0.000000 14.276501
426    1  2.855280  2.855280 14.276498
446    1  2.855275  5.710566 14.276495
466    1  2.855269  8.565861 14.276490
2106   1 14.276293 14.276293 14.276293
486    1  2.855263 11.421164 14.276484
806    1  5.710569  0.000000 14.276498
826    1  5.710566  2.855275 14.276495
846    1  5.710552  5.710552 14.276487
1706   1 11.421021 14.276353 14.276353
866    1  5.710538  8.565841 14.276475
886    1  5.710523 11.421141 14.276464
1206   1  8.565866  0.000000 14.276492
1226   1  8.565861  2.855269 14.276490
1306   1  8.565766 14.276412 14.276412
1246   1  8.565841  5.710538 14.276475
1266   1  8.565815  8.565815 14.276452
1286   1  8.565786 11.421104 14.276430
1606   1 11.421172  0.000000 14.276490
906    1  5.710515 14.276455 14.276455
1626   1 11.421164  2.855263 14.276484
1646   1 11.421141  5.710523 14.276464
1666   1 11.421104  8.565786 14.276430
1686   1 11.421061 11.421061 14.276392
506    1  2.855260 14.276481 14.276481
2006   1 14.276490  0.000000 14.276490
2026   1 14.276481  2.855260 14.276481
2046   1 14.276455  5.710515 14.276455
2066   1 14.276412  8.565766 14.276412
106    1  0.000000 14.276490 14.276490
2086   1 14.276353 11.421021 14.276353
2406   1 17.131813  0.000000 14.276492
2426   1 17.131804  2.855260 14.276481
2446   1 17.131781  5.710515 14.276452
2466   1 17.131738  8.565758 14.276398
2486   1 17.131676 11.420998 14.276327
2510   1 17.131499 14.276170 25.697702
7      1  0.000000  0.000000 17.131821
8      1  0.000000  0.000000 19.987141
9      1  0.000000  0.000000 22.842467
10     1  0.000000  0.000000 25.697790
2509   1 17.131490 14.276156 22.842287
27     1  0.000000  2.855280 17.131818
28     1  0.000000  2.855280 19.987141
29     1  0.000000  2.855280 22.842467
30     1  0.000000  2.855280 25.697790
2508   1 17.131496 14.276150 19.986887
47     1  0.000000  5.710569 17.131818
48     1  0.000000  5.710569 19.987141
49     1  0.000000  5.710569 22.842464
50     1  0.000000  5.710569 25.697790
2507   1 17.131536 14.276178 17.131536
67     1  0.000000  8.565866 17.131815
68     1  0.000000  8.565866 19.987139
69     1  0.000000  8.565866 22.842464
70     1  0.000000  8.565869 25.697790
2110   1 14.276230 14.276230 25.697727
87     1  0.000000 11.421175 17.131813
88     1  0.000000 11.421175 19.987139
89     1  0.000000 11.421178 22.842464
90     1  0.000000 11.421181 25.697790
2109   1 14.276224 14.276224 22.842339
407    1  2.855280  0.000000 17.131818
408    1  2.855280  0.000000 19.987141
409    1  2.855280  0.000000 22.842467
410    1  2.855280  0.000000 25.697790
2108   1 14.276227 14.276227 19.986959
427    1  2.855280  2.855280 17.131818
428    1  2.855277  2.855277 19.987141
429    1  2.855277  2.855277 22.842464
430    1  2.855277  2.855277 25.697790
2107   1 14.276247 14.276247 17.131604
447    1  2.855272  5.710563 17.131815
448    1  2.855272  5.710563 19.987139
449    1  2.855272  5.710563 22.842464
450    1  2.855272  5.710563 25.697790
1710   1 11.420998 14.276321 25.697753
467    1  2.855266  8.565858 17.131810
468    1  2.855266  8.565858 19.987136
469    1  2.855266  8.565861 22.842462
470    1  2.855266  8.565861 25.697790
1709   1 11.420992 14.276315 22.842387
487    1  2.855260 11.421164 17.131807
488    1  2.855260 11.421167 19.987133
489    1  2.855263 11.421169 22.842462
490    1  2.855263 11.421172 25.697787
1708   1 11.420990 14.276315 19.987024
807    1  5.710569  0.000000 17.131818
808    1  5.710569  0.000000 19.987141
809    1  5.710569  0.000000 22.842464
810    1  5.710569  0.000000 25.697790
1707   1 11.420998 14.276327 17.131676
827    1  5.710563  2.855272 17.131815
828    1  5.710563  2.855272 19.987139
829    1  5.710563  2.855272 22.842464
830    1  5.710563  2.855272 25.697790
1310   1  8.565769 14.276401 25.697770
847    1  5.710549  5.710549 17.131807
848    1  5.710549  5.710549 19.987133
849    1  5.710549  5.710549 22.842462
850    1  5.710549  5.710549 25.697787
1309   1  8.565764 14.276398 22.842424
867    1  5.710535  8.565838 17.131798
868    1  5.710532  8.565835 19.987124
869    1  5.710532  8.565835 22.842456
870    1  5.710532  8.565838 25.697785
1308   1  8.565761 14.276395 19.987079
887    1  5.710520 11.421138 17.131787
888    1  5.710520 11.421138 19.987119
889    1  5.710520 11.421138 22.842450
890    1  5.710523 11.421141 25.697785
1307   1  8.565758 14.276398 17.131738
1207   1  8.565866  0.000000 17.131815
1208   1  8.565866  0.000000 19.987139
1209   1  8.565866  0.000000 22.842464
1210   1  8.565869  0.000000 25.697790
910    1  5.710526 14.276461 25.697782
1227   1  8.565858  2.855266 17.131810
1228   1  8.565858  2.855266 19.987136
1229   1  8.565861  2.855266 22.842462
1230   1  8.565861  2.855266 25.697790
909    1  5.710520 14.276455 22.842447
1247   1  8.565838  5.710535 17.131798
1248   1  8.565835  5.710532 19.987124
1249   1  8.565835  5.710532 22.842456
1250   1  8.565838  5.710532 25.697785
908    1  5.710518 14.276452 19.987113
1267   1  8.565806  8.565806 17.131778
1268   1  8.565806  8.565806 19.987110
1269   1  8.565806  8.565806 22.842444
1270   1  8.565806  8.565806 25.697782
907    1  5.710515 14.276452 17.131781
1287   1  8.565778 11.421095 17.131756
1288   1  8.565775 11.421089 19.987093
1289   1  8.565778 11.421092 22.842433
1290   1  8.565778 11.421092 25.697776
510    1  2.855266 14.276492 25.697790
1607   1 11.421175  0.000000 17.131813
1608   1 11.421175  0.000000 19.987139
1609   1 11.421178  0.000000 22.842464
1610   1 11.421181  0.000000 25.697790
509    1  2.855266 14.276490 22.842462
1627   1 11.421164  2.855260 17.131807
1628   1 11.421167  2.855260 19.987133
1629   1 11.421169  2.855263 22.842462
1630   1 11.421172  2.855263 25.697787
508    1  2.855263 14.276487 19.987133
1647   1 11.421138  5.710520 17.131787
1648   1 11.421138  5.710520 19.987119
1649   1 11.421138  5.710520 22.842450
1650   1 11.421141  5.710523 25.697785
507    1  2.855260 14.276481 17.131804
1667   1 11.421095  8.565778 17.131756
1668   1 11.421089  8.565775 19.987093
1669   1 11.421092  8.565778 22.842433
1670   1 11.421092  8.565778 25.697776
110    1  0.000000 14.276504 25.697790
1687   1 11.421044 11.421044 17.131718
1688   1 11.421035 11.421035 19.987061
1689   1 11.421038 11.421038 22.842410
1690   1 11.421038 11.421038 25.697765
109    1  0.000000 14.276501 22.842464
2007   1 14.276492  0.000000 17.131813
2008   1 14.276495  0.000000 19.987139
2009   1 14.276501  0.000000 22.842464
2010   1 14.276504  0.000000 25.697790
108    1  0.000000 14.276495 19.987139
2027   1 14.276481  2.855260 17.131804
2028   1 14.276487  2.855263 19.987133
2029   1 14.276490  2.855266 22.842462
2030   1 14.276492  2.855266 25.697790
107    1  0.000000 14.276492 17.131813
2047   1 14.276452  5.710515 17.131781
2048   1 14.276452  5.710518 19.987113
2049   1 14.276455  5.710520 22.842447
2050   1 14.276461  5.710526 25.697782
10490  1 18.559251 12.848605 27.125418
2067   1 14.276398  8.565758 17.131738
2068   1 14.276395  8.565761 19.987079
2069   1 14.276398  8.565764 22.842424
2070   1 14.276401  8.565769 25.697770
10489  1 18.559243 12.848588 24.270020
2087   1 14.276327 11.420998 17.131676
2088   1 14.276315 11.420990 19.987024
2089   1 14.276315 11.420992 22.842387
2090   1 14.276321 11.420998 25.697753
10488  1 18.559237 12.848565 21.414623
2407   1 17.131815  0.000000 17.131815
2408   1 17.131821  0.000000 19.987141
2409   1 17.131827  0.000000 22.842467
2410   1 17.131830  0.000000 25.697793
10487  1 18.559249 12.848557 18.559249
2427   1 17.131807  2.855263 17.131807
2428   1 17.131813  2.855269 19.987136
2429   1 17.131815  2.855272 22.842464
2430   1 17.131821  2.855277 25.697790
10486  1 18.559286 12.848582 15.703920
2447   1 17.131778  5.710518 17.131778
2448   1 17.131781  5.710526 19.987113
2449   1 17.131787  5.710535 22.842447
2450   1 17.131793  5.710543 25.697782
10470  1 18.559371  9.993422 27.125438
2467   1 17.131727  8.565755 17.131727
2468   1 17.131724  8.565764 19.987070
2469   1 17.131730  8.565775 22.842419
2470   1 17.131736  8.565786 25.697767
10469  1 18.559366  9.993408 24.270075
2487   1 17.131644 11.420972 17.131644
2488   1 17.131633 11.420970 19.986996
2489   1 17.131633 11.420984 22.842367
2490   1 17.131641 11.420998 25.697742
8006   1  1.427642  1.427642 15.704160
8007   1  1.427639  1.427639 18.559480
8008   1  1.427639  1.427639 21.414803
8009   1  1.427639  1.427639 24.270129
8010   1  1.427639  1.427639 27.125455
8026   1  1.427639  4.282922 15.704157
8027   1  1.427639  4.282922 18.559480
8028   1  1.427639  4.282922 21.414803
8029   1  1.427639  4.282922 24.270129
8030   1  1.427639  4.282922 27.125455
8046   1  1.427636  7.138213 15.704154
8047   1  1.427633  7.138213 18.559477
8048   1  1.427633  7.138213 21.414800
8049   1  1.427633  7.138216 24.270126
8050   1  1.427633  7.138216 27.125455
8066   1  1.427633  9.993516 15.704151
8067   1  1.427630  9.993516 18.559474
8068   1  1.427633  9.993519 21.414800
8069   1  1.427633  9.993519 24.270126
8070   1  1.427633  9.993522 27.125452
8086   1  1.427630 12.848828 15.704148
8087   1  1.427630 12.848831 18.559474
8088   1  1.427630 12.848834 21.414800
8089   1  1.427633 12.848837 24.270126
8090   1  1.427633 12.848839 27.125455
8406   1  4.282922  1.427639 15.704157
8407   1  4.282922  1.427639 18.559480
8408   1  4.282922  1.427639 21.414803
8409   1  4.282922  1.427639 24.270129
8410   1  4.282922  1.427639 27.125455
8426   1  4.282916  4.282916 15.704154
8427   1  4.282916  4.282916 18.559477
8428   1  4.282916  4.282916 21.414800
8429   1  4.282916  4.282916 24.270126
8430   1  4.282916  4.282916 27.125452
8446   1  4.282905  7.138202 15.704145
8447   1  4.282905  7.138202 18.559471
8448   1  4.282905  7.138202 21.414797
8449   1  4.282905  7.138202 24.270126
8450   1  4.282905  7.138202 27.125452
8466   1  4.282896  9.993499 15.704140
8467   1  4.282893  9.993499 18.559466
8468   1  4.282893  9.993499 21.414794
8469   1  4.282896  9.993502 24.270123
8470   1  4.282896  9.993502 27.125452
8486   1  4.282887 12.848811 15.704134
8487   1  4.282890 12.848811 18.559460
8488   1  4.282890 12.848814 21.414791
8489   1  4.282893 12.848817 24.270120
8490   1  4.282896 12.848817 27.125452
8806   1  7.138213  1.427636 15.704154
8807   1  7.138213  1.427633 18.559477
8808   1  7.138213  1.427633 21.414800
8809   1  7.138216  1.427633 24.270126
8810   1  7.138216  1.427633 27.125455
8826   1  7.138202  4.282905 15.704145
8827   1  7.138202  4.282905 18.559471
8828   1  7.138202  4.282905 21.414797
8829   1  7.138202  4.282905 24.270126
8830   1  7.138202  4.282905 27.125452
8846   1  7.138182  7.138182 15.704134
8847   1  7.138179  7.138179 18.559460
8848   1  7.138179  7.138179 21.414789
8849   1  7.138179  7.138179 24.270120
8850   1  7.138179  7.138179 27.125452
8866   1  7.138162  9.993471 15.704117
8867   1  7.138156  9.993468 18.559446
8868   1  7.138156  9.993465 21.414780
8869   1  7.138156  9.993468 24.270115
8870   1  7.138159  9.993468 27.125449
8886   1  7.138145 12.848774 15.704103
8887   1  7.138142 12.848768 18.559434
8888   1  7.138142 12.848771 21.414771
8889   1  7.138148 12.848774 24.270109
8890   1  7.138148 12.848774 27.125446
9206   1  9.993516  1.427633 15.704151
9207   1  9.993516  1.427630 18.559474
9208   1  9.993519  1.427633 21.414800
9209   1  9.993519  1.427633 24.270126
9210   1  9.993522  1.427633 27.125452
9226   1  9.993499  4.282896 15.704140
9227   1  9.993499  4.282893 18.559466
9228   1  9.993499  4.282893 21.414794
9229   1  9.993502  4.282896 24.270123
9230   1  9.993502  4.282896 27.125452
9246   1  9.993471  7.138162 15.704117
9247   1  9.993468  7.138156 18.559446
9248   1  9.993465  7.138156 21.414780
9249   1  9.993468  7.138156 24.270115
9250   1  9.993468  7.138159 27.125449
9266   1  9.993434  9.993434 15.704088
9267   1  9.993425  9.993425 18.559420
9268   1  9.993425  9.993425 21.414760
9269   1  9.993425  9.993425 24.270103
9270   1  9.993425  9.993425 27.125446
9286   1  9.993397 12.848720 15.704057
9287   1  9.993388 12.848711 18.559391
9288   1  9.993388 12.848708 21.414740
9289   1  9.993391 12.848711 24.270089
9290   1  9.993394 12.848711 27.125440
9606   1 12.848828  1.427630 15.704148
9607   1 12.848831  1.427630 18.559474
9608   1 12.848834  1.427630 21.414800
9609   1 12.848837  1.427633 24.270126
9610   1 12.848839  1.427633 27.125455
9626   1 12.848811  4.282887 15.704134
9627   1 12.848811  4.282890 18.559460
9628   1 12.848814  4.282890 21.414791
9629   1 12.848817  4.282893 24.270120
9630   1 12.848817  4.282896 27.125452
9646   1 12.848774  7.138145 15.704103
9647   1 12.848768  7.138142 18.559434
9648   1 12.848771  7.138142 21.414771
9649   1 12.848774  7.138148 24.270109
9650   1 12.848774  7.138148 27.125446
9666   1 12.848720  9.993397 15.704057
9667   1 12.848711  9.993388 18.559391
9668   1 12.848708  9.993388 21.414740
9669   1 12.848711  9.993391 24.270089
9670   1 12.848711  9.993394 27.125440
9686   1 12.848662 12.848662 15.704003
9687   1 12.848642 12.848642 18.559340
9688   1 12.848637 12.848637 21.414700
9689   1 12.848640 12.848640 24.270066
9690   1 12.848642 12.848642 27.125432
10006  1 15.704151  1.427630 15.704151
10007  1 15.704154  1.427633 18.559474
10008  1 15.704157  1.427633 21.414803
10009  1 15.704163  1.427636 24.270129
10010  1 15.704165  1.427636 27.125455
10026  1 15.704131  4.282887 15.704131
10027  1 15.704134  4.282890 18.559460
10028  1 15.704137  4.282896 21.414791
10029  1 15.704143  4.282902 24.270123
10030  1 15.704145  4.282905 27.125452
10046  1 15.704091  7.138136 15.704091
10047  1 15.704088  7.138139 18.559426
10048  1 15.704091  7.138145 21.414766
10049  1 15.704097  7.138153 24.270106
10050  1 15.704100  7.138159 27.125446
10066  1 15.704031  9.993374 15.704031
10067  1 15.704020  9.993368 18.559368
10068  1 15.704017  9.993374 21.414723
10069  1 15.704023  9.993382 24.270080
10070  1 15.704025  9.993388 27.125438
10086  1 15.703954 12.848611 15.703954
10087  1 15.703920 12.848582 18.559286
10088  1 15.703911 12.848580 21.414657
10089  1 15.703914 12.848588 24.270040
10090  1 15.703920 12.848597 27.125423
10406  1 18.559474  1.427633 15.704154
10407  1 18.559480  1.427636 18.559480
10408  1 18.559486  1.427639 21.414806
10409  1 18.559488  1.427642 24.270132
10410  1 18.559491  1.427642 27.125455
10426  1 18.559460  4.282890 15.704134
10427  1 18.559463  4.282899 18.559463
10428  1 18.559468  4.282907 21.414794
10429  1 18.559474  4.282916 24.270123
10430  1 18.559477  4.282922 27.125452
10446  1 18.559426  7.138139 15.704088
10447  1 18.559423  7.138148 18.559423
10448  1 18.559428  7.138162 21.414766
10449  1 18.559434  7.138179 24.270106
10450  1 18.559440  7.138188 27.125446
10466  1 18.559368  9.993368 15.704020
10467  1 18.559357  9.993371 18.559357
10468  1 18.559357  9.993388 21.414714
11     1  0.000000  0.000000 28.553116
12     1  0.000000  0.000000 31.408442
13     1  0.000000  0.000000 34.263765
14     1  0.000000  0.000000 37.119091
15     1  0.000000  0.000000 39.974411
31     1  0.000000  2.855280 28.553116
32     1  0.000000  2.855280 31.408442
33     1  0.000000  2.855280 34.263768
34     1  0.000000  2.855280 37.119091
35     1  0.000000  2.855280 39.974414
51     1  0.000000  5.710569 28.553116
52     1  0.000000  5.710569 31.408442
53     1  0.000000  5.710569 34.263768
54     1  0.000000  5.710569 37.119094
55     1  0.000000  5.710569 39.974417
71     1  0.000000  8.565869 28.553116
72     1  0.000000  8.565869 31.408442
73     1  0.000000  8.565866 34.263768
74     1  0.000000  8.565866 37.119094
75     1  0.000000  8.565866 39.974420
91     1  0.000000 11.421184 28.553116
92     1  0.000000 11.421181 31.408442
93     1  0.000000 11.421178 34.263768
94     1  0.000000 11.421175 37.119094
95     1  0.000000 11.421175 39.974420
411    1  2.855280  0.000000 28.553116
412    1  2.855280  0.000000 31.408442
413    1  2.855280  0.000000 34.263768
414    1  2.855280  0.000000 37.119091
415    1  2.855280  0.000000 39.974414
431    1  2.855277  2.855277 28.553116
432    1  2.855277  2.855277 31.408442
433    1  2.855277  2.855277 34.263768
434    1  2.855277  2.855277 37.119091
435    1  2.855280  2.855280 39.974414
451    1  2.855272  5.710563 28.553116
452    1  2.855272  5.710563 31.408442
453    1  2.855272  5.710563 34.263768
454    1  2.855272  5.710563 37.119094
455    1  2.855272  5.710563 39.974417
471    1  2.855266  8.565861 28.553116
472    1  2.855266  8.565861 31.408445
473    1  2.855266  8.565861 34.263771
474    1  2.855266  8.565858 37.119097
475    1  2.855266  8.565858 39.974423
491    1  2.855263 11.421172 28.553116
492    1  2.855263 11.421172 31.408445
493    1  2.855263 11.421169 34.263771
494    1  2.855260 11.421167 37.119100
495    1  2.855260 11.421164 39.974425
811    1  5.710569  0.000000 28.553116
812    1  5.710569  0.000000 31.408442
813    1  5.710569  0.000000 34.263768
814    1  5.710569  0.000000 37.119094
815    1  5.710569  0.000000 39.974417
831    1  5.710563  2.855272 28.553116
832    1  5.710563  2.855272 31.408442
833    1  5.710563  2.855272 34.263768
834    1  5.710563  2.855272 37.119094
835    1  5.710563  2.855272 39.974417
851    1  5.710549  5.710549 28.553116
852    1  5.710549  5.710549 31.408445
853    1  5.710549  5.710549 34.263774
854    1  5.710549  5.710549 37.119100
855    1  5.710549  5.710549 39.974425
871    1  5.710532  8.565838 28.553116
872    1  5.710532  8.565838 31.408448
873    1  5.710532  8.565835 34.263777
874    1  5.710532  8.565835 37.119108
875    1  5.710535  8.565838 39.974437
891    1  5.710523 11.421141 28.553116
892    1  5.710523 11.421141 31.408448
893    1  5.710520 11.421138 34.263782
894    1  5.710520 11.421138 37.119114
895    1  5.710520 11.421138 39.974445
1211   1  8.565869  0.000000 28.553116
1212   1  8.565869  0.000000 31.408442
1213   1  8.565866  0.000000 34.263768
1214   1  8.565866  0.000000 37.119094
1215   1  8.565866  0.000000 39.974420
1231   1  8.565861  2.855266 28.553116
1232   1  8.565861  2.855266 31.408445
1233   1  8.565861  2.855266 34.263771
1234   1  8.565858  2.855266 37.119097
1235   1  8.565858  2.855266 39.974423
1251   1  8.565838  5.710532 28.553116
1252   1  8.565838  5.710532 31.408448
1253   1  8.565835  5.710532 34.263777
1254   1  8.565835  5.710532 37.119108
1255   1  8.565838  5.710535 39.974437
1271   1  8.565806  8.565806 28.553116
1272   1  8.565806  8.565806 31.408451
1273   1  8.565806  8.565806 34.263788
1274   1  8.565806  8.565806 37.119122
1275   1  8.565806  8.565806 39.974454
1291   1  8.565778 11.421092 28.553116
1292   1  8.565778 11.421092 31.408456
1293   1  8.565778 11.421092 34.263799
1294   1  8.565775 11.421089 37.119140
1295   1  8.565778 11.421095 39.974477
1611   1 11.421184  0.000000 28.553116
1612   1 11.421181  0.000000 31.408442
1613   1 11.421178  0.000000 34.263768
1614   1 11.421175  0.000000 37.119094
1615   1 11.421175  0.000000 39.974420
1631   1 11.421172  2.855263 28.553116
1632   1 11.421172  2.855263 31.408445
1633   1 11.421169  2.855263 34.263771
1634   1 11.421167  2.855260 37.119100
1635   1 11.421164  2.855260 39.974425
1651   1 11.421141  5.710523 28.553116
1652   1 11.421141  5.710523 31.408448
1653   1 11.421138  5.710520 34.263782
1654   1 11.421138  5.710520 37.119114
1655   1 11.421138  5.710520 39.974445
1671   1 11.421092  8.565778 28.553116
1672   1 11.421092  8.565778 31.408456
1673   1 11.421092  8.565778 34.263799
1674   1 11.421089  8.565775 37.119140
1675   1 11.421095  8.565778 39.974477
1691   1 11.421041 11.421041 28.553116
1692   1 11.421038 11.421038 31.408468
1693   1 11.421038 11.421038 34.263822
1694   1 11.421035 11.421035 37.119174
1695   1 11.421044 11.421044 39.974517
2011   1 14.276504  0.000000 28.553116
2012   1 14.276504  0.000000 31.408442
2013   1 14.276501  0.000000 34.263768
2014   1 14.276495  0.000000 37.119094
2015   1 14.276492  0.000000 39.974420
2031   1 14.276495  2.855269 28.553116
2032   1 14.276492  2.855266 31.408445
2033   1 14.276490  2.855266 34.263771
2034   1 14.276487  2.855263 37.119100
2035   1 14.276481  2.855260 39.974428
2051   1 14.276461  5.710526 28.553116
2052   1 14.276461  5.710526 31.408451
2053   1 14.276455  5.710520 34.263785
2054   1 14.276452  5.710518 37.119120
2055   1 14.276452  5.710515 39.974451
2071   1 14.276404  8.565772 28.553116
2072   1 14.276401  8.565769 31.408462
2073   1 14.276398  8.565764 34.263808
2074   1 14.276395  8.565761 37.119154
2075   1 14.276398  8.565758 39.974494
2091   1 14.276321 11.421001 28.553116
2092   1 14.276321 11.420998 31.408482
2093   1 14.276315 11.420992 34.263845
2094   1 14.276315 11.420990 37.119208
2095   1 14.276327 11.420998 39.974557
2411   1 17.131833  0.000000 28.553116
2412   1 17.131830  0.000000 31.408439
2413   1 17.131827  0.000000 34.263765
2414   1 17.131821  0.000000 37.119091
2415   1 17.131815  0.000000 39.974417
2431   1 17.131821  2.855277 28.553116
2432   1 17.131821  2.855277 31.408442
2433   1 17.131815  2.855272 34.263768
2434   1 17.131813  2.855269 37.119097
2435   1 17.131807  2.855263 39.974425
2451   1 17.131793  5.710546 28.553116
2452   1 17.131793  5.710543 31.408451
2453   1 17.131787  5.710535 34.263785
2454   1 17.131781  5.710526 37.119120
2455   1 17.131778  5.710518 39.974454
2471   1 17.131738  8.565792 28.553116
2472   1 17.131736  8.565786 31.408465
2473   1 17.131730  8.565775 34.263814
2474   1 17.131724  8.565764 37.119162
2475   1 17.131727  8.565755 39.974505
2491   1 17.131644 11.421004 28.553116
2492   1 17.131641 11.420998 31.408491
2493   1 17.131633 11.420984 34.263865
2494   1 17.131633 11.420970 37.119237
2495   1 17.131644 11.420972 39.974588
8011   1  1.427639  1.427639 29.980778
8012   1  1.427639  1.427639 32.836104
8013   1  1.427639  1.427639 35.691430
8014   1  1.427639  1.427639 38.546753
8015   1  1.427642  1.427642 41.402073
8031   1  1.427639  4.282922 29.980781
8032   1  1.427639  4.282922 32.836104
8033   1  1.427639  4.282922 35.691430
8034   1  1.427639  4.282922 38.546753
8035   1  1.427639  4.282922 41.402076
8051   1  1.427633  7.138216 29.980781
8052   1  1.427633  7.138216 32.836106
8053   1  1.427633  7.138213 35.691432
8054   1  1.427633  7.138213 38.546755
8055   1  1.427636  7.138213 41.402078
8071   1  1.427633  9.993522 29.980781
8072   1  1.427633  9.993519 32.836106
8073   1  1.427633  9.993519 35.691432
8074   1  1.427630  9.993516 38.546758
8075   1  1.427633  9.993516 41.402081
8091   1  1.427633 12.848839 29.980781
8092   1  1.427633 12.848837 32.836106
8093   1  1.427630 12.848834 35.691432
8094   1  1.427630 12.848831 38.546758
8095   1  1.427630 12.848828 41.402084
8411   1  4.282922  1.427639 29.980781
8412   1  4.282922  1.427639 32.836104
8413   1  4.282922  1.427639 35.691430
8414   1  4.282922  1.427639 38.546753
8415   1  4.282922  1.427639 41.402076
8431   1  4.282916  4.282916 29.980781
8432   1  4.282916  4.282916 32.836106
8433   1  4.282916  4.282916 35.691432
8434   1  4.282916  4.282916 38.546758
8435   1  4.282916  4.282916 41.402078
8451   1  4.282905  7.138202 29.980781
8452   1  4.282905  7.138202 32.836109
8453   1  4.282905  7.138202 35.691435
8454   1  4.282905  7.138202 38.546761
8455   1  4.282905  7.138202 41.402087
8471   1  4.282896  9.993502 29.980781
8472   1  4.282896  9.993502 32.836109
8473   1  4.282893  9.993499 35.691441
8474   1  4.282893  9.993499 38.546770
8475   1  4.282896  9.993499 41.402093
8491   1  4.282896 12.848817 29.980781
8492   1  4.282893 12.848817 32.836112
8493   1  4.282890 12.848814 35.691441
8494   1  4.282890 12.848811 38.546773
8495   1  4.282887 12.848811 41.402098
8811   1  7.138216  1.427633 29.980781
8812   1  7.138216  1.427633 32.836106
8813   1  7.138213  1.427633 35.691432
8814   1  7.138213  1.427633 38.546755
8815   1  7.138213  1.427636 41.402078
8831   1  7.138202  4.282905 29.980781
8832   1  7.138202  4.282905 32.836109
8833   1  7.138202  4.282905 35.691435
8834   1  7.138202  4.282905 38.546761
8835   1  7.138202  4.282905 41.402087
8851   1  7.138179  7.138179 29.980781
8852   1  7.138179  7.138179 32.836112
8853   1  7.138179  7.138179 35.691444
8854   1  7.138179  7.138179 38.546773
8855   1  7.138182  7.138182 41.402098
8871   1  7.138159  9.993468 29.980783
8872   1  7.138156  9.993468 32.836118
8873   1  7.138156  9.993465 35.691452
8874   1  7.138156  9.993468 38.546787
8875   1  7.138162  9.993471 41.402116
8891   1  7.138148 12.848774 29.980786
8892   1  7.138148 12.848774 32.836124
8893   1  7.138142 12.848771 35.691464
8894   1  7.138142 12.848768 38.546798
8895   1  7.138145 12.848774 41.402130
9211   1  9.993522  1.427633 29.980781
9212   1  9.993519  1.427633 32.836106
9213   1  9.993519  1.427633 35.691432
9214   1  9.993516  1.427630 38.546758
9215   1  9.993516  1.427633 41.402081
9231   1  9.993502  4.282896 29.980781
9232   1  9.993502  4.282896 32.836109
9233   1  9.993499  4.282893 35.691441
9234   1  9.993499  4.282893 38.546770
9235   1  9.993499  4.282896 41.402093
9251   1  9.993468  7.138159 29.980783
9252   1  9.993468  7.138156 32.836118
9253   1  9.993465  7.138156 35.691452
9254   1  9.993468  7.138156 38.546787
9255   1  9.993471  7.138162 41.402116
9271   1  9.993425  9.993425 29.980786
9272   1  9.993425  9.993425 32.836129
9273   1  9.993425  9.993425 35.691472
9274   1  9.993425  9.993425 38.546813
9275   1  9.993434  9.993434 41.402144
9291   1  9.993394 12.848711 29.980792
9292   1  9.993391 12.848711 32.836144
9293   1  9.993388 12.848708 35.691492
9294   1  9.993388 12.848711 38.546841
9295   1  9.993397 12.848720 41.402176
9611   1 12.848839  1.427633 29.980781
9612   1 12.848837  1.427633 32.836106
9613   1 12.848834  1.427630 35.691432
9614   1 12.848831  1.427630 38.546758
9615   1 12.848828  1.427630 41.402084
9631   1 12.848817  4.282896 29.980781
9632   1 12.848817  4.282893 32.836112
9633   1 12.848814  4.282890 35.691441
9634   1 12.848811  4.282890 38.546773
9635   1 12.848811  4.282887 41.402098
9651   1 12.848774  7.138148 29.980786
9652   1 12.848774  7.138148 32.836124
9653   1 12.848771  7.138142 35.691464
9654   1 12.848768  7.138142 38.546798
9655   1 12.848774  7.138145 41.402130
9671   1 12.848711  9.993394 29.980792
9672   1 12.848711  9.993391 32.836144
9673   1 12.848708  9.993388 35.691492
9674   1 12.848711  9.993388 38.546841
9675   1 12.848720  9.993397 41.402176
9691   1 12.848642 12.848642 29.980801
9692   1 12.848640 12.848640 32.836166
9693   1 12.848637 12.848637 35.691535
9694   1 12.848642 12.848642 38.546892
9695   1 12.848662 12.848662 41.402230
10011  1 15.704165  1.427636 29.980778
10012  1 15.704163  1.427636 32.836104
10013  1 15.704157  1.427633 35.691430
10014  1 15.704154  1.427633 38.546758
10015  1 15.704151  1.427630 41.402084
10031  1 15.704145  4.282905 29.980781
10032  1 15.704143  4.282902 32.836112
10033  1 15.704137  4.282896 35.691441
10034  1 15.704134  4.282890 38.546773
10035  1 15.704131  4.282887 41.402101
10051  1 15.704100  7.138159 29.980786
10052  1 15.704097  7.138153 32.836126
10053  1 15.704091  7.138145 35.691467
10054  1 15.704088  7.138139 38.546807
10055  1 15.704091  7.138136 41.402141
10071  1 15.704025  9.993388 29.980795
10072  1 15.704023  9.993382 32.836152
10073  1 15.704017  9.993374 35.691512
10074  1 15.704020  9.993368 38.546864
10075  1 15.704031  9.993374 41.402201
10091  1 15.703920 12.848597 29.980809
10092  1 15.703914 12.848588 32.836192
10093  1 15.703911 12.848580 35.691578
10094  1 15.703920 12.848582 38.546947
10095  1 15.703954 12.848611 41.402278
10411  1 18.559491  1.427642 29.980778
10412  1 18.559488  1.427642 32.836101
10413  1 18.559486  1.427639 35.691427
10414  1 18.559480  1.427636 38.546753
10415  1 18.559474  1.427633 41.402078
10431  1 18.559477  4.282922 29.980781
10432  1 18.559474  4.282916 32.836109
10433  1 18.559468  4.282907 35.691438
10434  1 18.559463  4.282899 38.546770
10435  1 18.559460  4.282890 41.402101
10451  1 18.559440  7.138188 29.980786
10452  1 18.559434  7.138179 32.836126
10453  1 18.559428  7.138162 35.691467
10454  1 18.559423  7.138148 38.546810
10455  1 18.559426  7.138139 41.402144
10471  1 18.559371  9.993422 29.980795
10472  1 18.559366  9.993408 32.836158
10473  1 18.559357  9.993388 35.691521
10474  1 18.559357  9.993371 38.546875
10475  1 18.559368  9.993368 41.402213
10491  1 18.559251 12.848605 29.980815
10492  1 18.559243 12.848588 32.836212
10493  1 18.559237 12.848565 35.691609
10494  1 18.559249 12.848557 38.546984
10495  1 18.559286 12.848582 41.402313
111    1  0.000000 14.276504 28.553116
112    1  0.000000 14.276504 31.408442
113    1  0.000000 14.276501 34.263768
114    1  0.000000 14.276495 37.119094
115    1  0.000000 14.276492 39.974420
511    1  2.855269 14.276495 28.553116
512    1  2.855266 14.276492 31.408445
513    1  2.855266 14.276490 34.263771
514    1  2.855263 14.276487 37.119100
515    1  2.855260 14.276481 39.974428
911    1  5.710526 14.276461 28.553116
912    1  5.710526 14.276461 31.408451
913    1  5.710520 14.276455 34.263785
914    1  5.710518 14.276452 37.119120
915    1  5.710515 14.276452 39.974451
1311   1  8.565772 14.276404 28.553116
1312   1  8.565769 14.276401 31.408462
1313   1  8.565764 14.276398 34.263808
1314   1  8.565761 14.276395 37.119154
1315   1  8.565758 14.276398 39.974494
1711   1 11.421001 14.276321 28.553116
1712   1 11.420998 14.276321 31.408482
1713   1 11.420992 14.276315 34.263845
1714   1 11.420990 14.276315 37.119208
1715   1 11.420998 14.276327 39.974557
2111   1 14.276233 14.276233 28.553116
2112   1 14.276230 14.276230 31.408505
2113   1 14.276224 14.276224 34.263894
2114   1 14.276227 14.276227 37.119277
2115   1 14.276247 14.276247 39.974631
2511   1 17.131504 14.276175 28.553116
2512   1 17.131499 14.276170 31.408531
2513   1 17.131490 14.276156 34.263945
2514   1 17.131496 14.276150 37.119345
2515   1 17.131536 14.276178 39.974697
16     1  0.000000  0.000000 42.829731
17     1  0.000000  0.000000 45.685043
18     1  0.000000  0.000000 48.540352
19     1  0.000000  0.000000 51.395649
20     1  0.000000  0.000000 54.250944
36     1  0.000000  2.855283 42.829731
37     1  0.000000  2.855283 45.685046
38     1  0.000000  2.855286 48.540352
39     1  0.000000  2.855286 51.395652
40     1  0.000000  2.855289 54.250944
56     1  0.000000  5.710569 42.829734
57     1  0.000000  5.710572 45.685049
58     1  0.000000  5.710575 48.540358
59     1  0.000000  5.710578 51.395655
60     1  0.000000  5.710580 54.250946
76     1  0.000000  8.565866 42.829740
77     1  0.000000  8.565869 45.685054
78     1  0.000000  8.565872 48.540360
79     1  0.000000  8.565878 51.395658
80     1  0.000000  8.565881 54.250946
96     1  0.000000 11.421172 42.829743
97     1  0.000000 11.421175 45.685057
98     1  0.000000 11.421178 48.540363
99     1  0.000000 11.421184 51.395661
100    1  0.000000 11.421187 54.250949
416    1  2.855283  0.000000 42.829731
417    1  2.855283  0.000000 45.685046
418    1  2.855286  0.000000 48.540352
419    1  2.855286  0.000000 51.395652
420    1  2.855289  0.000000 54.250944
436    1  2.855280  2.855280 42.829734
437    1  2.855280  2.855280 45.685049
438    1  2.855283  2.855283 48.540355
439    1  2.855286  2.855286 51.395652
440    1  2.855289  2.855289 54.250944
456    1  2.855275  5.710566 42.829737
457    1  2.855277  5.710569 45.685052
458    1  2.855280  5.710572 48.540358
459    1  2.855283  5.710578 51.395658
460    1  2.855286  5.710580 54.250946
476    1  2.855269  8.565861 42.829743
477    1  2.855272  8.565863 45.685060
478    1  2.855275  8.565869 48.540366
479    1  2.855280  8.565875 51.395661
480    1  2.855283  8.565878 54.250949
496    1  2.855263 11.421164 42.829749
497    1  2.855266 11.421169 45.685066
498    1  2.855272 11.421175 48.540369
499    1  2.855277 11.421181 51.395666
500    1  2.855280 11.421187 54.250952
816    1  5.710569  0.000000 42.829734
817    1  5.710572  0.000000 45.685049
818    1  5.710575  0.000000 48.540358
819    1  5.710578  0.000000 51.395655
820    1  5.710580  0.000000 54.250946
836    1  5.710566  2.855275 42.829737
837    1  5.710569  2.855277 45.685052
838    1  5.710572  2.855280 48.540358
839    1  5.710578  2.855283 51.395658
840    1  5.710580  2.855286 54.250946
856    1  5.710552  5.710552 42.829746
857    1  5.710558  5.710558 45.685060
858    1  5.710563  5.710563 48.540366
859    1  5.710572  5.710572 51.395661
860    1  5.710578  5.710578 54.250949
876    1  5.710538  8.565841 42.829757
877    1  5.710543  8.565846 45.685072
878    1  5.710555  8.565858 48.540375
879    1  5.710563  8.565866 51.395669
880    1  5.710572  8.565875 54.250952
896    1  5.710523 11.421141 42.829769
897    1  5.710532 11.421149 45.685083
898    1  5.710543 11.421161 48.540386
899    1  5.710558 11.421172 51.395675
900    1  5.710569 11.421181 54.250955
1216   1  8.565866  0.000000 42.829740
1217   1  8.565869  0.000000 45.685054
1218   1  8.565872  0.000000 48.540360
1219   1  8.565878  0.000000 51.395658
1220   1  8.565881  0.000000 54.250946
1236   1  8.565861  2.855269 42.829743
1237   1  8.565863  2.855272 45.685060
1238   1  8.565869  2.855275 48.540366
1239   1  8.565875  2.855280 51.395661
1240   1  8.565878  2.855283 54.250949
1256   1  8.565841  5.710538 42.829757
1257   1  8.565846  5.710543 45.685072
1258   1  8.565858  5.710555 48.540375
1259   1  8.565866  5.710563 51.395669
1260   1  8.565875  5.710572 54.250952
1276   1  8.565815  8.565815 42.829780
1277   1  8.565826  8.565826 45.685092
1278   1  8.565841  8.565841 48.540392
1279   1  8.565858  8.565858 51.395678
1280   1  8.565869  8.565869 54.250958
1296   1  8.565786 11.421104 42.829803
1297   1  8.565804 11.421121 45.685112
1298   1  8.565826 11.421141 48.540406
1299   1  8.565846 11.421161 51.395689
1300   1  8.565863 11.421175 54.250964
1616   1 11.421172  0.000000 42.829743
1617   1 11.421175  0.000000 45.685057
1618   1 11.421178  0.000000 48.540363
1619   1 11.421184  0.000000 51.395661
1620   1 11.421187  0.000000 54.250949
1636   1 11.421164  2.855263 42.829749
1637   1 11.421169  2.855266 45.685066
1638   1 11.421175  2.855272 48.540369
1639   1 11.421181  2.855277 51.395666
1640   1 11.421187  2.855280 54.250952
1656   1 11.421141  5.710523 42.829769
1657   1 11.421149  5.710532 45.685083
1658   1 11.421161  5.710543 48.540386
1659   1 11.421172  5.710558 51.395675
1660   1 11.421181  5.710569 54.250955
1676   1 11.421104  8.565786 42.829803
1677   1 11.421121  8.565804 45.685112
1678   1 11.421141  8.565826 48.540406
1679   1 11.421161  8.565846 51.395689
1680   1 11.421175  8.565863 54.250964
1696   1 11.421061 11.421061 42.829843
1697   1 11.421089 11.421089 45.685146
1698   1 11.421121 11.421121 48.540429
1699   1 11.421149 11.421149 51.395701
1700   1 11.421169 11.421169 54.250966
2016   1 14.276490  0.000000 42.829743
2017   1 14.276490  0.000000 45.685060
2018   1 14.276492  0.000000 48.540366
2019   1 14.276498  0.000000 51.395663
2020   1 14.276501  0.000000 54.250952
2036   1 14.276481  2.855260 42.829751
2037   1 14.276484  2.855263 45.685069
2038   1 14.276490  2.855269 48.540375
2039   1 14.276495  2.855275 51.395669
2040   1 14.276498  2.855280 54.250952
2056   1 14.276455  5.710515 42.829777
2057   1 14.276464  5.710523 45.685092
2058   1 14.276475  5.710538 48.540392
2059   1 14.276487  5.710552 51.395681
2060   1 14.276495  5.710566 54.250958
2076   1 14.276412  8.565766 42.829823
2077   1 14.276430  8.565786 45.685129
2078   1 14.276452  8.565815 48.540417
2079   1 14.276475  8.565841 51.395695
2080   1 14.276490  8.565861 54.250966
2096   1 14.276353 11.421021 42.829880
2097   1 14.276392 11.421061 45.685172
2098   1 14.276430 11.421104 48.540446
2099   1 14.276464 11.421141 51.395709
2100   1 14.276484 11.421164 54.250972
2416   1 17.131813  0.000000 42.829740
2417   1 17.131813  0.000000 45.685060
2418   1 17.131815  0.000000 48.540366
2419   1 17.131818  0.000000 51.395663
2420   1 17.131818  0.000000 54.250952
2436   1 17.131804  2.855260 42.829751
2437   1 17.131807  2.855260 45.685069
2438   1 17.131810  2.855266 48.540375
2439   1 17.131815  2.855272 51.395669
2440   1 17.131818  2.855280 54.250955
2456   1 17.131781  5.710515 42.829780
2457   1 17.131787  5.710520 45.685097
2458   1 17.131798  5.710535 48.540395
2459   1 17.131807  5.710549 51.395683
2460   1 17.131815  5.710563 54.250961
2476   1 17.131738  8.565758 42.829834
2477   1 17.131756  8.565778 45.685140
2478   1 17.131778  8.565806 48.540426
2479   1 17.131798  8.565838 51.395701
2480   1 17.131810  8.565858 54.250966
2496   1 17.131676 11.420998 42.829906
2497   1 17.131718 11.421044 45.685189
2498   1 17.131756 11.421095 48.540455
2499   1 17.131787 11.421138 51.395712
2500   1 17.131807 11.421164 54.250972
8016   1  1.427642  1.427642 44.257390
8017   1  1.427642  1.427642 47.112699
8018   1  1.427642  1.427642 49.968002
8019   1  1.427644  1.427644 52.823299
8020   1  1.427644  1.427644 55.678588
8036   1  1.427639  4.282925 44.257393
8037   1  1.427642  4.282927 47.112702
8038   1  1.427642  4.282930 49.968005
8039   1  1.427642  4.282933 52.823299
8040   1  1.427644  4.282936 55.678588
8056   1  1.427636  7.138216 44.257396
8057   1  1.427639  7.138219 47.112707
8058   1  1.427639  7.138225 49.968010
8059   1  1.427642  7.138228 52.823302
8060   1  1.427642  7.138231 55.678591
8076   1  1.427633  9.993516 44.257401
8077   1  1.427636  9.993522 47.112713
8078   1  1.427639  9.993525 49.968013
8079   1  1.427642  9.993531 52.823305
8080   1  1.427642  9.993534 55.678591
8096   1  1.427630 12.848828 44.257404
8097   1  1.427633 12.848831 47.112716
8098   1  1.427636 12.848837 49.968016
8099   1  1.427639 12.848842 52.823308
8100   1  1.427642 12.848845 55.678591
8416   1  4.282925  1.427639 44.257393
8417   1  4.282927  1.427642 47.112702
8418   1  4.282930  1.427642 49.968005
8419   1  4.282933  1.427642 52.823299
8420   1  4.282936  1.427644 55.678588
8436   1  4.282919  4.282919 44.257396
8437   1  4.282922  4.282922 47.112707
8438   1  4.282927  4.282927 49.968008
8439   1  4.282930  4.282930 52.823302
8440   1  4.282933  4.282933 55.678591
8456   1  4.282910  7.138205 44.257404
8457   1  4.282913  7.138211 47.112713
8458   1  4.282922  7.138219 49.968016
8459   1  4.282927  7.138225 52.823305
8460   1  4.282930  7.138228 55.678591
8476   1  4.282899  9.993505 44.257413
8477   1  4.282907  9.993511 47.112722
8478   1  4.282913  9.993519 49.968022
8479   1  4.282922  9.993525 52.823311
8480   1  4.282927  9.993531 55.678594
8496   1  4.282893 12.848814 44.257419
8497   1  4.282899 12.848819 47.112730
8498   1  4.282910 12.848828 49.968028
8499   1  4.282919 12.848837 52.823314
8500   1  4.282925 12.848842 55.678594
8816   1  7.138216  1.427636 44.257396
8817   1  7.138219  1.427639 47.112707
8818   1  7.138225  1.427639 49.968010
8819   1  7.138228  1.427642 52.823302
8820   1  7.138231  1.427642 55.678591
8836   1  7.138205  4.282910 44.257404
8837   1  7.138211  4.282913 47.112713
8838   1  7.138219  4.282922 49.968016
8839   1  7.138225  4.282927 52.823305
8840   1  7.138228  4.282930 55.678591
8856   1  7.138188  7.138188 44.257419
8857   1  7.138199  7.138199 47.112727
8858   1  7.138208  7.138208 49.968025
8859   1  7.138219  7.138219 52.823311
8860   1  7.138225  7.138225 55.678594
8876   1  7.138171  9.993479 44.257436
8877   1  7.138182  9.993491 47.112742
8878   1  7.138199  9.993505 49.968036
8879   1  7.138211  9.993519 52.823319
8880   1  7.138219  9.993525 55.678597
8896   1  7.138153 12.848782 44.257450
8897   1  7.138171 12.848799 47.112753
8898   1  7.138188 12.848814 49.968045
8899   1  7.138205 12.848828 52.823325
8900   1  7.138216 12.848837 55.678597
9216   1  9.993516  1.427633 44.257401
9217   1  9.993522  1.427636 47.112713
9218   1  9.993525  1.427639 49.968013
9219   1  9.993531  1.427642 52.823305
9220   1  9.993534  1.427642 55.678591
9236   1  9.993505  4.282899 44.257413
9237   1  9.993511  4.282907 47.112722
9238   1  9.993519  4.282913 49.968022
9239   1  9.993525  4.282922 52.823311
9240   1  9.993531  4.282927 55.678594
9256   1  9.993479  7.138171 44.257436
9257   1  9.993491  7.138182 47.112742
9258   1  9.993505  7.138199 49.968036
9259   1  9.993519  7.138211 52.823319
9260   1  9.993525  7.138219 55.678597
9276   1  9.993448  9.993448 44.257464
9277   1  9.993468  9.993468 47.112765
9278   1  9.993491  9.993491 49.968050
9279   1  9.993511  9.993511 52.823328
9280   1  9.993522  9.993522 55.678597
9296   1  9.993419 12.848742 44.257490
9297   1  9.993448 12.848771 47.112784
9298   1  9.993479 12.848799 49.968065
9299   1  9.993505 12.848819 52.823333
9300   1  9.993516 12.848831 55.678599
9616   1 12.848828  1.427630 44.257404
9617   1 12.848831  1.427633 47.112716
9618   1 12.848837  1.427636 49.968016
9619   1 12.848842  1.427639 52.823308
9620   1 12.848845  1.427642 55.678591
9636   1 12.848814  4.282893 44.257419
9637   1 12.848819  4.282899 47.112730
9638   1 12.848828  4.282910 49.968028
9639   1 12.848837  4.282919 52.823314
9640   1 12.848842  4.282925 55.678594
9656   1 12.848782  7.138153 44.257450
9657   1 12.848799  7.138171 47.112753
9658   1 12.848814  7.138188 49.968045
9659   1 12.848828  7.138205 52.823325
9660   1 12.848837  7.138216 55.678597
9676   1 12.848742  9.993419 44.257490
9677   1 12.848771  9.993448 47.112784
9678   1 12.848799  9.993479 49.968065
9679   1 12.848819  9.993505 52.823333
9680   1 12.848831  9.993516 55.678599
9696   1 12.848697 12.848697 44.257536
9697   1 12.848742 12.848742 47.112816
9698   1 12.848782 12.848782 49.968079
9699   1 12.848814 12.848814 52.823342
9700   1 12.848828 12.848828 55.678602
10016  1 15.704148  1.427630 44.257404
10017  1 15.704151  1.427633 47.112716
10018  1 15.704154  1.427636 49.968019
10019  1 15.704157  1.427639 52.823311
10020  1 15.704160  1.427642 55.678594
10036  1 15.704134  4.282887 44.257421
10037  1 15.704140  4.282896 47.112733
10038  1 15.704145  4.282905 49.968030
10039  1 15.704154  4.282916 52.823316
10040  1 15.704157  4.282922 55.678594
10056  1 15.704103  7.138145 44.257459
10057  1 15.704117  7.138162 47.112762
10058  1 15.704134  7.138182 49.968050
10059  1 15.704145  7.138202 52.823328
10060  1 15.704154  7.138213 55.678597
10076  1 15.704057  9.993397 44.257513
10077  1 15.704088  9.993434 47.112799
10078  1 15.704117  9.993471 49.968073
10079  1 15.704140  9.993499 52.823336
10080  1 15.704151  9.993516 55.678602
10096  1 15.704003 12.848662 44.257573
10097  1 15.704057 12.848720 47.112836
10098  1 15.704103 12.848774 49.968090
10099  1 15.704134 12.848811 52.823345
10100  1 15.704148 12.848828 55.678602
10416  1 18.559474  1.427630 44.257401
10417  1 18.559474  1.427630 47.112716
10418  1 18.559477  1.427633 49.968019
10419  1 18.559480  1.427639 52.823311
10420  1 18.559480  1.427639 55.678594
10436  1 18.559460  4.282890 44.257421
10437  1 18.559466  4.282893 47.112733
10438  1 18.559471  4.282905 49.968030
10439  1 18.559477  4.282916 52.823316
10440  1 18.559480  4.282922 55.678597
10456  1 18.559434  7.138142 44.257464
10457  1 18.559446  7.138156 47.112767
10458  1 18.559460  7.138179 49.968053
10459  1 18.559471  7.138202 52.823328
10460  1 18.559477  7.138213 55.678599
10476  1 18.559391  9.993388 44.257524
10477  1 18.559420  9.993425 47.112807
10478  1 18.559446  9.993468 49.968076
10479  1 18.559466  9.993499 52.823339
10480  1 18.559474  9.993516 55.678602
10496  1 18.559340 12.848642 44.257590
10497  1 18.559391 12.848711 47.112844
10498  1 18.559434 12.848768 49.968090
10499  1 18.559460 12.848811 52.823345
10500  1 18.559474 12.848831 55.678602
116    1  0.000000 14.276490 42.829743
117    1  0.000000 14.276490 45.685060
118    1  0.000000 14.276492 48.540366
119    1  0.000000 14.276498 51.395663
120    1  0.000000 14.276501 54.250952
516    1  2.855260 14.276481 42.829751
517    1  2.855263 14.276484 45.685069
518    1  2.855269 14.276490 48.540375
519    1  2.855275 14.276495 51.395669
520    1  2.855280 14.276498 54.250952
916    1  5.710515 14.276455 42.829777
917    1  5.710523 14.276464 45.685092
918    1  5.710538 14.276475 48.540392
919    1  5.710552 14.276487 51.395681
920    1  5.710566 14.276495 54.250958
1316   1  8.565766 14.276412 42.829823
1317   1  8.565786 14.276430 45.685129
1318   1  8.565815 14.276452 48.540417
1319   1  8.565841 14.276475 51.395695
1320   1  8.565861 14.276490 54.250966
1716   1 11.421021 14.276353 42.829880
1717   1 11.421061 14.276392 45.685172
1718   1 11.421104 14.276430 48.540446
1719   1 11.421141 14.276464 51.395709
1720   1 11.421164 14.276484 54.250972
2116   1 14.276293 14.276293 42.829940
2117   1 14.276353 14.276353 45.685211
2118   1 14.276412 14.276412 48.540466
2119   1 14.276455 14.276455 51.395718
2120   1 14.276481 14.276481 54.250972
2516   1 17.131604 14.276247 42.829986
2517   1 17.131676 14.276327 45.685234
2518   1 17.131738 14.276398 48.540475
2519   1 17.131781 14.276452 51.395718
2520   1 17.131804 14.276481 54.250972
10585  1 18.559251 27.125418 12.848605
10584  1 18.559371 27.125438  9.993422
10583  1 18.559440 27.125446  7.138188
10582  1 18.559477 27.125452  4.282922
10581  1 18.559491 27.125455  1.427642
121    1  0.000000 17.131821  0.000000
122    1  0.000000 17.131818  2.855280
123    1  0.000000 17.131818  5.710569
124    1  0.000000 17.131815  8.565866
125    1  0.000000 17.131813 11.421175
141    1  0.000000 19.987141  0.000000
142    1  0.000000 19.987141  2.855280
143    1  0.000000 19.987141  5.710569
144    1  0.000000 19.987139  8.565866
145    1  0.000000 19.987139 11.421175
161    1  0.000000 22.842467  0.000000
162    1  0.000000 22.842467  2.855280
163    1  0.000000 22.842464  5.710569
164    1  0.000000 22.842464  8.565866
165    1  0.000000 22.842464 11.421178
181    1  0.000000 25.697790  0.000000
182    1  0.000000 25.697790  2.855280
183    1  0.000000 25.697790  5.710569
184    1  0.000000 25.697790  8.565869
185    1  0.000000 25.697790 11.421181
10565  1 18.559243 24.270020 12.848588
10564  1 18.559366 24.270075  9.993408
10563  1 18.559434 24.270106  7.138179
10562  1 18.559474 24.270123  4.282916
10561  1 18.559488 24.270132  1.427642
521    1  2.855280 17.131818  0.000000
522    1  2.855280 17.131818  2.855280
523    1  2.855272 17.131815  5.710563
524    1  2.855266 17.131810  8.565858
525    1  2.855260 17.131807 11.421164
541    1  2.855280 19.987141  0.000000
542    1  2.855277 19.987141  2.855277
543    1  2.855272 19.987139  5.710563
544    1  2.855266 19.987136  8.565858
545    1  2.855260 19.987133 11.421167
561    1  2.855280 22.842467  0.000000
562    1  2.855277 22.842464  2.855277
563    1  2.855272 22.842464  5.710563
564    1  2.855266 22.842462  8.565861
565    1  2.855263 22.842462 11.421169
581    1  2.855280 25.697790  0.000000
582    1  2.855277 25.697790  2.855277
583    1  2.855272 25.697790  5.710563
584    1  2.855266 25.697790  8.565861
585    1  2.855263 25.697787 11.421172
10545  1 18.559237 21.414623 12.848565
10544  1 18.559357 21.414714  9.993388
10543  1 18.559428 21.414766  7.138162
10542  1 18.559468 21.414794  4.282907
10541  1 18.559486 21.414806  1.427639
921    1  5.710569 17.131818  0.000000
922    1  5.710563 17.131815  2.855272
923    1  5.710549 17.131807  5.710549
924    1  5.710535 17.131798  8.565838
925    1  5.710520 17.131787 11.421138
941    1  5.710569 19.987141  0.000000
942    1  5.710563 19.987139  2.855272
943    1  5.710549 19.987133  5.710549
944    1  5.710532 19.987124  8.565835
945    1  5.710520 19.987119 11.421138
961    1  5.710569 22.842464  0.000000
962    1  5.710563 22.842464  2.855272
963    1  5.710549 22.842462  5.710549
964    1  5.710532 22.842456  8.565835
965    1  5.710520 22.842450 11.421138
981    1  5.710569 25.697790  0.000000
982    1  5.710563 25.697790  2.855272
983    1  5.710549 25.697787  5.710549
984    1  5.710532 25.697785  8.565838
985    1  5.710523 25.697785 11.421141
10525  1 18.559249 18.559249 12.848557
10524  1 18.559357 18.559357  9.993371
10523  1 18.559423 18.559423  7.138148
10522  1 18.559463 18.559463  4.282899
10521  1 18.559480 18.559480  1.427636
1321   1  8.565866 17.131815  0.000000
1322   1  8.565858 17.131810  2.855266
1323   1  8.565838 17.131798  5.710535
1324   1  8.565806 17.131778  8.565806
1325   1  8.565778 17.131756 11.421095
1341   1  8.565866 19.987139  0.000000
1342   1  8.565858 19.987136  2.855266
1343   1  8.565835 19.987124  5.710532
1344   1  8.565806 19.987110  8.565806
1345   1  8.565775 19.987093 11.421089
1361   1  8.565866 22.842464  0.000000
1362   1  8.565861 22.842462  2.855266
1363   1  8.565835 22.842456  5.710532
1364   1  8.565806 22.842444  8.565806
1365   1  8.565778 22.842433 11.421092
1381   1  8.565869 25.697790  0.000000
1382   1  8.565861 25.697790  2.855266
1383   1  8.565838 25.697785  5.710532
1384   1  8.565806 25.697782  8.565806
1385   1  8.565778 25.697776 11.421092
10505  1 18.559286 15.703920 12.848582
10504  1 18.559368 15.704020  9.993368
10503  1 18.559426 15.704088  7.138139
10502  1 18.559460 15.704134  4.282890
10501  1 18.559474 15.704154  1.427633
1721   1 11.421175 17.131813  0.000000
1722   1 11.421164 17.131807  2.855260
1723   1 11.421138 17.131787  5.710520
1724   1 11.421095 17.131756  8.565778
1725   1 11.421044 17.131718 11.421044
1741   1 11.421175 19.987139  0.000000
1742   1 11.421167 19.987133  2.855260
1743   1 11.421138 19.987119  5.710520
1744   1 11.421089 19.987093  8.565775
1745   1 11.421035 19.987061 11.421035
1761   1 11.421178 22.842464  0.000000
1762   1 11.421169 22.842462  2.855263
1763   1 11.421138 22.842450  5.710520
1764   1 11.421092 22.842433  8.565778
1765   1 11.421038 22.842410 11.421038
1781   1 11.421181 25.697790  0.000000
1782   1 11.421172 25.697787  2.855263
1783   1 11.421141 25.697785  5.710523
1784   1 11.421092 25.697776  8.565778
1785   1 11.421038 25.697765 11.421038
10185  1 15.703920 27.125423 12.848597
10184  1 15.704025 27.125438  9.993388
10183  1 15.704100 27.125446  7.138159
10182  1 15.704145 27.125452  4.282905
10181  1 15.704165 27.125455  1.427636
2121   1 14.276492 17.131813  0.000000
2122   1 14.276481 17.131804  2.855260
2123   1 14.276452 17.131781  5.710515
2124   1 14.276398 17.131738  8.565758
2125   1 14.276327 17.131676 11.420998
2141   1 14.276495 19.987139  0.000000
2142   1 14.276487 19.987133  2.855263
2143   1 14.276452 19.987113  5.710518
2144   1 14.276395 19.987079  8.565761
2145   1 14.276315 19.987024 11.420990
2161   1 14.276501 22.842464  0.000000
2162   1 14.276490 22.842462  2.855266
2163   1 14.276455 22.842447  5.710520
2164   1 14.276398 22.842424  8.565764
2165   1 14.276315 22.842387 11.420992
2181   1 14.276504 25.697790  0.000000
2182   1 14.276492 25.697790  2.855266
2183   1 14.276461 25.697782  5.710526
2184   1 14.276401 25.697770  8.565769
2185   1 14.276321 25.697753 11.420998
10165  1 15.703914 24.270040 12.848588
10164  1 15.704023 24.270080  9.993382
10163  1 15.704097 24.270106  7.138153
10162  1 15.704143 24.270123  4.282902
10161  1 15.704163 24.270129  1.427636
2521   1 17.131815 17.131815  0.000000
2522   1 17.131807 17.131807  2.855263
2523   1 17.131778 17.131778  5.710518
2524   1 17.131727 17.131727  8.565755
2525   1 17.131644 17.131644 11.420972
2541   1 17.131821 19.987141  0.000000
2542   1 17.131813 19.987136  2.855269
2543   1 17.131781 19.987113  5.710526
2544   1 17.131724 19.987070  8.565764
2545   1 17.131633 19.986996 11.420970
2561   1 17.131827 22.842467  0.000000
2562   1 17.131815 22.842464  2.855272
2563   1 17.131787 22.842447  5.710535
2564   1 17.131730 22.842419  8.565775
2565   1 17.131633 22.842367 11.420984
2581   1 17.131830 25.697793  0.000000
2582   1 17.131821 25.697790  2.855277
2583   1 17.131793 25.697782  5.710543
2584   1 17.131736 25.697767  8.565786
2585   1 17.131641 25.697742 11.420998
8101   1  1.427642 15.704160  1.427642
8102   1  1.427639 15.704157  4.282922
8103   1  1.427636 15.704154  7.138213
8104   1  1.427633 15.704151  9.993516
8105   1  1.427630 15.704148 12.848828
8121   1  1.427639 18.559480  1.427639
8122   1  1.427639 18.559480  4.282922
8123   1  1.427633 18.559477  7.138213
8124   1  1.427630 18.559474  9.993516
8125   1  1.427630 18.559474 12.848831
8141   1  1.427639 21.414803  1.427639
8142   1  1.427639 21.414803  4.282922
8143   1  1.427633 21.414800  7.138213
8144   1  1.427633 21.414800  9.993519
8145   1  1.427630 21.414800 12.848834
8161   1  1.427639 24.270129  1.427639
8162   1  1.427639 24.270129  4.282922
8163   1  1.427633 24.270126  7.138216
8164   1  1.427633 24.270126  9.993519
8165   1  1.427633 24.270126 12.848837
8181   1  1.427639 27.125455  1.427639
8182   1  1.427639 27.125455  4.282922
8183   1  1.427633 27.125455  7.138216
8184   1  1.427633 27.125452  9.993522
8185   1  1.427633 27.125455 12.848839
8501   1  4.282922 15.704157  1.427639
8502   1  4.282916 15.704154  4.282916
8503   1  4.282905 15.704145  7.138202
8504   1  4.282896 15.704140  9.993499
8505   1  4.282887 15.704134 12.848811
8521   1  4.282922 18.559480  1.427639
8522   1  4.282916 18.559477  4.282916
8523   1  4.282905 18.559471  7.138202
8524   1  4.282893 18.559466  9.993499
8525   1  4.282890 18.559460 12.848811
8541   1  4.282922 21.414803  1.427639
8542   1  4.282916 21.414800  4.282916
8543   1  4.282905 21.414797  7.138202
8544   1  4.282893 21.414794  9.993499
8545   1  4.282890 21.414791 12.848814
8561   1  4.282922 24.270129  1.427639
8562   1  4.282916 24.270126  4.282916
8563   1  4.282905 24.270126  7.138202
8564   1  4.282896 24.270123  9.993502
8565   1  4.282893 24.270120 12.848817
8581   1  4.282922 27.125455  1.427639
8582   1  4.282916 27.125452  4.282916
8583   1  4.282905 27.125452  7.138202
8584   1  4.282896 27.125452  9.993502
8585   1  4.282896 27.125452 12.848817
8901   1  7.138213 15.704154  1.427636
8902   1  7.138202 15.704145  4.282905
8903   1  7.138182 15.704134  7.138182
8904   1  7.138162 15.704117  9.993471
8905   1  7.138145 15.704103 12.848774
8921   1  7.138213 18.559477  1.427633
8922   1  7.138202 18.559471  4.282905
8923   1  7.138179 18.559460  7.138179
8924   1  7.138156 18.559446  9.993468
8925   1  7.138142 18.559434 12.848768
8941   1  7.138213 21.414800  1.427633
8942   1  7.138202 21.414797  4.282905
8943   1  7.138179 21.414789  7.138179
8944   1  7.138156 21.414780  9.993465
8945   1  7.138142 21.414771 12.848771
8961   1  7.138216 24.270126  1.427633
8962   1  7.138202 24.270126  4.282905
8963   1  7.138179 24.270120  7.138179
8964   1  7.138156 24.270115  9.993468
8965   1  7.138148 24.270109 12.848774
8981   1  7.138216 27.125455  1.427633
8982   1  7.138202 27.125452  4.282905
8983   1  7.138179 27.125452  7.138179
8984   1  7.138159 27.125449  9.993468
8985   1  7.138148 27.125446 12.848774
9301   1  9.993516 15.704151  1.427633
9302   1  9.993499 15.704140  4.282896
9303   1  9.993471 15.704117  7.138162
9304   1  9.993434 15.704088  9.993434
9305   1  9.993397 15.704057 12.848720
9321   1  9.993516 18.559474  1.427630
9322   1  9.993499 18.559466  4.282893
9323   1  9.993468 18.559446  7.138156
9324   1  9.993425 18.559420  9.993425
9325   1  9.993388 18.559391 12.848711
9341   1  9.993519 21.414800  1.427633
9342   1  9.993499 21.414794  4.282893
9343   1  9.993465 21.414780  7.138156
9344   1  9.993425 21.414760  9.993425
9345   1  9.993388 21.414740 12.848708
9361   1  9.993519 24.270126  1.427633
9362   1  9.993502 24.270123  4.282896
9363   1  9.993468 24.270115  7.138156
9364   1  9.993425 24.270103  9.993425
9365   1  9.993391 24.270089 12.848711
9381   1  9.993522 27.125452  1.427633
9382   1  9.993502 27.125452  4.282896
9383   1  9.993468 27.125449  7.138159
9384   1  9.993425 27.125446  9.993425
9385   1  9.993394 27.125440 12.848711
9701   1 12.848828 15.704148  1.427630
9702   1 12.848811 15.704134  4.282887
9703   1 12.848774 15.704103  7.138145
9704   1 12.848720 15.704057  9.993397
9705   1 12.848662 15.704003 12.848662
9721   1 12.848831 18.559474  1.427630
9722   1 12.848811 18.559460  4.282890
9723   1 12.848768 18.559434  7.138142
9724   1 12.848711 18.559391  9.993388
9725   1 12.848642 18.559340 12.848642
9741   1 12.848834 21.414800  1.427630
9742   1 12.848814 21.414791  4.282890
9743   1 12.848771 21.414771  7.138142
9744   1 12.848708 21.414740  9.993388
9745   1 12.848637 21.414700 12.848637
9761   1 12.848837 24.270126  1.427633
9762   1 12.848817 24.270120  4.282893
9763   1 12.848774 24.270109  7.138148
9764   1 12.848711 24.270089  9.993391
9765   1 12.848640 24.270066 12.848640
9781   1 12.848839 27.125455  1.427633
9782   1 12.848817 27.125452  4.282896
9783   1 12.848774 27.125446  7.138148
9784   1 12.848711 27.125440  9.993394
9785   1 12.848642 27.125432 12.848642
10101  1 15.704151 15.704151  1.427630
10102  1 15.704131 15.704131  4.282887
10103  1 15.704091 15.704091  7.138136
10104  1 15.704031 15.704031  9.993374
10105  1 15.703954 15.703954 12.848611
10121  1 15.704154 18.559474  1.427633
10122  1 15.704134 18.559460  4.282890
10123  1 15.704088 18.559426  7.138139
10124  1 15.704020 18.559368  9.993368
10125  1 15.703920 18.559286 12.848582
10141  1 15.704157 21.414803  1.427633
10142  1 15.704137 21.414791  4.282896
10143  1 15.704091 21.414766  7.138145
10144  1 15.704017 21.414723  9.993374
10145  1 15.703911 21.414657 12.848580
126    1  0.000000 17.131813 14.276492
146    1  0.000000 19.987139 14.276495
166    1  0.000000 22.842464 14.276501
186    1  0.000000 25.697790 14.276504
526    1  2.855260 17.131804 14.276481
546    1  2.855263 19.987133 14.276487
566    1  2.855266 22.842462 14.276490
586    1  2.855266 25.697790 14.276492
926    1  5.710515 17.131781 14.276452
946    1  5.710518 19.987113 14.276452
966    1  5.710520 22.842447 14.276455
986    1  5.710526 25.697782 14.276461
1326   1  8.565758 17.131738 14.276398
1346   1  8.565761 19.987079 14.276395
1366   1  8.565764 22.842424 14.276398
1386   1  8.565769 25.697770 14.276401
1726   1 11.420998 17.131676 14.276327
1746   1 11.420990 19.987024 14.276315
1766   1 11.420992 22.842387 14.276315
1786   1 11.420998 25.697753 14.276321
2126   1 14.276247 17.131604 14.276247
2146   1 14.276227 19.986959 14.276227
2166   1 14.276224 22.842339 14.276224
2186   1 14.276230 25.697727 14.276230
2526   1 17.131536 17.131536 14.276178
2546   1 17.131496 19.986887 14.276150
2566   1 17.131490 22.842287 14.276156
2586   1 17.131499 25.697702 14.276170
10590  1 18.559160 27.125263 27.125263
10589  1 18.558866 27.125263 24.269575
10588  1 18.558706 27.125289 21.414061
10587  1 18.558840 27.125343 18.558840
10586  1 18.559063 27.125389 15.703729
10150  1 15.703777 21.414437 27.125375
127    1  0.000000 17.131815 17.131815
128    1  0.000000 17.131821 19.987141
129    1  0.000000 17.131827 22.842467
130    1  0.000000 17.131830 25.697793
10149  1 15.703729 21.414417 24.269886
147    1  0.000000 19.987141 17.131821
148    1  0.000000 19.987147 19.987147
149    1  0.000000 19.987153 22.842473
150    1  0.000000 19.987156 25.697796
10148  1 15.703669 21.414415 21.414415
167    1  0.000000 22.842467 17.131827
168    1  0.000000 22.842473 19.987153
169    1  0.000000 22.842476 22.842476
170    1  0.000000 22.842479 25.697796
10147  1 15.703689 21.414475 18.559046
187    1  0.000000 25.697793 17.131830
188    1  0.000000 25.697796 19.987156
189    1  0.000000 25.697796 22.842479
190    1  0.000000 25.697799 25.697799
10570  1 18.558866 24.269575 27.125263
10569  1 18.558675 24.269521 24.269521
10568  1 18.558635 24.269626 21.414023
10567  1 18.558815 24.269789 18.558815
10566  1 18.559049 24.269926 15.703709
10146  1 15.703788 21.414569 15.703788
527    1  2.855263 17.131807 17.131807
528    1  2.855269 17.131813 19.987136
529    1  2.855272 17.131815 22.842464
530    1  2.855277 17.131821 25.697790
10130  1 15.703729 18.559063 27.125389
547    1  2.855269 19.987136 17.131813
548    1  2.855275 19.987139 19.987139
549    1  2.855283 19.987144 22.842467
550    1  2.855289 19.987150 25.697793
10129  1 15.703709 18.559049 24.269926
567    1  2.855272 22.842464 17.131815
568    1  2.855283 22.842467 19.987144
569    1  2.855292 22.842470 22.842470
570    1  2.855300 22.842476 25.697796
10128  1 15.703689 18.559046 21.414475
587    1  2.855277 25.697790 17.131821
588    1  2.855289 25.697793 19.987150
589    1  2.855300 25.697796 22.842476
590    1  2.855306 25.697796 25.697796
10550  1 18.558706 21.414061 27.125289
10549  1 18.558635 21.414023 24.269626
10548  1 18.558620 21.414066 21.414066
10547  1 18.558812 21.414266 18.558812
10546  1 18.559046 21.414475 15.703689
10127  1 15.703717 18.559092 18.559092
927    1  5.710518 17.131778 17.131778
928    1  5.710526 17.131781 19.987113
929    1  5.710535 17.131787 22.842447
930    1  5.710543 17.131793 25.697782
10126  1 15.703808 18.559186 15.703808
947    1  5.710526 19.987113 17.131781
948    1  5.710540 19.987116 19.987116
949    1  5.710558 19.987121 22.842453
950    1  5.710569 19.987127 25.697785
10110  1 15.703803 15.703803 27.125406
967    1  5.710535 22.842447 17.131787
968    1  5.710558 22.842453 19.987121
969    1  5.710578 22.842456 22.842456
970    1  5.710592 22.842462 25.697787
10109  1 15.703794 15.703794 24.269986
987    1  5.710543 25.697782 17.131793
988    1  5.710569 25.697785 19.987127
989    1  5.710592 25.697787 22.842462
990    1  5.710612 25.697790 25.697790
10530  1 18.558840 18.558840 27.125343
10529  1 18.558815 18.558815 24.269789
10528  1 18.558812 18.558812 21.414266
10527  1 18.558926 18.558926 18.558926
10526  1 18.559092 18.559092 15.703717
10108  1 15.703788 15.703788 21.414569
1327   1  8.565755 17.131727 17.131727
1328   1  8.565764 17.131724 19.987070
1329   1  8.565775 17.131730 22.842419
1330   1  8.565786 17.131736 25.697767
10107  1 15.703808 15.703808 18.559186
1347   1  8.565764 19.987070 17.131724
1348   1  8.565781 19.987070 19.987070
1349   1  8.565806 19.987076 22.842419
1350   1  8.565826 19.987084 25.697770
10106  1 15.703871 15.703871 15.703871
1367   1  8.565775 22.842419 17.131730
1368   1  8.565806 22.842419 19.987076
1369   1  8.565843 22.842427 22.842427
1370   1  8.565869 22.842433 25.697773
9790   1 12.848848 27.125426 27.125426
1387   1  8.565786 25.697767 17.131736
1388   1  8.565826 25.697770 19.987084
1389   1  8.565869 25.697773 22.842433
1390   1  8.565903 25.697779 25.697779
10510  1 18.559063 15.703729 27.125389
10509  1 18.559049 15.703709 24.269926
10508  1 18.559046 15.703689 21.414475
10507  1 18.559092 15.703717 18.559092
10506  1 18.559186 15.703808 15.703808
9789   1 12.848780 27.125420 24.270037
1727   1 11.420972 17.131644 17.131644
1728   1 11.420970 17.131633 19.986996
1729   1 11.420984 17.131633 22.842367
1730   1 11.420998 17.131641 25.697742
9788   1 12.848680 27.125418 21.414634
1747   1 11.420970 19.986996 17.131633
1748   1 11.420984 19.986984 19.986984
1749   1 11.421015 19.986990 22.842362
1750   1 11.421044 19.986999 25.697739
9787   1 12.848605 27.125418 18.559251
1767   1 11.420984 22.842367 17.131633
1768   1 11.421015 22.842362 19.986990
1769   1 11.421069 22.842367 22.842367
1770   1 11.421115 22.842379 25.697745
9786   1 12.848597 27.125423 15.703920
1787   1 11.420998 25.697742 17.131641
1788   1 11.421044 25.697739 19.986999
1789   1 11.421115 25.697745 22.842379
1790   1 11.421175 25.697750 25.697750
10190  1 15.704080 27.125386 27.125386
10189  1 15.703940 27.125378 24.269909
10188  1 15.703777 27.125375 21.414437
10187  1 15.703729 27.125389 18.559063
10186  1 15.703803 27.125406 15.703803
9770   1 12.848780 24.270037 27.125420
2127   1 14.276178 17.131536 17.131536
2128   1 14.276150 17.131496 19.986887
2129   1 14.276156 17.131490 22.842287
2130   1 14.276170 17.131499 25.697702
9769   1 12.848728 24.270023 24.270023
2147   1 14.276150 19.986887 17.131496
2148   1 14.276124 19.986839 19.986839
2149   1 14.276150 19.986830 22.842250
2150   1 14.276187 19.986844 25.697685
9768   1 12.848645 24.270015 21.414623
2167   1 14.276156 22.842287 17.131490
2168   1 14.276150 22.842250 19.986830
2169   1 14.276213 22.842245 22.842245
2170   1 14.276287 22.842262 25.697685
9767   1 12.848588 24.270020 18.559243
2187   1 14.276170 25.697702 17.131499
2188   1 14.276187 25.697685 19.986844
2189   1 14.276287 25.697685 22.842262
2190   1 14.276398 25.697696 25.697696
10170  1 15.703940 24.269909 27.125378
10169  1 15.703840 24.269886 24.269886
10168  1 15.703729 24.269886 21.414417
10167  1 15.703709 24.269926 18.559049
10166  1 15.703794 24.269986 15.703794
9766   1 12.848588 24.270040 15.703914
2527   1 17.131419 17.131419 17.131419
2528   1 17.131336 17.131336 19.986744
2529   1 17.131322 17.131322 22.842176
2530   1 17.131336 17.131336 25.697648
9750   1 12.848680 21.414634 27.125418
2547   1 17.131336 19.986744 17.131336
2548   1 17.131207 19.986610 19.986610
2549   1 17.131190 19.986562 22.842053
2550   1 17.131230 19.986579 25.697585
9749   1 12.848645 21.414623 24.270015
2567   1 17.131322 22.842176 17.131322
2568   1 17.131190 22.842053 19.986562
2569   1 17.131187 22.841976 22.841976
2570   1 17.131299 22.841999 25.697548
9748   1 12.848597 21.414612 21.414612
2587   1 17.131336 25.697648 17.131336
2588   1 17.131230 25.697585 19.986579
2589   1 17.131299 25.697548 22.841999
2590   1 17.131487 25.697550 25.697550
8106   1  1.427630 15.704151 15.704151
8107   1  1.427633 15.704154 18.559474
8108   1  1.427633 15.704157 21.414803
8109   1  1.427636 15.704163 24.270129
8110   1  1.427636 15.704165 27.125455
8126   1  1.427633 18.559474 15.704154
8127   1  1.427636 18.559480 18.559480
8128   1  1.427639 18.559486 21.414806
8129   1  1.427642 18.559488 24.270132
8130   1  1.427642 18.559491 27.125455
8146   1  1.427633 21.414803 15.704157
8147   1  1.427639 21.414806 18.559486
8148   1  1.427642 21.414811 21.414811
8149   1  1.427647 21.414814 24.270134
8150   1  1.427647 21.414817 27.125455
8166   1  1.427636 24.270129 15.704163
8167   1  1.427642 24.270132 18.559488
8168   1  1.427647 24.270134 21.414814
8169   1  1.427650 24.270137 24.270137
8170   1  1.427653 24.270140 27.125458
8186   1  1.427636 27.125455 15.704165
8187   1  1.427642 27.125455 18.559491
8188   1  1.427647 27.125455 21.414817
8189   1  1.427653 27.125458 24.270140
8190   1  1.427656 27.125458 27.125458
8506   1  4.282887 15.704131 15.704131
8507   1  4.282890 15.704134 18.559460
8508   1  4.282896 15.704137 21.414791
8509   1  4.282902 15.704143 24.270123
8510   1  4.282905 15.704145 27.125452
8526   1  4.282890 18.559460 15.704134
8527   1  4.282899 18.559463 18.559463
8528   1  4.282907 18.559468 21.414794
8529   1  4.282916 18.559474 24.270123
8530   1  4.282922 18.559477 27.125452
8546   1  4.282896 21.414791 15.704137
8547   1  4.282907 21.414794 18.559468
8548   1  4.282922 21.414797 21.414797
8549   1  4.282936 21.414803 24.270129
8550   1  4.282942 21.414806 27.125455
8566   1  4.282902 24.270123 15.704143
8567   1  4.282916 24.270123 18.559474
8568   1  4.282936 24.270129 21.414803
8569   1  4.282950 24.270132 24.270132
8570   1  4.282959 24.270134 27.125455
8586   1  4.282905 27.125452 15.704145
8587   1  4.282922 27.125452 18.559477
8588   1  4.282942 27.125455 21.414806
8589   1  4.282959 27.125455 24.270134
8590   1  4.282967 27.125455 27.125455
8906   1  7.138136 15.704091 15.704091
8907   1  7.138139 15.704088 18.559426
8908   1  7.138145 15.704091 21.414766
8909   1  7.138153 15.704097 24.270106
8910   1  7.138159 15.704100 27.125446
8926   1  7.138139 18.559426 15.704088
8927   1  7.138148 18.559423 18.559423
8928   1  7.138162 18.559428 21.414766
8929   1  7.138179 18.559434 24.270106
8930   1  7.138188 18.559440 27.125446
8946   1  7.138145 21.414766 15.704091
8947   1  7.138162 21.414766 18.559428
8948   1  7.138188 21.414771 21.414771
8949   1  7.138211 21.414777 24.270112
8950   1  7.138222 21.414783 27.125449
8966   1  7.138153 24.270106 15.704097
8967   1  7.138179 24.270106 18.559434
8968   1  7.138211 24.270112 21.414777
8969   1  7.138239 24.270117 24.270117
8970   1  7.138253 24.270120 27.125449
8986   1  7.138159 27.125446 15.704100
8987   1  7.138188 27.125446 18.559440
8988   1  7.138222 27.125449 21.414783
8989   1  7.138253 27.125449 24.270120
8990   1  7.138273 27.125452 27.125452
9306   1  9.993374 15.704031 15.704031
9307   1  9.993368 15.704020 18.559368
9308   1  9.993374 15.704017 21.414723
9309   1  9.993382 15.704023 24.270080
9310   1  9.993388 15.704025 27.125438
9326   1  9.993368 18.559368 15.704020
9327   1  9.993371 18.559357 18.559357
9328   1  9.993388 18.559357 21.414714
9329   1  9.993408 18.559366 24.270075
9330   1  9.993422 18.559371 27.125438
9346   1  9.993374 21.414723 15.704017
9347   1  9.993388 21.414714 18.559357
9348   1  9.993422 21.414714 21.414714
9349   1  9.993456 21.414726 24.270077
9350   1  9.993479 21.414732 27.125438
9366   1  9.993382 24.270080 15.704023
9367   1  9.993408 24.270075 18.559366
9368   1  9.993456 24.270077 21.414726
9369   1  9.993505 24.270086 24.270086
9370   1  9.993536 24.270092 27.125440
9386   1  9.993388 27.125438 15.704025
9387   1  9.993422 27.125438 18.559371
9388   1  9.993479 27.125438 21.414732
9389   1  9.993536 27.125440 24.270092
9390   1  9.993571 27.125443 27.125443
9706   1 12.848611 15.703954 15.703954
9707   1 12.848582 15.703920 18.559286
9708   1 12.848580 15.703911 21.414657
9709   1 12.848588 15.703914 24.270040
9710   1 12.848597 15.703920 27.125423
9726   1 12.848582 18.559286 15.703920
9727   1 12.848557 18.559249 18.559249
9728   1 12.848565 18.559237 21.414623
9729   1 12.848588 18.559243 24.270020
9730   1 12.848605 18.559251 27.125418
9746   1 12.848580 21.414657 15.703911
9747   1 12.848565 21.414623 18.559237
10595  1 18.559063 27.125389 41.402504
10594  1 18.558840 27.125343 38.547392
10593  1 18.558706 27.125289 35.692172
10592  1 18.558866 27.125263 32.836658
10591  1 18.559160 27.125263 29.980969
131    1  0.000000 17.131833 28.553116
132    1  0.000000 17.131830 31.408439
133    1  0.000000 17.131827 34.263765
134    1  0.000000 17.131821 37.119091
135    1  0.000000 17.131815 39.974417
151    1  0.000000 19.987158 28.553116
152    1  0.000000 19.987156 31.408439
153    1  0.000000 19.987153 34.263759
154    1  0.000000 19.987147 37.119085
155    1  0.000000 19.987141 39.974411
171    1  0.000000 22.842479 28.553116
172    1  0.000000 22.842479 31.408436
173    1  0.000000 22.842476 34.263757
174    1  0.000000 22.842473 37.119080
175    1  0.000000 22.842467 39.974406
191    1  0.000000 25.697799 28.553116
192    1  0.000000 25.697799 31.408434
193    1  0.000000 25.697796 34.263754
194    1  0.000000 25.697796 37.119077
195    1  0.000000 25.697793 39.974403
10575  1 18.559049 24.269926 41.402524
10574  1 18.558815 24.269789 38.547421
10573  1 18.558635 24.269626 35.692212
10572  1 18.558675 24.269521 32.836712
10571  1 18.558866 24.269575 29.980969
531    1  2.855277 17.131821 28.553116
532    1  2.855277 17.131821 31.408442
533    1  2.855272 17.131815 34.263768
534    1  2.855269 17.131813 37.119097
535    1  2.855263 17.131807 39.974425
551    1  2.855292 19.987150 28.553116
552    1  2.855289 19.987150 31.408439
553    1  2.855283 19.987144 34.263765
554    1  2.855275 19.987139 37.119094
555    1  2.855269 19.987136 39.974423
571    1  2.855303 22.842476 28.553116
572    1  2.855300 22.842476 31.408439
573    1  2.855292 22.842470 34.263762
574    1  2.855283 22.842467 37.119088
575    1  2.855272 22.842464 39.974417
591    1  2.855309 25.697799 28.553116
592    1  2.855306 25.697796 31.408436
593    1  2.855300 25.697796 34.263759
594    1  2.855289 25.697793 37.119082
595    1  2.855277 25.697790 39.974411
10555  1 18.559046 21.414475 41.402544
10554  1 18.558812 21.414266 38.547424
10553  1 18.558620 21.414066 35.692166
10552  1 18.558635 21.414023 32.836606
10551  1 18.558706 21.414061 29.980943
931    1  5.710546 17.131793 28.553116
932    1  5.710543 17.131793 31.408451
933    1  5.710535 17.131787 34.263785
934    1  5.710526 17.131781 37.119120
935    1  5.710518 17.131778 39.974454
951    1  5.710572 19.987130 28.553116
952    1  5.710569 19.987127 31.408448
953    1  5.710558 19.987121 34.263782
954    1  5.710540 19.987116 37.119117
955    1  5.710526 19.987113 39.974451
971    1  5.710598 22.842464 28.553116
972    1  5.710592 22.842462 31.408445
973    1  5.710578 22.842456 34.263777
974    1  5.710558 22.842453 37.119111
975    1  5.710535 22.842447 39.974445
991    1  5.710618 25.697790 28.553116
992    1  5.710612 25.697790 31.408442
993    1  5.710592 25.697787 34.263771
994    1  5.710569 25.697785 37.119105
995    1  5.710543 25.697782 39.974443
10535  1 18.559092 18.559092 41.402515
10534  1 18.558926 18.558926 38.547306
10533  1 18.558812 18.558812 35.691966
10532  1 18.558815 18.558815 32.836443
10531  1 18.558840 18.558840 29.980889
1331   1  8.565792 17.131738 28.553116
1332   1  8.565786 17.131736 31.408465
1333   1  8.565775 17.131730 34.263814
1334   1  8.565764 17.131724 37.119162
1335   1  8.565755 17.131727 39.974505
1351   1  8.565832 19.987087 28.553116
1352   1  8.565826 19.987084 31.408462
1353   1  8.565806 19.987076 34.263814
1354   1  8.565781 19.987070 37.119162
1355   1  8.565764 19.987070 39.974508
1371   1  8.565881 22.842436 28.553116
1372   1  8.565869 22.842433 31.408459
1373   1  8.565843 22.842427 34.263808
1374   1  8.565806 22.842419 37.119157
1375   1  8.565775 22.842419 39.974503
1391   1  8.565915 25.697779 28.553116
1392   1  8.565903 25.697779 31.408456
1393   1  8.565869 25.697773 34.263799
1394   1  8.565826 25.697770 37.119148
1395   1  8.565786 25.697767 39.974497
10515  1 18.559186 15.703808 41.402424
10514  1 18.559092 15.703717 38.547141
10513  1 18.559046 15.703689 35.691758
10512  1 18.559049 15.703709 32.836306
10511  1 18.559063 15.703729 29.980846
1731   1 11.421004 17.131644 28.553116
1732   1 11.420998 17.131641 31.408491
1733   1 11.420984 17.131633 34.263865
1734   1 11.420970 17.131633 37.119237
1735   1 11.420972 17.131644 39.974588
1751   1 11.421052 19.987004 28.553116
1752   1 11.421044 19.986999 31.408493
1753   1 11.421015 19.986990 34.263871
1754   1 11.420984 19.986984 37.119248
1755   1 11.420970 19.986996 39.974603
1771   1 11.421132 22.842384 28.553116
1772   1 11.421115 22.842379 31.408488
1773   1 11.421069 22.842367 34.263868
1774   1 11.421015 22.842362 37.119242
1775   1 11.420984 22.842367 39.974600
1791   1 11.421201 25.697756 28.553116
1792   1 11.421175 25.697750 31.408482
1793   1 11.421115 25.697745 34.263854
1794   1 11.421044 25.697739 37.119234
1795   1 11.420998 25.697742 39.974594
10195  1 15.703803 27.125406 41.402430
10194  1 15.703729 27.125389 38.547169
10193  1 15.703777 27.125375 35.691795
10192  1 15.703940 27.125378 32.836323
10191  1 15.704080 27.125386 29.980846
2131   1 14.276175 17.131504 28.553116
2132   1 14.276170 17.131499 31.408531
2133   1 14.276156 17.131490 34.263945
2134   1 14.276150 17.131496 37.119345
2135   1 14.276178 17.131536 39.974697
2151   1 14.276204 19.986853 28.553116
2152   1 14.276187 19.986844 31.408548
2153   1 14.276150 19.986830 34.263982
2154   1 14.276124 19.986839 37.119394
2155   1 14.276150 19.986887 39.974737
2171   1 14.276318 22.842273 28.553116
2172   1 14.276287 22.842262 31.408551
2173   1 14.276213 22.842245 34.263991
2174   1 14.276150 22.842250 37.119402
2175   1 14.276156 22.842287 39.974742
2191   1 14.276447 25.697705 28.553116
2192   1 14.276398 25.697696 31.408536
2193   1 14.276287 25.697685 34.263971
2194   1 14.276187 25.697685 37.119388
2195   1 14.276170 25.697702 39.974734
10175  1 15.703794 24.269986 41.402438
10174  1 15.703709 24.269926 38.547184
10173  1 15.703729 24.269886 35.691815
10172  1 15.703840 24.269886 32.836349
10171  1 15.703940 24.269909 29.980855
2531   1 17.131344 17.131344 28.553116
2532   1 17.131336 17.131336 31.408585
2533   1 17.131322 17.131322 34.264056
2534   1 17.131336 17.131336 37.119491
2535   1 17.131419 17.131419 39.974814
2551   1 17.131253 19.986593 28.553116
2552   1 17.131230 19.986579 31.408648
2553   1 17.131190 19.986562 34.264179
2554   1 17.131207 19.986610 37.119622
2555   1 17.131336 19.986744 39.974897
2571   1 17.131350 22.842019 28.553116
2572   1 17.131299 22.841999 31.408685
2573   1 17.131187 22.841976 34.264256
2574   1 17.131190 22.842053 37.119674
2575   1 17.131322 22.842176 39.974911
2591   1 17.131590 25.697573 28.553116
2592   1 17.131487 25.697550 31.408685
2593   1 17.131299 25.697548 34.264236
2594   1 17.131230 25.697585 37.119654
2595   1 17.131336 25.697648 39.974897
8111   1  1.427636 15.704165 29.980778
8112   1  1.427636 15.704163 32.836104
8113   1  1.427633 15.704157 35.691430
8114   1  1.427633 15.704154 38.546758
8115   1  1.427630 15.704151 41.402084
8131   1  1.427642 18.559491 29.980778
8132   1  1.427642 18.559488 32.836101
8133   1  1.427639 18.559486 35.691427
8134   1  1.427636 18.559480 38.546753
8135   1  1.427633 18.559474 41.402078
8151   1  1.427647 21.414817 29.980778
8152   1  1.427647 21.414814 32.836098
8153   1  1.427642 21.414811 35.691421
8154   1  1.427639 21.414806 38.546747
8155   1  1.427633 21.414803 41.402076
8171   1  1.427653 24.270140 29.980775
8172   1  1.427650 24.270137 32.836095
8173   1  1.427647 24.270134 35.691418
8174   1  1.427642 24.270132 38.546744
8175   1  1.427636 24.270129 41.402070
8191   1  1.427656 27.125458 29.980775
8192   1  1.427653 27.125458 32.836095
8193   1  1.427647 27.125455 35.691415
8194   1  1.427642 27.125455 38.546741
8195   1  1.427636 27.125455 41.402067
8511   1  4.282905 15.704145 29.980781
8512   1  4.282902 15.704143 32.836112
8513   1  4.282896 15.704137 35.691441
8514   1  4.282890 15.704134 38.546773
8515   1  4.282887 15.704131 41.402101
8531   1  4.282922 18.559477 29.980781
8532   1  4.282916 18.559474 32.836109
8533   1  4.282907 18.559468 35.691438
8534   1  4.282899 18.559463 38.546770
8535   1  4.282890 18.559460 41.402101
8551   1  4.282942 21.414806 29.980778
8552   1  4.282936 21.414803 32.836106
8553   1  4.282922 21.414797 35.691435
8554   1  4.282907 21.414794 38.546767
8555   1  4.282896 21.414791 41.402096
8571   1  4.282959 24.270134 29.980778
8572   1  4.282950 24.270132 32.836101
8573   1  4.282936 24.270129 35.691430
8574   1  4.282916 24.270123 38.546761
8575   1  4.282902 24.270123 41.402090
8591   1  4.282967 27.125455 29.980778
8592   1  4.282959 27.125455 32.836101
8593   1  4.282942 27.125455 35.691427
8594   1  4.282922 27.125452 38.546755
8595   1  4.282905 27.125452 41.402087
8911   1  7.138159 15.704100 29.980786
8912   1  7.138153 15.704097 32.836126
8913   1  7.138145 15.704091 35.691467
8914   1  7.138139 15.704088 38.546807
8915   1  7.138136 15.704091 41.402141
8931   1  7.138188 18.559440 29.980786
8932   1  7.138179 18.559434 32.836126
8933   1  7.138162 18.559428 35.691467
8934   1  7.138148 18.559423 38.546810
8935   1  7.138139 18.559426 41.402144
8951   1  7.138222 21.414783 29.980783
8952   1  7.138211 21.414777 32.836121
8953   1  7.138188 21.414771 35.691464
8954   1  7.138162 21.414766 38.546804
8955   1  7.138145 21.414766 41.402141
8971   1  7.138253 24.270120 29.980783
8972   1  7.138239 24.270117 32.836118
8973   1  7.138211 24.270112 35.691455
8974   1  7.138179 24.270106 38.546798
8975   1  7.138153 24.270106 41.402136
8991   1  7.138273 27.125452 29.980781
8992   1  7.138253 27.125449 32.836112
8993   1  7.138222 27.125449 35.691452
8994   1  7.138188 27.125446 38.546793
8995   1  7.138159 27.125446 41.402133
9311   1  9.993388 15.704025 29.980795
9312   1  9.993382 15.704023 32.836152
9313   1  9.993374 15.704017 35.691512
9314   1  9.993368 15.704020 38.546864
9315   1  9.993374 15.704031 41.402201
9331   1  9.993422 18.559371 29.980795
9332   1  9.993408 18.559366 32.836158
9333   1  9.993388 18.559357 35.691521
9334   1  9.993371 18.559357 38.546875
9335   1  9.993368 18.559368 41.402213
9351   1  9.993479 21.414732 29.980795
9352   1  9.993456 21.414726 32.836155
9353   1  9.993422 21.414714 35.691518
9354   1  9.993388 21.414714 38.546875
9355   1  9.993374 21.414723 41.402216
9371   1  9.993536 24.270092 29.980792
9372   1  9.993505 24.270086 32.836146
9373   1  9.993456 24.270077 35.691507
9374   1  9.993408 24.270075 38.546867
9375   1  9.993382 24.270080 41.402210
9391   1  9.993571 27.125443 29.980789
9392   1  9.993536 27.125440 32.836141
9393   1  9.993479 27.125438 35.691501
9394   1  9.993422 27.125438 38.546861
9395   1  9.993388 27.125438 41.402207
9711   1 12.848597 15.703920 29.980809
9712   1 12.848588 15.703914 32.836192
9713   1 12.848580 15.703911 35.691578
9714   1 12.848582 15.703920 38.546947
9715   1 12.848611 15.703954 41.402278
9731   1 12.848605 18.559251 29.980815
9732   1 12.848588 18.559243 32.836212
9733   1 12.848565 18.559237 35.691609
9734   1 12.848557 18.559249 38.546984
9735   1 12.848582 18.559286 41.402313
9751   1 12.848680 21.414634 29.980815
9752   1 12.848645 21.414623 32.836218
9753   1 12.848597 21.414612 35.691621
9754   1 12.848565 21.414623 38.546998
9755   1 12.848580 21.414657 41.402321
9771   1 12.848780 24.270037 29.980812
9772   1 12.848728 24.270023 32.836209
9773   1 12.848645 24.270015 35.691609
9774   1 12.848588 24.270020 38.546990
9775   1 12.848588 24.270040 41.402318
9791   1 12.848848 27.125426 29.980806
9792   1 12.848780 27.125420 32.836195
9793   1 12.848680 27.125418 35.691598
9794   1 12.848605 27.125418 38.546981
9795   1 12.848597 27.125423 41.402313
10111  1 15.703803 15.703803 29.980826
10112  1 15.703794 15.703794 32.836246
10113  1 15.703788 15.703788 35.691664
10114  1 15.703808 15.703808 38.547047
10115  1 15.703871 15.703871 41.402364
10131  1 15.703729 18.559063 29.980846
10132  1 15.703709 18.559049 32.836306
10133  1 15.703689 18.559046 35.691758
10134  1 15.703717 18.559092 38.547141
10135  1 15.703808 18.559186 41.402424
10151  1 15.703777 21.414437 29.980858
10152  1 15.703729 21.414417 32.836346
10153  1 15.703669 21.414415 35.691818
10154  1 15.703689 21.414475 38.547187
10155  1 15.703788 21.414569 41.402444
10600  1 18.559491 27.125455 55.678591
10599  1 18.559477 27.125452 52.823311
10598  1 18.559440 27.125446 49.968048
10597  1 18.559371 27.125438 47.112813
10596  1 18.559251 27.125418 44.257627
136    1  0.000000 17.131813 42.829740
137    1  0.000000 17.131813 45.685060
138    1  0.000000 17.131815 48.540366
139    1  0.000000 17.131818 51.395663
140    1  0.000000 17.131818 54.250952
156    1  0.000000 19.987139 42.829737
157    1  0.000000 19.987139 45.685057
158    1  0.000000 19.987139 48.540366
159    1  0.000000 19.987141 51.395663
160    1  0.000000 19.987141 54.250952
176    1  0.000000 22.842464 42.829731
177    1  0.000000 22.842464 45.685054
178    1  0.000000 22.842464 48.540366
179    1  0.000000 22.842464 51.395663
180    1  0.000000 22.842467 54.250952
196    1  0.000000 25.697790 42.829729
197    1  0.000000 25.697790 45.685052
198    1  0.000000 25.697790 48.540363
199    1  0.000000 25.697790 51.395663
200    1  0.000000 25.697790 54.250952
10580  1 18.559488 24.270132 55.678591
10579  1 18.559474 24.270123 52.823316
10578  1 18.559434 24.270106 49.968056
10577  1 18.559366 24.270075 47.112824
10576  1 18.559243 24.270020 44.257644
536    1  2.855260 17.131804 42.829751
537    1  2.855260 17.131807 45.685069
538    1  2.855266 17.131810 48.540375
539    1  2.855272 17.131815 51.395669
540    1  2.855280 17.131818 54.250955
556    1  2.855263 19.987133 42.829749
557    1  2.855260 19.987133 45.685066
558    1  2.855266 19.987136 48.540375
559    1  2.855272 19.987139 51.395669
560    1  2.855277 19.987141 54.250955
576    1  2.855266 22.842462 42.829743
577    1  2.855263 22.842462 45.685063
578    1  2.855266 22.842462 48.540375
579    1  2.855272 22.842464 51.395669
580    1  2.855277 22.842464 54.250955
596    1  2.855266 25.697790 42.829740
597    1  2.855263 25.697787 45.685063
598    1  2.855266 25.697790 48.540372
599    1  2.855272 25.697790 51.395669
600    1  2.855277 25.697790 54.250955
10560  1 18.559486 21.414806 55.678594
10559  1 18.559468 21.414794 52.823325
10558  1 18.559428 21.414766 49.968070
10557  1 18.559357 21.414714 47.112844
10556  1 18.559237 21.414623 44.257667
936    1  5.710515 17.131781 42.829780
937    1  5.710520 17.131787 45.685097
938    1  5.710535 17.131798 48.540395
939    1  5.710549 17.131807 51.395683
940    1  5.710563 17.131815 54.250961
956    1  5.710518 19.987113 42.829780
957    1  5.710520 19.987119 45.685097
958    1  5.710532 19.987124 48.540397
959    1  5.710549 19.987133 51.395683
960    1  5.710563 19.987139 54.250961
976    1  5.710520 22.842447 42.829777
977    1  5.710520 22.842450 45.685094
978    1  5.710532 22.842456 48.540397
979    1  5.710549 22.842462 51.395683
980    1  5.710563 22.842464 54.250961
996    1  5.710526 25.697782 42.829774
997    1  5.710523 25.697785 45.685092
998    1  5.710532 25.697785 48.540395
999    1  5.710549 25.697787 51.395683
1000   1  5.710563 25.697790 54.250961
10540  1 18.559480 18.559480 55.678599
10539  1 18.559463 18.559463 52.823333
10538  1 18.559423 18.559423 49.968085
10537  1 18.559357 18.559357 47.112864
10536  1 18.559249 18.559249 44.257678
1336   1  8.565758 17.131738 42.829834
1337   1  8.565778 17.131756 45.685140
1338   1  8.565806 17.131778 48.540426
1339   1  8.565838 17.131798 51.395701
1340   1  8.565858 17.131810 54.250966
1356   1  8.565761 19.987079 42.829837
1357   1  8.565775 19.987093 45.685143
1358   1  8.565806 19.987110 48.540429
1359   1  8.565835 19.987124 51.395701
1360   1  8.565858 19.987136 54.250966
1376   1  8.565764 22.842424 42.829834
1377   1  8.565778 22.842433 45.685143
1378   1  8.565806 22.842444 48.540429
1379   1  8.565835 22.842456 51.395701
1380   1  8.565861 22.842462 54.250966
1396   1  8.565769 25.697770 42.829831
1397   1  8.565778 25.697776 45.685140
1398   1  8.565806 25.697782 48.540426
1399   1  8.565838 25.697785 51.395701
1400   1  8.565861 25.697790 54.250966
10520  1 18.559474 15.704154 55.678602
10519  1 18.559460 15.704134 52.823342
10518  1 18.559426 15.704088 49.968093
10517  1 18.559368 15.704020 47.112864
10516  1 18.559286 15.703920 44.257650
1736   1 11.420998 17.131676 42.829906
1737   1 11.421044 17.131718 45.685189
1738   1 11.421095 17.131756 48.540455
1739   1 11.421138 17.131787 51.395712
1740   1 11.421164 17.131807 54.250972
1756   1 11.420990 19.987024 42.829917
1757   1 11.421035 19.987061 45.685197
1758   1 11.421089 19.987093 48.540457
1759   1 11.421138 19.987119 51.395712
1760   1 11.421167 19.987133 54.250972
1776   1 11.420992 22.842387 42.829917
1777   1 11.421038 22.842410 45.685197
1778   1 11.421092 22.842433 48.540457
1779   1 11.421138 22.842450 51.395712
1780   1 11.421169 22.842462 54.250969
1796   1 11.420998 25.697753 42.829914
1797   1 11.421038 25.697765 45.685194
1798   1 11.421092 25.697776 48.540455
1799   1 11.421141 25.697785 51.395709
1800   1 11.421172 25.697787 54.250969
10200  1 15.704165 27.125455 55.678597
10199  1 15.704145 27.125452 52.823328
10198  1 15.704100 27.125446 49.968073
10197  1 15.704025 27.125438 47.112844
10196  1 15.703920 27.125423 44.257638
2136   1 14.276247 17.131604 42.829986
2137   1 14.276327 17.131676 45.685234
2138   1 14.276398 17.131738 48.540475
2139   1 14.276452 17.131781 51.395718
2140   1 14.276481 17.131804 54.250972
2156   1 14.276227 19.986959 42.830008
2157   1 14.276315 19.987024 45.685243
2158   1 14.276395 19.987079 48.540475
2159   1 14.276452 19.987113 51.395715
2160   1 14.276487 19.987133 54.250969
2176   1 14.276224 22.842339 42.830008
2177   1 14.276315 22.842387 45.685240
2178   1 14.276398 22.842424 48.540469
2179   1 14.276455 22.842447 51.395712
2180   1 14.276490 22.842462 54.250969
2196   1 14.276230 25.697727 42.830003
2197   1 14.276321 25.697753 45.685234
2198   1 14.276401 25.697770 48.540463
2199   1 14.276461 25.697782 51.395706
2200   1 14.276492 25.697790 54.250966
10180  1 15.704163 24.270129 55.678597
10179  1 15.704143 24.270123 52.823331
10178  1 15.704097 24.270106 49.968079
10177  1 15.704023 24.270080 47.112850
10176  1 15.703914 24.270040 44.257644
2536   1 17.131536 17.131536 42.830054
2537   1 17.131644 17.131644 45.685260
2538   1 17.131727 17.131727 48.540477
2539   1 17.131778 17.131778 51.395718
2540   1 17.131807 17.131807 54.250969
2556   1 17.131496 19.986887 42.830083
2557   1 17.131633 19.986996 45.685263
2558   1 17.131724 19.987070 48.540472
2559   1 17.131781 19.987113 51.395706
2560   1 17.131813 19.987136 54.250966
2576   1 17.131490 22.842287 42.830077
2577   1 17.131633 22.842367 45.685249
2578   1 17.131730 22.842419 48.540457
2579   1 17.131787 22.842447 51.395698
2580   1 17.131815 22.842464 54.250961
2596   1 17.131499 25.697702 42.830063
2597   1 17.131641 25.697742 45.685234
2598   1 17.131736 25.697767 48.540446
2599   1 17.131793 25.697782 51.395689
2600   1 17.131821 25.697790 54.250958
8116   1  1.427630 15.704148 44.257404
8117   1  1.427633 15.704151 47.112716
8118   1  1.427636 15.704154 49.968019
8119   1  1.427639 15.704157 52.823311
8120   1  1.427642 15.704160 55.678594
8136   1  1.427630 18.559474 44.257401
8137   1  1.427630 18.559474 47.112716
8138   1  1.427633 18.559477 49.968019
8139   1  1.427639 18.559480 52.823311
8140   1  1.427639 18.559480 55.678594
8156   1  1.427630 21.414800 44.257399
8157   1  1.427633 21.414800 47.112713
8158   1  1.427633 21.414800 49.968019
8159   1  1.427639 21.414803 52.823311
8160   1  1.427639 21.414803 55.678594
8176   1  1.427633 24.270126 44.257396
8177   1  1.427633 24.270126 47.112713
8178   1  1.427633 24.270126 49.968019
8179   1  1.427639 24.270129 52.823311
8180   1  1.427639 24.270129 55.678594
8196   1  1.427633 27.125455 44.257393
8197   1  1.427633 27.125452 47.112710
8198   1  1.427633 27.125455 49.968016
8199   1  1.427639 27.125455 52.823311
8200   1  1.427639 27.125455 55.678594
8516   1  4.282887 15.704134 44.257421
8517   1  4.282896 15.704140 47.112733
8518   1  4.282905 15.704145 49.968030
8519   1  4.282916 15.704154 52.823316
8520   1  4.282922 15.704157 55.678594
8536   1  4.282890 18.559460 44.257421
8537   1  4.282893 18.559466 47.112733
8538   1  4.282905 18.559471 49.968030
8539   1  4.282916 18.559477 52.823316
8540   1  4.282922 18.559480 55.678597
8556   1  4.282890 21.414791 44.257419
8557   1  4.282893 21.414794 47.112733
8558   1  4.282905 21.414797 49.968030
8559   1  4.282916 21.414800 52.823316
8560   1  4.282922 21.414803 55.678597
8576   1  4.282893 24.270120 44.257416
8577   1  4.282896 24.270123 47.112730
8578   1  4.282905 24.270126 49.968030
8579   1  4.282916 24.270126 52.823316
8580   1  4.282922 24.270129 55.678597
8596   1  4.282896 27.125452 44.257416
8597   1  4.282896 27.125452 47.112730
8598   1  4.282905 27.125452 49.968030
8599   1  4.282916 27.125452 52.823316
8600   1  4.282922 27.125455 55.678597
8916   1  7.138145 15.704103 44.257459
8917   1  7.138162 15.704117 47.112762
8918   1  7.138182 15.704134 49.968050
8919   1  7.138202 15.704145 52.823328
8920   1  7.138213 15.704154 55.678597
8936   1  7.138142 18.559434 44.257464
8937   1  7.138156 18.559446 47.112767
8938   1  7.138179 18.559460 49.968053
8939   1  7.138202 18.559471 52.823328
8940   1  7.138213 18.559477 55.678599
8956   1  7.138142 21.414771 44.257464
8957   1  7.138156 21.414780 47.112767
8958   1  7.138179 21.414789 49.968053
8959   1  7.138202 21.414797 52.823328
8960   1  7.138213 21.414800 55.678599
8976   1  7.138148 24.270109 44.257461
8977   1  7.138156 24.270115 47.112765
8978   1  7.138179 24.270120 49.968053
8979   1  7.138202 24.270126 52.823328
8980   1  7.138216 24.270126 55.678599
8996   1  7.138148 27.125446 44.257459
8997   1  7.138159 27.125449 47.112765
8998   1  7.138179 27.125452 49.968053
8999   1  7.138202 27.125452 52.823328
9000   1  7.138216 27.125455 55.678599
9316   1  9.993397 15.704057 44.257513
9317   1  9.993434 15.704088 47.112799
9318   1  9.993471 15.704117 49.968073
9319   1  9.993499 15.704140 52.823336
9320   1  9.993516 15.704151 55.678602
9336   1  9.993388 18.559391 44.257524
9337   1  9.993425 18.559420 47.112807
9338   1  9.993468 18.559446 49.968076
9339   1  9.993499 18.559466 52.823339
9340   1  9.993516 18.559474 55.678602
9356   1  9.993388 21.414740 44.257524
9357   1  9.993425 21.414760 47.112807
9358   1  9.993465 21.414780 49.968076
9359   1  9.993499 21.414794 52.823339
9360   1  9.993519 21.414800 55.678602
9376   1  9.993391 24.270089 44.257524
9377   1  9.993425 24.270103 47.112807
9378   1  9.993468 24.270115 49.968076
9379   1  9.993502 24.270123 52.823339
9380   1  9.993519 24.270126 55.678602
9396   1  9.993394 27.125440 44.257521
9397   1  9.993425 27.125446 47.112807
9398   1  9.993468 27.125449 49.968076
9399   1  9.993502 27.125452 52.823336
9400   1  9.993522 27.125452 55.678599
9716   1 12.848662 15.704003 44.257573
9717   1 12.848720 15.704057 47.112836
9718   1 12.848774 15.704103 49.968090
9719   1 12.848811 15.704134 52.823345
9720   1 12.848828 15.704148 55.678602
9736   1 12.848642 18.559340 44.257590
9737   1 12.848711 18.559391 47.112844
9738   1 12.848768 18.559434 49.968090
9739   1 12.848811 18.559460 52.823345
9740   1 12.848831 18.559474 55.678602
9756   1 12.848637 21.414700 44.257596
9757   1 12.848708 21.414740 47.112844
9758   1 12.848771 21.414771 49.968090
9759   1 12.848814 21.414791 52.823342
9760   1 12.848834 21.414800 55.678602
9776   1 12.848640 24.270066 44.257593
9777   1 12.848711 24.270089 47.112842
9778   1 12.848774 24.270109 49.968088
9779   1 12.848817 24.270120 52.823339
9780   1 12.848837 24.270126 55.678599
9796   1 12.848642 27.125432 44.257590
9797   1 12.848711 27.125440 47.112839
9798   1 12.848774 27.125446 49.968085
9799   1 12.848817 27.125452 52.823339
9800   1 12.848839 27.125455 55.678599
10116  1 15.703954 15.703954 44.257621
10117  1 15.704031 15.704031 47.112859
10118  1 15.704091 15.704091 49.968096
10119  1 15.704131 15.704131 52.823345
10120  1 15.704151 15.704151 55.678602
10136  1 15.703920 18.559286 44.257650
10137  1 15.704020 18.559368 47.112864
10138  1 15.704088 18.559426 49.968093
10139  1 15.704134 18.559460 52.823342
10140  1 15.704154 18.559474 55.678602
10156  1 15.703911 21.414657 44.257653
10157  1 15.704017 21.414723 47.112859
10158  1 15.704091 21.414766 49.968088
10159  1 15.704137 21.414791 52.823336
10160  1 15.704157 21.414803 55.678599
201    1  0.000000 28.553116  0.000000
202    1  0.000000 28.553116  2.855280
203    1  0.000000 28.553116  5.710569
204    1  0.000000 28.553116  8.565869
205    1  0.000000 28.553116 11.421184
221    1  0.000000 31.408442  0.000000
222    1  0.000000 31.408442  2.855280
223    1  0.000000 31.408442  5.710569
224    1  0.000000 31.408442  8.565869
225    1  0.000000 31.408442 11.421181
241    1  0.000000 34.263765  0.000000
242    1  0.000000 34.263768  2.855280
243    1  0.000000 34.263768  5.710569
244    1  0.000000 34.263768  8.565866
245    1  0.000000 34.263768 11.421178
261    1  0.000000 37.119091  0.000000
262    1  0.000000 37.119091  2.855280
263    1  0.000000 37.119094  5.710569
264    1  0.000000 37.119094  8.565866
265    1  0.000000 37.119094 11.421175
281    1  0.000000 39.974411  0.000000
282    1  0.000000 39.974414  2.855280
283    1  0.000000 39.974417  5.710569
284    1  0.000000 39.974420  8.565866
285    1  0.000000 39.974420 11.421175
601    1  2.855280 28.553116  0.000000
602    1  2.855277 28.553116  2.855277
603    1  2.855272 28.553116  5.710563
604    1  2.855266 28.553116  8.565861
605    1  2.855263 28.553116 11.421172
621    1  2.855280 31.408442  0.000000
622    1  2.855277 31.408442  2.855277
623    1  2.855272 31.408442  5.710563
624    1  2.855266 31.408445  8.565861
625    1  2.855263 31.408445 11.421172
641    1  2.855280 34.263768  0.000000
642    1  2.855277 34.263768  2.855277
643    1  2.855272 34.263768  5.710563
644    1  2.855266 34.263771  8.565861
645    1  2.855263 34.263771 11.421169
661    1  2.855280 37.119091  0.000000
662    1  2.855277 37.119091  2.855277
663    1  2.855272 37.119094  5.710563
664    1  2.855266 37.119097  8.565858
665    1  2.855260 37.119100 11.421167
681    1  2.855280 39.974414  0.000000
682    1  2.855280 39.974414  2.855280
683    1  2.855272 39.974417  5.710563
684    1  2.855266 39.974423  8.565858
685    1  2.855260 39.974425 11.421164
1001   1  5.710569 28.553116  0.000000
1002   1  5.710563 28.553116  2.855272
1003   1  5.710549 28.553116  5.710549
1004   1  5.710532 28.553116  8.565838
1005   1  5.710523 28.553116 11.421141
1021   1  5.710569 31.408442  0.000000
1022   1  5.710563 31.408442  2.855272
1023   1  5.710549 31.408445  5.710549
1024   1  5.710532 31.408448  8.565838
1025   1  5.710523 31.408448 11.421141
1041   1  5.710569 34.263768  0.000000
1042   1  5.710563 34.263768  2.855272
1043   1  5.710549 34.263774  5.710549
1044   1  5.710532 34.263777  8.565835
1045   1  5.710520 34.263782 11.421138
1061   1  5.710569 37.119094  0.000000
1062   1  5.710563 37.119094  2.855272
1063   1  5.710549 37.119100  5.710549
1064   1  5.710532 37.119108  8.565835
1065   1  5.710520 37.119114 11.421138
1081   1  5.710569 39.974417  0.000000
1082   1  5.710563 39.974417  2.855272
1083   1  5.710549 39.974425  5.710549
1084   1  5.710535 39.974437  8.565838
1085   1  5.710520 39.974445 11.421138
1401   1  8.565869 28.553116  0.000000
1402   1  8.565861 28.553116  2.855266
1403   1  8.565838 28.553116  5.710532
1404   1  8.565806 28.553116  8.565806
1405   1  8.565778 28.553116 11.421092
1421   1  8.565869 31.408442  0.000000
1422   1  8.565861 31.408445  2.855266
1423   1  8.565838 31.408448  5.710532
1424   1  8.565806 31.408451  8.565806
1425   1  8.565778 31.408456 11.421092
1441   1  8.565866 34.263768  0.000000
1442   1  8.565861 34.263771  2.855266
1443   1  8.565835 34.263777  5.710532
1444   1  8.565806 34.263788  8.565806
1445   1  8.565778 34.263799 11.421092
1461   1  8.565866 37.119094  0.000000
1462   1  8.565858 37.119097  2.855266
1463   1  8.565835 37.119108  5.710532
1464   1  8.565806 37.119122  8.565806
1465   1  8.565775 37.119140 11.421089
1481   1  8.565866 39.974420  0.000000
1482   1  8.565858 39.974423  2.855266
1483   1  8.565838 39.974437  5.710535
1484   1  8.565806 39.974454  8.565806
1485   1  8.565778 39.974477 11.421095
1801   1 11.421184 28.553116  0.000000
1802   1 11.421172 28.553116  2.855263
1803   1 11.421141 28.553116  5.710523
1804   1 11.421092 28.553116  8.565778
1805   1 11.421041 28.553116 11.421041
1821   1 11.421181 31.408442  0.000000
1822   1 11.421172 31.408445  2.855263
1823   1 11.421141 31.408448  5.710523
1824   1 11.421092 31.408456  8.565778
1825   1 11.421038 31.408468 11.421038
1841   1 11.421178 34.263768  0.000000
1842   1 11.421169 34.263771  2.855263
1843   1 11.421138 34.263782  5.710520
1844   1 11.421092 34.263799  8.565778
1845   1 11.421038 34.263822 11.421038
1861   1 11.421175 37.119094  0.000000
1862   1 11.421167 37.119100  2.855260
1863   1 11.421138 37.119114  5.710520
1864   1 11.421089 37.119140  8.565775
1865   1 11.421035 37.119174 11.421035
1881   1 11.421175 39.974420  0.000000
1882   1 11.421164 39.974425  2.855260
1883   1 11.421138 39.974445  5.710520
1884   1 11.421095 39.974477  8.565778
1885   1 11.421044 39.974517 11.421044
2201   1 14.276504 28.553116  0.000000
2202   1 14.276495 28.553116  2.855269
2203   1 14.276461 28.553116  5.710526
2204   1 14.276404 28.553116  8.565772
2205   1 14.276321 28.553116 11.421001
2221   1 14.276504 31.408442  0.000000
2222   1 14.276492 31.408445  2.855266
2223   1 14.276461 31.408451  5.710526
2224   1 14.276401 31.408462  8.565769
2225   1 14.276321 31.408482 11.420998
2241   1 14.276501 34.263768  0.000000
2242   1 14.276490 34.263771  2.855266
2243   1 14.276455 34.263785  5.710520
2244   1 14.276398 34.263808  8.565764
2245   1 14.276315 34.263845 11.420992
2261   1 14.276495 37.119094  0.000000
2262   1 14.276487 37.119100  2.855263
2263   1 14.276452 37.119120  5.710518
2264   1 14.276395 37.119154  8.565761
2265   1 14.276315 37.119208 11.420990
2281   1 14.276492 39.974420  0.000000
2282   1 14.276481 39.974428  2.855260
2283   1 14.276452 39.974451  5.710515
2284   1 14.276398 39.974494  8.565758
2285   1 14.276327 39.974557 11.420998
2601   1 17.131833 28.553116  0.000000
2602   1 17.131821 28.553116  2.855277
2603   1 17.131793 28.553116  5.710546
2604   1 17.131738 28.553116  8.565792
2605   1 17.131644 28.553116 11.421004
2621   1 17.131830 31.408439  0.000000
2622   1 17.131821 31.408442  2.855277
2623   1 17.131793 31.408451  5.710543
2624   1 17.131736 31.408465  8.565786
2625   1 17.131641 31.408491 11.420998
2641   1 17.131827 34.263765  0.000000
2642   1 17.131815 34.263768  2.855272
2643   1 17.131787 34.263785  5.710535
2644   1 17.131730 34.263814  8.565775
2645   1 17.131633 34.263865 11.420984
2661   1 17.131821 37.119091  0.000000
2662   1 17.131813 37.119097  2.855269
2663   1 17.131781 37.119120  5.710526
2664   1 17.131724 37.119162  8.565764
2665   1 17.131633 37.119237 11.420970
2681   1 17.131815 39.974417  0.000000
2682   1 17.131807 39.974425  2.855263
2683   1 17.131778 39.974454  5.710518
2684   1 17.131727 39.974505  8.565755
2685   1 17.131644 39.974588 11.420972
8201   1  1.427639 29.980778  1.427639
8202   1  1.427639 29.980781  4.282922
8203   1  1.427633 29.980781  7.138216
8204   1  1.427633 29.980781  9.993522
8205   1  1.427633 29.980781 12.848839
8221   1  1.427639 32.836104  1.427639
8222   1  1.427639 32.836104  4.282922
8223   1  1.427633 32.836106  7.138216
8224   1  1.427633 32.836106  9.993519
8225   1  1.427633 32.836106 12.848837
8241   1  1.427639 35.691430  1.427639
8242   1  1.427639 35.691430  4.282922
8243   1  1.427633 35.691432  7.138213
8244   1  1.427633 35.691432  9.993519
8245   1  1.427630 35.691432 12.848834
8261   1  1.427639 38.546753  1.427639
8262   1  1.427639 38.546753  4.282922
8263   1  1.427633 38.546755  7.138213
8264   1  1.427630 38.546758  9.993516
8265   1  1.427630 38.546758 12.848831
8281   1  1.427642 41.402073  1.427642
8282   1  1.427639 41.402076  4.282922
8283   1  1.427636 41.402078  7.138213
8284   1  1.427633 41.402081  9.993516
8285   1  1.427630 41.402084 12.848828
8601   1  4.282922 29.980781  1.427639
8602   1  4.282916 29.980781  4.282916
8603   1  4.282905 29.980781  7.138202
8604   1  4.282896 29.980781  9.993502
8605   1  4.282896 29.980781 12.848817
8621   1  4.282922 32.836104  1.427639
8622   1  4.282916 32.836106  4.282916
8623   1  4.282905 32.836109  7.138202
8624   1  4.282896 32.836109  9.993502
8625   1  4.282893 32.836112 12.848817
8641   1  4.282922 35.691430  1.427639
8642   1  4.282916 35.691432  4.282916
8643   1  4.282905 35.691435  7.138202
8644   1  4.282893 35.691441  9.993499
8645   1  4.282890 35.691441 12.848814
8661   1  4.282922 38.546753  1.427639
8662   1  4.282916 38.546758  4.282916
8663   1  4.282905 38.546761  7.138202
8664   1  4.282893 38.546770  9.993499
8665   1  4.282890 38.546773 12.848811
8681   1  4.282922 41.402076  1.427639
8682   1  4.282916 41.402078  4.282916
8683   1  4.282905 41.402087  7.138202
8684   1  4.282896 41.402093  9.993499
8685   1  4.282887 41.402098 12.848811
9001   1  7.138216 29.980781  1.427633
9002   1  7.138202 29.980781  4.282905
9003   1  7.138179 29.980781  7.138179
9004   1  7.138159 29.980783  9.993468
9005   1  7.138148 29.980786 12.848774
9021   1  7.138216 32.836106  1.427633
9022   1  7.138202 32.836109  4.282905
9023   1  7.138179 32.836112  7.138179
9024   1  7.138156 32.836118  9.993468
9025   1  7.138148 32.836124 12.848774
9041   1  7.138213 35.691432  1.427633
9042   1  7.138202 35.691435  4.282905
9043   1  7.138179 35.691444  7.138179
9044   1  7.138156 35.691452  9.993465
9045   1  7.138142 35.691464 12.848771
9061   1  7.138213 38.546755  1.427633
9062   1  7.138202 38.546761  4.282905
9063   1  7.138179 38.546773  7.138179
9064   1  7.138156 38.546787  9.993468
9065   1  7.138142 38.546798 12.848768
9081   1  7.138213 41.402078  1.427636
9082   1  7.138202 41.402087  4.282905
9083   1  7.138182 41.402098  7.138182
9084   1  7.138162 41.402116  9.993471
9085   1  7.138145 41.402130 12.848774
9401   1  9.993522 29.980781  1.427633
9402   1  9.993502 29.980781  4.282896
9403   1  9.993468 29.980783  7.138159
9404   1  9.993425 29.980786  9.993425
9405   1  9.993394 29.980792 12.848711
9421   1  9.993519 32.836106  1.427633
9422   1  9.993502 32.836109  4.282896
9423   1  9.993468 32.836118  7.138156
9424   1  9.993425 32.836129  9.993425
9425   1  9.993391 32.836144 12.848711
9441   1  9.993519 35.691432  1.427633
9442   1  9.993499 35.691441  4.282893
9443   1  9.993465 35.691452  7.138156
9444   1  9.993425 35.691472  9.993425
9445   1  9.993388 35.691492 12.848708
9461   1  9.993516 38.546758  1.427630
9462   1  9.993499 38.546770  4.282893
9463   1  9.993468 38.546787  7.138156
9464   1  9.993425 38.546813  9.993425
9465   1  9.993388 38.546841 12.848711
9481   1  9.993516 41.402081  1.427633
9482   1  9.993499 41.402093  4.282896
9483   1  9.993471 41.402116  7.138162
9484   1  9.993434 41.402144  9.993434
9485   1  9.993397 41.402176 12.848720
9801   1 12.848839 29.980781  1.427633
9802   1 12.848817 29.980781  4.282896
9803   1 12.848774 29.980786  7.138148
9804   1 12.848711 29.980792  9.993394
9805   1 12.848642 29.980801 12.848642
9821   1 12.848837 32.836106  1.427633
9822   1 12.848817 32.836112  4.282893
9823   1 12.848774 32.836124  7.138148
9824   1 12.848711 32.836144  9.993391
9825   1 12.848640 32.836166 12.848640
9841   1 12.848834 35.691432  1.427630
9842   1 12.848814 35.691441  4.282890
9843   1 12.848771 35.691464  7.138142
9844   1 12.848708 35.691492  9.993388
9845   1 12.848637 35.691535 12.848637
9861   1 12.848831 38.546758  1.427630
9862   1 12.848811 38.546773  4.282890
9863   1 12.848768 38.546798  7.138142
9864   1 12.848711 38.546841  9.993388
9865   1 12.848642 38.546892 12.848642
9881   1 12.848828 41.402084  1.427630
9882   1 12.848811 41.402098  4.282887
9883   1 12.848774 41.402130  7.138145
9884   1 12.848720 41.402176  9.993397
9885   1 12.848662 41.402230 12.848662
10201  1 15.704165 29.980778  1.427636
10202  1 15.704145 29.980781  4.282905
10203  1 15.704100 29.980786  7.138159
10204  1 15.704025 29.980795  9.993388
10205  1 15.703920 29.980809 12.848597
10221  1 15.704163 32.836104  1.427636
10222  1 15.704143 32.836112  4.282902
10223  1 15.704097 32.836126  7.138153
10224  1 15.704023 32.836152  9.993382
10225  1 15.703914 32.836192 12.848588
10241  1 15.704157 35.691430  1.427633
10242  1 15.704137 35.691441  4.282896
10243  1 15.704091 35.691467  7.138145
10244  1 15.704017 35.691512  9.993374
10245  1 15.703911 35.691578 12.848580
10261  1 15.704154 38.546758  1.427633
10262  1 15.704134 38.546773  4.282890
10263  1 15.704088 38.546807  7.138139
10264  1 15.704020 38.546864  9.993368
10265  1 15.703920 38.546947 12.848582
10281  1 15.704151 41.402084  1.427630
10282  1 15.704131 41.402101  4.282887
10283  1 15.704091 41.402141  7.138136
10284  1 15.704031 41.402201  9.993374
10285  1 15.703954 41.402278 12.848611
10601  1 18.559491 29.980778  1.427642
10602  1 18.559477 29.980781  4.282922
10603  1 18.559440 29.980786  7.138188
10604  1 18.559371 29.980795  9.993422
10605  1 18.559251 29.980815 12.848605
10621  1 18.559488 32.836101  1.427642
10622  1 18.559474 32.836109  4.282916
10623  1 18.559434 32.836126  7.138179
10624  1 18.559366 32.836158  9.993408
10625  1 18.559243 32.836212 12.848588
10641  1 18.559486 35.691427  1.427639
10642  1 18.559468 35.691438  4.282907
10643  1 18.559428 35.691467  7.138162
10644  1 18.559357 35.691521  9.993388
10645  1 18.559237 35.691609 12.848565
10661  1 18.559480 38.546753  1.427636
10662  1 18.559463 38.546770  4.282899
10663  1 18.559423 38.546810  7.138148
10664  1 18.559357 38.546875  9.993371
10665  1 18.559249 38.546984 12.848557
10681  1 18.559474 41.402078  1.427633
10682  1 18.559460 41.402101  4.282890
10683  1 18.559426 41.402144  7.138139
10684  1 18.559368 41.402213  9.993368
10685  1 18.559286 41.402313 12.848582
206    1  0.000000 28.553116 14.276504
226    1  0.000000 31.408442 14.276504
246    1  0.000000 34.263768 14.276501
266    1  0.000000 37.119094 14.276495
286    1  0.000000 39.974420 14.276492
606    1  2.855269 28.553116 14.276495
626    1  2.855266 31.408445 14.276492
646    1  2.855266 34.263771 14.276490
666    1  2.855263 37.119100 14.276487
686    1  2.855260 39.974428 14.276481
1006   1  5.710526 28.553116 14.276461
1026   1  5.710526 31.408451 14.276461
1046   1  5.710520 34.263785 14.276455
1066   1  5.710518 37.119120 14.276452
1086   1  5.710515 39.974451 14.276452
1406   1  8.565772 28.553116 14.276404
1426   1  8.565769 31.408462 14.276401
1446   1  8.565764 34.263808 14.276398
1466   1  8.565761 37.119154 14.276395
1486   1  8.565758 39.974494 14.276398
1806   1 11.421001 28.553116 14.276321
1826   1 11.420998 31.408482 14.276321
1846   1 11.420992 34.263845 14.276315
1866   1 11.420990 37.119208 14.276315
1886   1 11.420998 39.974557 14.276327
2206   1 14.276233 28.553116 14.276233
2226   1 14.276230 31.408505 14.276230
2246   1 14.276224 34.263894 14.276224
2266   1 14.276227 37.119277 14.276227
2286   1 14.276247 39.974631 14.276247
2606   1 17.131504 28.553116 14.276175
2626   1 17.131499 31.408531 14.276170
2646   1 17.131490 34.263945 14.276156
2666   1 17.131496 37.119345 14.276150
2686   1 17.131536 39.974697 14.276178
10690  1 18.559063 41.402504 27.125389
207    1  0.000000 28.553116 17.131833
208    1  0.000000 28.553116 19.987158
209    1  0.000000 28.553116 22.842479
210    1  0.000000 28.553116 25.697799
10689  1 18.559049 41.402524 24.269926
227    1  0.000000 31.408439 17.131830
228    1  0.000000 31.408439 19.987156
229    1  0.000000 31.408436 22.842479
230    1  0.000000 31.408434 25.697799
10688  1 18.559046 41.402544 21.414475
247    1  0.000000 34.263765 17.131827
248    1  0.000000 34.263759 19.987153
249    1  0.000000 34.263757 22.842476
250    1  0.000000 34.263754 25.697796
10687  1 18.559092 41.402515 18.559092
267    1  0.000000 37.119091 17.131821
268    1  0.000000 37.119085 19.987147
269    1  0.000000 37.119080 22.842473
270    1  0.000000 37.119077 25.697796
10686  1 18.559186 41.402424 15.703808
287    1  0.000000 39.974417 17.131815
288    1  0.000000 39.974411 19.987141
289    1  0.000000 39.974406 22.842467
290    1  0.000000 39.974403 25.697793
10670  1 18.558840 38.547392 27.125343
607    1  2.855277 28.553116 17.131821
608    1  2.855292 28.553116 19.987150
609    1  2.855303 28.553116 22.842476
610    1  2.855309 28.553116 25.697799
10669  1 18.558815 38.547421 24.269789
627    1  2.855277 31.408442 17.131821
628    1  2.855289 31.408439 19.987150
629    1  2.855300 31.408439 22.842476
630    1  2.855306 31.408436 25.697796
10668  1 18.558812 38.547424 21.414266
647    1  2.855272 34.263768 17.131815
648    1  2.855283 34.263765 19.987144
649    1  2.855292 34.263762 22.842470
650    1  2.855300 34.263759 25.697796
10667  1 18.558926 38.547306 18.558926
667    1  2.855269 37.119097 17.131813
668    1  2.855275 37.119094 19.987139
669    1  2.855283 37.119088 22.842467
670    1  2.855289 37.119082 25.697793
10666  1 18.559092 38.547141 15.703717
687    1  2.855263 39.974425 17.131807
688    1  2.855269 39.974423 19.987136
689    1  2.855272 39.974417 22.842464
690    1  2.855277 39.974411 25.697790
10650  1 18.558706 35.692172 27.125289
1007   1  5.710546 28.553116 17.131793
1008   1  5.710572 28.553116 19.987130
1009   1  5.710598 28.553116 22.842464
1010   1  5.710618 28.553116 25.697790
10649  1 18.558635 35.692212 24.269626
1027   1  5.710543 31.408451 17.131793
1028   1  5.710569 31.408448 19.987127
1029   1  5.710592 31.408445 22.842462
1030   1  5.710612 31.408442 25.697790
10648  1 18.558620 35.692166 21.414066
1047   1  5.710535 34.263785 17.131787
1048   1  5.710558 34.263782 19.987121
1049   1  5.710578 34.263777 22.842456
1050   1  5.710592 34.263771 25.697787
10647  1 18.558812 35.691966 18.558812
1067   1  5.710526 37.119120 17.131781
1068   1  5.710540 37.119117 19.987116
1069   1  5.710558 37.119111 22.842453
1070   1  5.710569 37.119105 25.697785
10646  1 18.559046 35.691758 15.703689
1087   1  5.710518 39.974454 17.131778
1088   1  5.710526 39.974451 19.987113
1089   1  5.710535 39.974445 22.842447
1090   1  5.710543 39.974443 25.697782
10630  1 18.558866 32.836658 27.125263
1407   1  8.565792 28.553116 17.131738
1408   1  8.565832 28.553116 19.987087
1409   1  8.565881 28.553116 22.842436
1410   1  8.565915 28.553116 25.697779
10629  1 18.558675 32.836712 24.269521
1427   1  8.565786 31.408465 17.131736
1428   1  8.565826 31.408462 19.987084
1429   1  8.565869 31.408459 22.842433
1430   1  8.565903 31.408456 25.697779
10628  1 18.558635 32.836606 21.414023
1447   1  8.565775 34.263814 17.131730
1448   1  8.565806 34.263814 19.987076
1449   1  8.565843 34.263808 22.842427
1450   1  8.565869 34.263799 25.697773
10627  1 18.558815 32.836443 18.558815
1467   1  8.565764 37.119162 17.131724
1468   1  8.565781 37.119162 19.987070
1469   1  8.565806 37.119157 22.842419
1470   1  8.565826 37.119148 25.697770
10626  1 18.559049 32.836306 15.703709
1487   1  8.565755 39.974505 17.131727
1488   1  8.565764 39.974508 19.987070
1489   1  8.565775 39.974503 22.842419
1490   1  8.565786 39.974497 25.697767
10610  1 18.559160 29.980969 27.125263
1807   1 11.421004 28.553116 17.131644
1808   1 11.421052 28.553116 19.987004
1809   1 11.421132 28.553116 22.842384
1810   1 11.421201 28.553116 25.697756
10609  1 18.558866 29.980969 24.269575
1827   1 11.420998 31.408491 17.131641
1828   1 11.421044 31.408493 19.986999
1829   1 11.421115 31.408488 22.842379
1830   1 11.421175 31.408482 25.697750
10608  1 18.558706 29.980943 21.414061
1847   1 11.420984 34.263865 17.131633
1848   1 11.421015 34.263871 19.986990
1849   1 11.421069 34.263868 22.842367
1850   1 11.421115 34.263854 25.697745
10607  1 18.558840 29.980889 18.558840
1867   1 11.420970 37.119237 17.131633
1868   1 11.420984 37.119248 19.986984
1869   1 11.421015 37.119242 22.842362
1870   1 11.421044 37.119234 25.697739
10606  1 18.559063 29.980846 15.703729
1887   1 11.420972 39.974588 17.131644
1888   1 11.420970 39.974603 19.986996
1889   1 11.420984 39.974600 22.842367
1890   1 11.420998 39.974594 25.697742
10290  1 15.703803 41.402430 27.125406
2207   1 14.276175 28.553116 17.131504
2208   1 14.276204 28.553116 19.986853
2209   1 14.276318 28.553116 22.842273
2210   1 14.276447 28.553116 25.697705
10289  1 15.703794 41.402438 24.269986
2227   1 14.276170 31.408531 17.131499
2228   1 14.276187 31.408548 19.986844
2229   1 14.276287 31.408551 22.842262
2230   1 14.276398 31.408536 25.697696
10288  1 15.703788 41.402444 21.414569
2247   1 14.276156 34.263945 17.131490
2248   1 14.276150 34.263982 19.986830
2249   1 14.276213 34.263991 22.842245
2250   1 14.276287 34.263971 25.697685
10287  1 15.703808 41.402424 18.559186
2267   1 14.276150 37.119345 17.131496
2268   1 14.276124 37.119394 19.986839
2269   1 14.276150 37.119402 22.842250
2270   1 14.276187 37.119388 25.697685
10286  1 15.703871 41.402364 15.703871
2287   1 14.276178 39.974697 17.131536
2288   1 14.276150 39.974737 19.986887
2289   1 14.276156 39.974742 22.842287
2290   1 14.276170 39.974734 25.697702
10270  1 15.703729 38.547169 27.125389
2607   1 17.131344 28.553116 17.131344
2608   1 17.131253 28.553116 19.986593
2609   1 17.131350 28.553116 22.842019
2610   1 17.131590 28.553116 25.697573
10269  1 15.703709 38.547184 24.269926
2627   1 17.131336 31.408585 17.131336
2628   1 17.131230 31.408648 19.986579
2629   1 17.131299 31.408685 22.841999
2630   1 17.131487 31.408685 25.697550
10268  1 15.703689 38.547187 21.414475
2647   1 17.131322 34.264056 17.131322
2648   1 17.131190 34.264179 19.986562
2649   1 17.131187 34.264256 22.841976
2650   1 17.131299 34.264236 25.697548
10267  1 15.703717 38.547141 18.559092
2667   1 17.131336 37.119491 17.131336
2668   1 17.131207 37.119622 19.986610
2669   1 17.131190 37.119674 22.842053
2670   1 17.131230 37.119654 25.697585
10266  1 15.703808 38.547047 15.703808
2687   1 17.131419 39.974814 17.131419
2688   1 17.131336 39.974897 19.986744
2689   1 17.131322 39.974911 22.842176
2690   1 17.131336 39.974897 25.697648
8206   1  1.427636 29.980778 15.704165
8207   1  1.427642 29.980778 18.559491
8208   1  1.427647 29.980778 21.414817
8209   1  1.427653 29.980775 24.270140
8210   1  1.427656 29.980775 27.125458
8226   1  1.427636 32.836104 15.704163
8227   1  1.427642 32.836101 18.559488
8228   1  1.427647 32.836098 21.414814
8229   1  1.427650 32.836095 24.270137
8230   1  1.427653 32.836095 27.125458
8246   1  1.427633 35.691430 15.704157
8247   1  1.427639 35.691427 18.559486
8248   1  1.427642 35.691421 21.414811
8249   1  1.427647 35.691418 24.270134
8250   1  1.427647 35.691415 27.125455
8266   1  1.427633 38.546758 15.704154
8267   1  1.427636 38.546753 18.559480
8268   1  1.427639 38.546747 21.414806
8269   1  1.427642 38.546744 24.270132
8270   1  1.427642 38.546741 27.125455
8286   1  1.427630 41.402084 15.704151
8287   1  1.427633 41.402078 18.559474
8288   1  1.427633 41.402076 21.414803
8289   1  1.427636 41.402070 24.270129
8290   1  1.427636 41.402067 27.125455
8606   1  4.282905 29.980781 15.704145
8607   1  4.282922 29.980781 18.559477
8608   1  4.282942 29.980778 21.414806
8609   1  4.282959 29.980778 24.270134
8610   1  4.282967 29.980778 27.125455
8626   1  4.282902 32.836112 15.704143
8627   1  4.282916 32.836109 18.559474
8628   1  4.282936 32.836106 21.414803
8629   1  4.282950 32.836101 24.270132
8630   1  4.282959 32.836101 27.125455
8646   1  4.282896 35.691441 15.704137
8647   1  4.282907 35.691438 18.559468
8648   1  4.282922 35.691435 21.414797
8649   1  4.282936 35.691430 24.270129
8650   1  4.282942 35.691427 27.125455
8666   1  4.282890 38.546773 15.704134
8667   1  4.282899 38.546770 18.559463
8668   1  4.282907 38.546767 21.414794
8669   1  4.282916 38.546761 24.270123
8670   1  4.282922 38.546755 27.125452
8686   1  4.282887 41.402101 15.704131
8687   1  4.282890 41.402101 18.559460
8688   1  4.282896 41.402096 21.414791
8689   1  4.282902 41.402090 24.270123
8690   1  4.282905 41.402087 27.125452
9006   1  7.138159 29.980786 15.704100
9007   1  7.138188 29.980786 18.559440
9008   1  7.138222 29.980783 21.414783
9009   1  7.138253 29.980783 24.270120
9010   1  7.138273 29.980781 27.125452
9026   1  7.138153 32.836126 15.704097
9027   1  7.138179 32.836126 18.559434
9028   1  7.138211 32.836121 21.414777
9029   1  7.138239 32.836118 24.270117
9030   1  7.138253 32.836112 27.125449
9046   1  7.138145 35.691467 15.704091
9047   1  7.138162 35.691467 18.559428
9048   1  7.138188 35.691464 21.414771
9049   1  7.138211 35.691455 24.270112
9050   1  7.138222 35.691452 27.125449
9066   1  7.138139 38.546807 15.704088
9067   1  7.138148 38.546810 18.559423
9068   1  7.138162 38.546804 21.414766
9069   1  7.138179 38.546798 24.270106
9070   1  7.138188 38.546793 27.125446
9086   1  7.138136 41.402141 15.704091
9087   1  7.138139 41.402144 18.559426
9088   1  7.138145 41.402141 21.414766
9089   1  7.138153 41.402136 24.270106
9090   1  7.138159 41.402133 27.125446
9406   1  9.993388 29.980795 15.704025
9407   1  9.993422 29.980795 18.559371
9408   1  9.993479 29.980795 21.414732
9409   1  9.993536 29.980792 24.270092
9410   1  9.993571 29.980789 27.125443
9426   1  9.993382 32.836152 15.704023
9427   1  9.993408 32.836158 18.559366
9428   1  9.993456 32.836155 21.414726
9429   1  9.993505 32.836146 24.270086
9430   1  9.993536 32.836141 27.125440
9446   1  9.993374 35.691512 15.704017
9447   1  9.993388 35.691521 18.559357
9448   1  9.993422 35.691518 21.414714
9449   1  9.993456 35.691507 24.270077
9450   1  9.993479 35.691501 27.125438
9466   1  9.993368 38.546864 15.704020
9467   1  9.993371 38.546875 18.559357
9468   1  9.993388 38.546875 21.414714
9469   1  9.993408 38.546867 24.270075
9470   1  9.993422 38.546861 27.125438
9486   1  9.993374 41.402201 15.704031
9487   1  9.993368 41.402213 18.559368
9488   1  9.993374 41.402216 21.414723
9489   1  9.993382 41.402210 24.270080
9490   1  9.993388 41.402207 27.125438
9806   1 12.848597 29.980809 15.703920
9807   1 12.848605 29.980815 18.559251
9808   1 12.848680 29.980815 21.414634
9809   1 12.848780 29.980812 24.270037
9810   1 12.848848 29.980806 27.125426
9826   1 12.848588 32.836192 15.703914
9827   1 12.848588 32.836212 18.559243
9828   1 12.848645 32.836218 21.414623
9829   1 12.848728 32.836209 24.270023
9830   1 12.848780 32.836195 27.125420
9846   1 12.848580 35.691578 15.703911
9847   1 12.848565 35.691609 18.559237
9848   1 12.848597 35.691621 21.414612
9849   1 12.848645 35.691609 24.270015
9850   1 12.848680 35.691598 27.125418
9866   1 12.848582 38.546947 15.703920
9867   1 12.848557 38.546984 18.559249
9868   1 12.848565 38.546998 21.414623
9869   1 12.848588 38.546990 24.270020
9870   1 12.848605 38.546981 27.125418
9886   1 12.848611 41.402278 15.703954
9887   1 12.848582 41.402313 18.559286
9888   1 12.848580 41.402321 21.414657
9889   1 12.848588 41.402318 24.270040
9890   1 12.848597 41.402313 27.125423
10206  1 15.703803 29.980826 15.703803
10207  1 15.703729 29.980846 18.559063
10208  1 15.703777 29.980858 21.414437
10209  1 15.703940 29.980855 24.269909
10210  1 15.704080 29.980846 27.125386
10226  1 15.703794 32.836246 15.703794
10227  1 15.703709 32.836306 18.559049
10228  1 15.703729 32.836346 21.414417
10229  1 15.703840 32.836349 24.269886
10230  1 15.703940 32.836323 27.125378
10246  1 15.703788 35.691664 15.703788
10247  1 15.703689 35.691758 18.559046
10248  1 15.703669 35.691818 21.414415
10249  1 15.703729 35.691815 24.269886
10250  1 15.703777 35.691795 27.125375
211    1  0.000000 28.553116 28.553116
212    1  0.000000 28.553116 31.408434
213    1  0.000000 28.553116 34.263754
214    1  0.000000 28.553116 37.119077
215    1  0.000000 28.553116 39.974403
231    1  0.000000 31.408434 28.553116
232    1  0.000000 31.408434 31.408434
233    1  0.000000 31.408436 34.263754
234    1  0.000000 31.408439 37.119077
235    1  0.000000 31.408439 39.974403
251    1  0.000000 34.263754 28.553116
252    1  0.000000 34.263754 31.408436
253    1  0.000000 34.263757 34.263757
254    1  0.000000 34.263759 37.119080
255    1  0.000000 34.263765 39.974406
271    1  0.000000 37.119077 28.553116
272    1  0.000000 37.119077 31.408439
273    1  0.000000 37.119080 34.263759
274    1  0.000000 37.119085 37.119085
275    1  0.000000 37.119091 39.974411
291    1  0.000000 39.974403 28.553116
292    1  0.000000 39.974403 31.408439
293    1  0.000000 39.974406 34.263765
294    1  0.000000 39.974411 37.119091
295    1  0.000000 39.974417 39.974417
611    1  2.855312 28.553116 28.553116
612    1  2.855309 28.553116 31.408436
613    1  2.855303 28.553116 34.263757
614    1  2.855292 28.553116 37.119082
615    1  2.855277 28.553116 39.974411
631    1  2.855309 31.408436 28.553116
632    1  2.855306 31.408436 31.408436
633    1  2.855300 31.408439 34.263759
634    1  2.855289 31.408439 37.119082
635    1  2.855277 31.408442 39.974411
651    1  2.855303 34.263757 28.553116
652    1  2.855300 34.263759 31.408439
653    1  2.855292 34.263762 34.263762
654    1  2.855283 34.263765 37.119088
655    1  2.855272 34.263768 39.974417
671    1  2.855292 37.119082 28.553116
672    1  2.855289 37.119082 31.408439
673    1  2.855283 37.119088 34.263765
674    1  2.855275 37.119094 37.119094
675    1  2.855269 37.119097 39.974423
691    1  2.855277 39.974411 28.553116
692    1  2.855277 39.974411 31.408442
693    1  2.855272 39.974417 34.263768
694    1  2.855269 39.974423 37.119097
695    1  2.855263 39.974425 39.974425
1011   1  5.710623 28.553116 28.553116
1012   1  5.710618 28.553116 31.408442
1013   1  5.710598 28.553116 34.263771
1014   1  5.710572 28.553116 37.119102
1015   1  5.710546 28.553116 39.974440
1031   1  5.710618 31.408442 28.553116
1032   1  5.710612 31.408442 31.408442
1033   1  5.710592 31.408445 34.263771
1034   1  5.710569 31.408448 37.119105
1035   1  5.710543 31.408451 39.974443
1051   1  5.710598 34.263771 28.553116
1052   1  5.710592 34.263771 31.408445
1053   1  5.710578 34.263777 34.263777
1054   1  5.710558 34.263782 37.119111
1055   1  5.710535 34.263785 39.974445
1071   1  5.710572 37.119102 28.553116
1072   1  5.710569 37.119105 31.408448
1073   1  5.710558 37.119111 34.263782
1074   1  5.710540 37.119117 37.119117
1075   1  5.710526 37.119120 39.974451
1091   1  5.710546 39.974440 28.553116
1092   1  5.710543 39.974443 31.408451
1093   1  5.710535 39.974445 34.263785
1094   1  5.710526 39.974451 37.119120
1095   1  5.710518 39.974454 39.974454
1411   1  8.565929 28.553116 28.553116
1412   1  8.565915 28.553116 31.408454
1413   1  8.565881 28.553116 34.263797
1414   1  8.565832 28.553116 37.119145
1415   1  8.565792 28.553116 39.974494
1431   1  8.565915 31.408454 28.553116
1432   1  8.565903 31.408456 31.408456
1433   1  8.565869 31.408459 34.263799
1434   1  8.565826 31.408462 37.119148
1435   1  8.565786 31.408465 39.974497
1451   1  8.565881 34.263797 28.553116
1452   1  8.565869 34.263799 31.408459
1453   1  8.565843 34.263808 34.263808
1454   1  8.565806 34.263814 37.119157
1455   1  8.565775 34.263814 39.974503
1471   1  8.565832 37.119145 28.553116
1472   1  8.565826 37.119148 31.408462
1473   1  8.565806 37.119157 34.263814
1474   1  8.565781 37.119162 37.119162
1475   1  8.565764 37.119162 39.974508
1491   1  8.565792 39.974494 28.553116
1492   1  8.565786 39.974497 31.408465
1493   1  8.565775 39.974503 34.263814
1494   1  8.565764 39.974508 37.119162
1495   1  8.565755 39.974505 39.974505
1811   1 11.421226 28.553116 28.553116
1812   1 11.421201 28.553116 31.408476
1813   1 11.421132 28.553116 34.263848
1814   1 11.421052 28.553116 37.119228
1815   1 11.421004 28.553116 39.974588
1831   1 11.421201 31.408476 28.553116
1832   1 11.421175 31.408482 31.408482
1833   1 11.421115 31.408488 34.263854
1834   1 11.421044 31.408493 37.119234
1835   1 11.420998 31.408491 39.974594
1851   1 11.421132 34.263848 28.553116
1852   1 11.421115 34.263854 31.408488
1853   1 11.421069 34.263868 34.263868
1854   1 11.421015 34.263871 37.119242
1855   1 11.420984 34.263865 39.974600
1871   1 11.421052 37.119228 28.553116
1872   1 11.421044 37.119234 31.408493
1873   1 11.421015 37.119242 34.263871
1874   1 11.420984 37.119248 37.119248
1875   1 11.420970 37.119237 39.974603
1891   1 11.421004 39.974588 28.553116
1892   1 11.420998 39.974594 31.408491
1893   1 11.420984 39.974600 34.263865
1894   1 11.420970 39.974603 37.119237
1895   1 11.420972 39.974588 39.974588
2211   1 14.276501 28.553116 28.553116
2212   1 14.276447 28.553116 31.408528
2213   1 14.276318 28.553116 34.263959
2214   1 14.276204 28.553116 37.119379
2215   1 14.276175 28.553116 39.974728
2231   1 14.276447 31.408528 28.553116
2232   1 14.276398 31.408536 31.408536
2233   1 14.276287 31.408551 34.263971
2234   1 14.276187 31.408548 37.119388
2235   1 14.276170 31.408531 39.974734
2251   1 14.276318 34.263959 28.553116
2252   1 14.276287 34.263971 31.408551
2253   1 14.276213 34.263991 34.263991
2254   1 14.276150 34.263982 37.119402
2255   1 14.276156 34.263945 39.974742
2271   1 14.276204 37.119379 28.553116
2272   1 14.276187 37.119388 31.408548
2273   1 14.276150 37.119402 34.263982
2274   1 14.276124 37.119394 37.119394
2275   1 14.276150 37.119345 39.974737
2291   1 14.276175 39.974728 28.553116
2292   1 14.276170 39.974734 31.408531
2293   1 14.276156 39.974742 34.263945
2294   1 14.276150 39.974737 37.119345
2295   1 14.276178 39.974697 39.974697
2611   1 17.131727 28.553116 28.553116
2612   1 17.131590 28.553116 31.408659
2613   1 17.131350 28.553116 34.264213
2614   1 17.131253 28.553116 37.119642
2615   1 17.131344 28.553116 39.974888
2631   1 17.131590 31.408659 28.553116
2632   1 17.131487 31.408685 31.408685
2633   1 17.131299 31.408685 34.264236
2634   1 17.131230 31.408648 37.119654
2635   1 17.131336 31.408585 39.974897
2651   1 17.131350 34.264213 28.553116
2652   1 17.131299 34.264236 31.408685
2653   1 17.131187 34.264256 34.264256
2654   1 17.131190 34.264179 37.119674
2655   1 17.131322 34.264056 39.974911
2671   1 17.131253 37.119642 28.553116
2672   1 17.131230 37.119654 31.408648
2673   1 17.131190 37.119674 34.264179
2674   1 17.131207 37.119622 37.119622
2675   1 17.131336 37.119491 39.974897
2691   1 17.131344 39.974888 28.553116
2692   1 17.131336 39.974897 31.408585
2693   1 17.131322 39.974911 34.264056
2694   1 17.131336 39.974897 37.119491
2695   1 17.131419 39.974814 39.974814
8211   1  1.427656 29.980775 29.980775
8212   1  1.427653 29.980775 32.836095
8213   1  1.427647 29.980778 35.691415
8214   1  1.427642 29.980778 38.546741
8215   1  1.427636 29.980778 41.402067
8231   1  1.427653 32.836095 29.980775
8232   1  1.427650 32.836095 32.836095
8233   1  1.427647 32.836098 35.691418
8234   1  1.427642 32.836101 38.546744
8235   1  1.427636 32.836104 41.402070
8251   1  1.427647 35.691415 29.980778
8252   1  1.427647 35.691418 32.836098
8253   1  1.427642 35.691421 35.691421
8254   1  1.427639 35.691427 38.546747
8255   1  1.427633 35.691430 41.402076
8271   1  1.427642 38.546741 29.980778
8272   1  1.427642 38.546744 32.836101
8273   1  1.427639 38.546747 35.691427
8274   1  1.427636 38.546753 38.546753
8275   1  1.427633 38.546758 41.402078
8291   1  1.427636 41.402067 29.980778
8292   1  1.427636 41.402070 32.836104
8293   1  1.427633 41.402076 35.691430
8294   1  1.427633 41.402078 38.546758
8295   1  1.427630 41.402084 41.402084
8611   1  4.282967 29.980778 29.980778
8612   1  4.282959 29.980778 32.836101
8613   1  4.282942 29.980778 35.691427
8614   1  4.282922 29.980781 38.546755
8615   1  4.282905 29.980781 41.402087
8631   1  4.282959 32.836101 29.980778
8632   1  4.282950 32.836101 32.836101
8633   1  4.282936 32.836106 35.691430
8634   1  4.282916 32.836109 38.546761
8635   1  4.282902 32.836112 41.402090
8651   1  4.282942 35.691427 29.980778
8652   1  4.282936 35.691430 32.836106
8653   1  4.282922 35.691435 35.691435
8654   1  4.282907 35.691438 38.546767
8655   1  4.282896 35.691441 41.402096
8671   1  4.282922 38.546755 29.980781
8672   1  4.282916 38.546761 32.836109
8673   1  4.282907 38.546767 35.691438
8674   1  4.282899 38.546770 38.546770
8675   1  4.282890 38.546773 41.402101
8691   1  4.282905 41.402087 29.980781
8692   1  4.282902 41.402090 32.836112
8693   1  4.282896 41.402096 35.691441
8694   1  4.282890 41.402101 38.546773
8695   1  4.282887 41.402101 41.402101
9011   1  7.138273 29.980781 29.980781
9012   1  7.138253 29.980783 32.836112
9013   1  7.138222 29.980783 35.691452
9014   1  7.138188 29.980786 38.546793
9015   1  7.138159 29.980786 41.402133
9031   1  7.138253 32.836112 29.980783
9032   1  7.138239 32.836118 32.836118
9033   1  7.138211 32.836121 35.691455
9034   1  7.138179 32.836126 38.546798
9035   1  7.138153 32.836126 41.402136
9051   1  7.138222 35.691452 29.980783
9052   1  7.138211 35.691455 32.836121
9053   1  7.138188 35.691464 35.691464
9054   1  7.138162 35.691467 38.546804
9055   1  7.138145 35.691467 41.402141
9071   1  7.138188 38.546793 29.980786
9072   1  7.138179 38.546798 32.836126
9073   1  7.138162 38.546804 35.691467
9074   1  7.138148 38.546810 38.546810
9075   1  7.138139 38.546807 41.402144
9091   1  7.138159 41.402133 29.980786
9092   1  7.138153 41.402136 32.836126
9093   1  7.138145 41.402141 35.691467
9094   1  7.138139 41.402144 38.546807
9095   1  7.138136 41.402141 41.402141
9411   1  9.993571 29.980789 29.980789
9412   1  9.993536 29.980792 32.836141
9413   1  9.993479 29.980795 35.691501
9414   1  9.993422 29.980795 38.546861
9415   1  9.993388 29.980795 41.402207
9431   1  9.993536 32.836141 29.980792
9432   1  9.993505 32.836146 32.836146
9433   1  9.993456 32.836155 35.691507
9434   1  9.993408 32.836158 38.546867
9435   1  9.993382 32.836152 41.402210
9451   1  9.993479 35.691501 29.980795
9452   1  9.993456 35.691507 32.836155
9453   1  9.993422 35.691518 35.691518
9454   1  9.993388 35.691521 38.546875
9455   1  9.993374 35.691512 41.402216
9471   1  9.993422 38.546861 29.980795
9472   1  9.993408 38.546867 32.836158
9473   1  9.993388 38.546875 35.691521
9474   1  9.993371 38.546875 38.546875
9475   1  9.993368 38.546864 41.402213
9491   1  9.993388 41.402207 29.980795
9492   1  9.993382 41.402210 32.836152
9493   1  9.993374 41.402216 35.691512
9494   1  9.993368 41.402213 38.546864
9495   1  9.993374 41.402201 41.402201
9811   1 12.848848 29.980806 29.980806
9812   1 12.848780 29.980812 32.836195
9813   1 12.848680 29.980815 35.691598
9814   1 12.848605 29.980815 38.546981
9815   1 12.848597 29.980809 41.402313
9831   1 12.848780 32.836195 29.980812
9832   1 12.848728 32.836209 32.836209
9833   1 12.848645 32.836218 35.691609
9834   1 12.848588 32.836212 38.546990
9835   1 12.848588 32.836192 41.402318
9851   1 12.848680 35.691598 29.980815
9852   1 12.848645 35.691609 32.836218
9853   1 12.848597 35.691621 35.691621
9854   1 12.848565 35.691609 38.546998
9855   1 12.848580 35.691578 41.402321
9871   1 12.848605 38.546981 29.980815
9872   1 12.848588 38.546990 32.836212
9873   1 12.848565 38.546998 35.691609
9874   1 12.848557 38.546984 38.546984
9875   1 12.848582 38.546947 41.402313
9891   1 12.848597 41.402313 29.980809
9892   1 12.848588 41.402318 32.836192
9893   1 12.848580 41.402321 35.691578
9894   1 12.848582 41.402313 38.546947
9895   1 12.848611 41.402278 41.402278
10211  1 15.704080 29.980846 29.980846
10212  1 15.703940 29.980855 32.836323
10213  1 15.703777 29.980858 35.691795
10214  1 15.703729 29.980846 38.547169
10215  1 15.703803 29.980826 41.402430
10231  1 15.703940 32.836323 29.980855
10232  1 15.703840 32.836349 32.836349
10233  1 15.703729 32.836346 35.691815
10234  1 15.703709 32.836306 38.547184
10235  1 15.703794 32.836246 41.402438
10251  1 15.703777 35.691795 29.980858
10252  1 15.703729 35.691815 32.836346
10253  1 15.703669 35.691818 35.691818
10254  1 15.703689 35.691758 38.547187
10255  1 15.703788 35.691664 41.402444
10271  1 15.703729 38.547169 29.980846
10272  1 15.703709 38.547184 32.836306
10273  1 15.703689 38.547187 35.691758
10274  1 15.703717 38.547141 38.547141
10275  1 15.703808 38.547047 41.402424
10291  1 15.703803 41.402430 29.980826
10292  1 15.703794 41.402438 32.836246
10293  1 15.703788 41.402444 35.691664
10294  1 15.703808 41.402424 38.547047
10295  1 15.703871 41.402364 41.402364
10611  1 18.559160 29.980969 29.980969
10612  1 18.558866 29.980969 32.836658
10613  1 18.558706 29.980943 35.692172
10614  1 18.558840 29.980889 38.547392
10615  1 18.559063 29.980846 41.402504
10631  1 18.558866 32.836658 29.980969
10632  1 18.558675 32.836712 32.836712
10633  1 18.558635 32.836606 35.692212
10634  1 18.558815 32.836443 38.547421
10635  1 18.559049 32.836306 41.402524
10651  1 18.558706 35.692172 29.980943
10652  1 18.558635 35.692212 32.836606
10653  1 18.558620 35.692166 35.692166
10654  1 18.558812 35.691966 38.547424
10655  1 18.559046 35.691758 41.402544
10671  1 18.558840 38.547392 29.980889
10672  1 18.558815 38.547421 32.836443
10673  1 18.558812 38.547424 35.691966
10674  1 18.558926 38.547306 38.547306
10675  1 18.559092 38.547141 41.402515
10691  1 18.559063 41.402504 29.980846
10692  1 18.559049 41.402524 32.836306
10693  1 18.559046 41.402544 35.691758
10694  1 18.559092 41.402515 38.547141
10695  1 18.559186 41.402424 41.402424
216    1  0.000000 28.553116 42.829729
217    1  0.000000 28.553116 45.685052
218    1  0.000000 28.553116 48.540363
219    1  0.000000 28.553116 51.395663
220    1  0.000000 28.553116 54.250952
236    1  0.000000 31.408442 42.829729
237    1  0.000000 31.408442 45.685052
238    1  0.000000 31.408442 48.540363
239    1  0.000000 31.408442 51.395663
240    1  0.000000 31.408442 54.250952
256    1  0.000000 34.263768 42.829731
257    1  0.000000 34.263768 45.685054
258    1  0.000000 34.263768 48.540366
259    1  0.000000 34.263768 51.395663
260    1  0.000000 34.263768 54.250952
276    1  0.000000 37.119094 42.829737
277    1  0.000000 37.119094 45.685057
278    1  0.000000 37.119094 48.540366
279    1  0.000000 37.119094 51.395663
280    1  0.000000 37.119091 54.250952
296    1  0.000000 39.974420 42.829740
297    1  0.000000 39.974420 45.685060
298    1  0.000000 39.974420 48.540366
299    1  0.000000 39.974417 51.395663
300    1  0.000000 39.974414 54.250952
616    1  2.855269 28.553116 42.829740
617    1  2.855263 28.553116 45.685060
618    1  2.855266 28.553116 48.540372
619    1  2.855272 28.553116 51.395669
620    1  2.855277 28.553116 54.250955
636    1  2.855266 31.408445 42.829740
637    1  2.855263 31.408445 45.685063
638    1  2.855266 31.408445 48.540372
639    1  2.855272 31.408442 51.395669
640    1  2.855277 31.408442 54.250955
656    1  2.855266 34.263771 42.829743
657    1  2.855263 34.263771 45.685063
658    1  2.855266 34.263771 48.540375
659    1  2.855272 34.263768 51.395669
660    1  2.855277 34.263768 54.250955
676    1  2.855263 37.119100 42.829749
677    1  2.855260 37.119100 45.685066
678    1  2.855266 37.119097 48.540375
679    1  2.855272 37.119094 51.395669
680    1  2.855277 37.119091 54.250955
696    1  2.855260 39.974428 42.829751
697    1  2.855260 39.974425 45.685069
698    1  2.855266 39.974423 48.540375
699    1  2.855272 39.974417 51.395669
700    1  2.855280 39.974414 54.250955
1016   1  5.710526 28.553116 42.829771
1017   1  5.710523 28.553116 45.685092
1018   1  5.710532 28.553116 48.540395
1019   1  5.710549 28.553116 51.395683
1020   1  5.710563 28.553116 54.250961
1036   1  5.710526 31.408451 42.829774
1037   1  5.710523 31.408448 45.685092
1038   1  5.710532 31.408448 48.540395
1039   1  5.710549 31.408445 51.395683
1040   1  5.710563 31.408442 54.250961
1056   1  5.710520 34.263785 42.829777
1057   1  5.710520 34.263782 45.685094
1058   1  5.710532 34.263777 48.540397
1059   1  5.710549 34.263774 51.395683
1060   1  5.710563 34.263768 54.250961
1076   1  5.710518 37.119120 42.829780
1077   1  5.710520 37.119114 45.685097
1078   1  5.710532 37.119108 48.540397
1079   1  5.710549 37.119100 51.395683
1080   1  5.710563 37.119094 54.250961
1096   1  5.710515 39.974451 42.829780
1097   1  5.710520 39.974445 45.685097
1098   1  5.710535 39.974437 48.540395
1099   1  5.710549 39.974425 51.395683
1100   1  5.710563 39.974417 54.250961
1416   1  8.565772 28.553116 42.829828
1417   1  8.565778 28.553116 45.685140
1418   1  8.565806 28.553116 48.540426
1419   1  8.565838 28.553116 51.395701
1420   1  8.565861 28.553116 54.250966
1436   1  8.565769 31.408462 42.829831
1437   1  8.565778 31.408456 45.685140
1438   1  8.565806 31.408451 48.540426
1439   1  8.565838 31.408448 51.395701
1440   1  8.565861 31.408445 54.250966
1456   1  8.565764 34.263808 42.829834
1457   1  8.565778 34.263799 45.685143
1458   1  8.565806 34.263788 48.540429
1459   1  8.565835 34.263777 51.395701
1460   1  8.565861 34.263771 54.250966
1476   1  8.565761 37.119154 42.829837
1477   1  8.565775 37.119140 45.685143
1478   1  8.565806 37.119122 48.540429
1479   1  8.565835 37.119108 51.395701
1480   1  8.565858 37.119097 54.250966
1496   1  8.565758 39.974494 42.829834
1497   1  8.565778 39.974477 45.685140
1498   1  8.565806 39.974454 48.540426
1499   1  8.565838 39.974437 51.395701
1500   1  8.565858 39.974423 54.250966
1816   1 11.421001 28.553116 42.829911
1817   1 11.421041 28.553116 45.685194
1818   1 11.421092 28.553116 48.540455
1819   1 11.421141 28.553116 51.395709
1820   1 11.421172 28.553116 54.250969
1836   1 11.420998 31.408482 42.829914
1837   1 11.421038 31.408468 45.685194
1838   1 11.421092 31.408456 48.540455
1839   1 11.421141 31.408448 51.395709
1840   1 11.421172 31.408445 54.250969
1856   1 11.420992 34.263845 42.829917
1857   1 11.421038 34.263822 45.685197
1858   1 11.421092 34.263799 48.540457
1859   1 11.421138 34.263782 51.395712
1860   1 11.421169 34.263771 54.250969
1876   1 11.420990 37.119208 42.829917
1877   1 11.421035 37.119174 45.685197
1878   1 11.421089 37.119140 48.540457
1879   1 11.421138 37.119114 51.395712
1880   1 11.421167 37.119100 54.250972
1896   1 11.420998 39.974557 42.829906
1897   1 11.421044 39.974517 45.685189
1898   1 11.421095 39.974477 48.540455
1899   1 11.421138 39.974445 51.395712
1900   1 11.421164 39.974425 54.250972
2216   1 14.276233 28.553116 42.830000
2217   1 14.276321 28.553116 45.685231
2218   1 14.276404 28.553116 48.540460
2219   1 14.276461 28.553116 51.395706
2220   1 14.276495 28.553116 54.250966
2236   1 14.276230 31.408505 42.830003
2237   1 14.276321 31.408482 45.685234
2238   1 14.276401 31.408462 48.540463
2239   1 14.276461 31.408451 51.395706
2240   1 14.276492 31.408445 54.250966
2256   1 14.276224 34.263894 42.830008
2257   1 14.276315 34.263845 45.685240
2258   1 14.276398 34.263808 48.540469
2259   1 14.276455 34.263785 51.395712
2260   1 14.276490 34.263771 54.250969
2276   1 14.276227 37.119277 42.830008
2277   1 14.276315 37.119208 45.685243
2278   1 14.276395 37.119154 48.540475
2279   1 14.276452 37.119120 51.395715
2280   1 14.276487 37.119100 54.250969
2296   1 14.276247 39.974631 42.829986
2297   1 14.276327 39.974557 45.685234
2298   1 14.276398 39.974494 48.540475
2299   1 14.276452 39.974451 51.395718
2300   1 14.276481 39.974428 54.250972
2616   1 17.131504 28.553116 42.830057
2617   1 17.131644 28.553116 45.685231
2618   1 17.131738 28.553116 48.540443
2619   1 17.131793 28.553116 51.395689
2620   1 17.131821 28.553116 54.250955
2636   1 17.131499 31.408531 42.830063
2637   1 17.131641 31.408491 45.685234
2638   1 17.131736 31.408465 48.540446
2639   1 17.131793 31.408451 51.395689
2640   1 17.131821 31.408442 54.250958
2656   1 17.131490 34.263945 42.830077
2657   1 17.131633 34.263865 45.685249
2658   1 17.131730 34.263814 48.540457
2659   1 17.131787 34.263785 51.395698
2660   1 17.131815 34.263768 54.250961
2676   1 17.131496 37.119345 42.830083
2677   1 17.131633 37.119237 45.685263
2678   1 17.131724 37.119162 48.540472
2679   1 17.131781 37.119120 51.395706
2680   1 17.131813 37.119097 54.250966
2696   1 17.131536 39.974697 42.830054
2697   1 17.131644 39.974588 45.685260
2698   1 17.131727 39.974505 48.540477
2699   1 17.131778 39.974454 51.395718
2700   1 17.131807 39.974425 54.250969
8216   1  1.427633 29.980781 44.257393
8217   1  1.427633 29.980781 47.112710
8218   1  1.427633 29.980781 49.968016
8219   1  1.427639 29.980781 52.823311
8220   1  1.427639 29.980778 55.678594
8236   1  1.427633 32.836106 44.257396
8237   1  1.427633 32.836106 47.112713
8238   1  1.427633 32.836106 49.968019
8239   1  1.427639 32.836104 52.823311
8240   1  1.427639 32.836104 55.678594
8256   1  1.427630 35.691432 44.257399
8257   1  1.427633 35.691432 47.112713
8258   1  1.427633 35.691432 49.968019
8259   1  1.427639 35.691430 52.823311
8260   1  1.427639 35.691430 55.678594
8276   1  1.427630 38.546758 44.257401
8277   1  1.427630 38.546758 47.112716
8278   1  1.427633 38.546755 49.968019
8279   1  1.427639 38.546753 52.823311
8280   1  1.427639 38.546753 55.678594
8296   1  1.427630 41.402084 44.257404
8297   1  1.427633 41.402081 47.112716
8298   1  1.427636 41.402078 49.968019
8299   1  1.427639 41.402076 52.823311
8300   1  1.427642 41.402073 55.678594
8616   1  4.282896 29.980781 44.257416
8617   1  4.282896 29.980781 47.112730
8618   1  4.282905 29.980781 49.968030
8619   1  4.282916 29.980781 52.823316
8620   1  4.282922 29.980781 55.678597
8636   1  4.282893 32.836112 44.257416
8637   1  4.282896 32.836109 47.112730
8638   1  4.282905 32.836109 49.968030
8639   1  4.282916 32.836106 52.823316
8640   1  4.282922 32.836104 55.678597
8656   1  4.282890 35.691441 44.257419
8657   1  4.282893 35.691441 47.112733
8658   1  4.282905 35.691435 49.968030
8659   1  4.282916 35.691432 52.823316
8660   1  4.282922 35.691430 55.678597
8676   1  4.282890 38.546773 44.257421
8677   1  4.282893 38.546770 47.112733
8678   1  4.282905 38.546761 49.968030
8679   1  4.282916 38.546758 52.823316
8680   1  4.282922 38.546753 55.678597
8696   1  4.282887 41.402098 44.257421
8697   1  4.282896 41.402093 47.112733
8698   1  4.282905 41.402087 49.968030
8699   1  4.282916 41.402078 52.823316
8700   1  4.282922 41.402076 55.678594
9016   1  7.138148 29.980786 44.257459
9017   1  7.138159 29.980783 47.112765
9018   1  7.138179 29.980781 49.968053
9019   1  7.138202 29.980781 52.823328
9020   1  7.138216 29.980781 55.678599
9036   1  7.138148 32.836124 44.257461
9037   1  7.138156 32.836118 47.112765
9038   1  7.138179 32.836112 49.968053
9039   1  7.138202 32.836109 52.823328
9040   1  7.138216 32.836106 55.678599
9056   1  7.138142 35.691464 44.257464
9057   1  7.138156 35.691452 47.112767
9058   1  7.138179 35.691444 49.968053
9059   1  7.138202 35.691435 52.823328
9060   1  7.138213 35.691432 55.678599
9076   1  7.138142 38.546798 44.257464
9077   1  7.138156 38.546787 47.112767
9078   1  7.138179 38.546773 49.968053
9079   1  7.138202 38.546761 52.823328
9080   1  7.138213 38.546755 55.678599
9096   1  7.138145 41.402130 44.257459
9097   1  7.138162 41.402116 47.112762
9098   1  7.138182 41.402098 49.968050
9099   1  7.138202 41.402087 52.823328
9100   1  7.138213 41.402078 55.678597
9416   1  9.993394 29.980792 44.257521
9417   1  9.993425 29.980786 47.112807
9418   1  9.993468 29.980783 49.968076
9419   1  9.993502 29.980781 52.823336
9420   1  9.993522 29.980781 55.678599
9436   1  9.993391 32.836144 44.257524
9437   1  9.993425 32.836129 47.112807
9438   1  9.993468 32.836118 49.968076
9439   1  9.993502 32.836109 52.823339
9440   1  9.993519 32.836106 55.678602
9456   1  9.993388 35.691492 44.257524
9457   1  9.993425 35.691472 47.112807
9458   1  9.993465 35.691452 49.968076
9459   1  9.993499 35.691441 52.823339
9460   1  9.993519 35.691432 55.678602
9476   1  9.993388 38.546841 44.257524
9477   1  9.993425 38.546813 47.112807
9478   1  9.993468 38.546787 49.968076
9479   1  9.993499 38.546770 52.823339
9480   1  9.993516 38.546758 55.678602
9496   1  9.993397 41.402176 44.257513
9497   1  9.993434 41.402144 47.112799
9498   1  9.993471 41.402116 49.968073
9499   1  9.993499 41.402093 52.823336
9500   1  9.993516 41.402081 55.678602
9816   1 12.848642 29.980801 44.257590
9817   1 12.848711 29.980792 47.112839
9818   1 12.848774 29.980786 49.968085
9819   1 12.848817 29.980781 52.823339
9820   1 12.848839 29.980781 55.678599
9836   1 12.848640 32.836166 44.257593
9837   1 12.848711 32.836144 47.112842
9838   1 12.848774 32.836124 49.968088
9839   1 12.848817 32.836112 52.823339
9840   1 12.848837 32.836106 55.678599
9856   1 12.848637 35.691535 44.257596
9857   1 12.848708 35.691492 47.112844
9858   1 12.848771 35.691464 49.968090
9859   1 12.848814 35.691441 52.823342
9860   1 12.848834 35.691432 55.678602
9876   1 12.848642 38.546892 44.257590
9877   1 12.848711 38.546841 47.112844
9878   1 12.848768 38.546798 49.968090
9879   1 12.848811 38.546773 52.823345
9880   1 12.848831 38.546758 55.678602
9896   1 12.848662 41.402230 44.257573
9897   1 12.848720 41.402176 47.112836
9898   1 12.848774 41.402130 49.968090
9899   1 12.848811 41.402098 52.823345
9900   1 12.848828 41.402084 55.678602
10216  1 15.703920 29.980809 44.257638
10217  1 15.704025 29.980795 47.112844
10218  1 15.704100 29.980786 49.968073
10219  1 15.704145 29.980781 52.823328
10220  1 15.704165 29.980778 55.678597
10236  1 15.703914 32.836192 44.257644
10237  1 15.704023 32.836152 47.112850
10238  1 15.704097 32.836126 49.968079
10239  1 15.704143 32.836112 52.823331
10240  1 15.704163 32.836104 55.678597
10256  1 15.703911 35.691578 44.257653
10257  1 15.704017 35.691512 47.112859
10258  1 15.704091 35.691467 49.968088
10259  1 15.704137 35.691441 52.823336
10260  1 15.704157 35.691430 55.678599
10276  1 15.703920 38.546947 44.257650
10277  1 15.704020 38.546864 47.112864
10278  1 15.704088 38.546807 49.968093
10279  1 15.704134 38.546773 52.823342
10280  1 15.704154 38.546758 55.678602
10296  1 15.703954 41.402278 44.257621
10297  1 15.704031 41.402201 47.112859
10298  1 15.704091 41.402141 49.968096
10299  1 15.704131 41.402101 52.823345
10300  1 15.704151 41.402084 55.678602
10616  1 18.559251 29.980815 44.257627
10617  1 18.559371 29.980795 47.112813
10618  1 18.559440 29.980786 49.968048
10619  1 18.559477 29.980781 52.823311
10620  1 18.559491 29.980778 55.678591
10636  1 18.559243 32.836212 44.257644
10637  1 18.559366 32.836158 47.112824
10638  1 18.559434 32.836126 49.968056
10639  1 18.559474 32.836109 52.823316
10640  1 18.559488 32.836101 55.678591
10656  1 18.559237 35.691609 44.257667
10657  1 18.559357 35.691521 47.112844
10658  1 18.559428 35.691467 49.968070
10659  1 18.559468 35.691438 52.823325
10660  1 18.559486 35.691427 55.678594
10676  1 18.559249 38.546984 44.257678
10677  1 18.559357 38.546875 47.112864
10678  1 18.559423 38.546810 49.968085
10679  1 18.559463 38.546770 52.823333
10680  1 18.559480 38.546753 55.678599
10696  1 18.559286 41.402313 44.257650
10697  1 18.559368 41.402213 47.112864
10698  1 18.559426 41.402144 49.968093
10699  1 18.559460 41.402101 52.823342
10700  1 18.559474 41.402078 55.678602
301    1  0.000000 42.829731  0.000000
302    1  0.000000 42.829731  2.855283
303    1  0.000000 42.829734  5.710569
304    1  0.000000 42.829740  8.565866
305    1  0.000000 42.829743 11.421172
321    1  0.000000 45.685043  0.000000
322    1  0.000000 45.685046  2.855283
323    1  0.000000 45.685049  5.710572
324    1  0.000000 45.685054  8.565869
325    1  0.000000 45.685057 11.421175
341    1  0.000000 48.540352  0.000000
342    1  0.000000 48.540352  2.855286
343    1  0.000000 48.540358  5.710575
344    1  0.000000 48.540360  8.565872
345    1  0.000000 48.540363 11.421178
361    1  0.000000 51.395649  0.000000
362    1  0.000000 51.395652  2.855286
363    1  0.000000 51.395655  5.710578
364    1  0.000000 51.395658  8.565878
365    1  0.000000 51.395661 11.421184
381    1  0.000000 54.250944  0.000000
382    1  0.000000 54.250944  2.855289
383    1  0.000000 54.250946  5.710580
384    1  0.000000 54.250946  8.565881
385    1  0.000000 54.250949 11.421187
701    1  2.855283 42.829731  0.000000
702    1  2.855280 42.829734  2.855280
703    1  2.855275 42.829737  5.710566
704    1  2.855269 42.829743  8.565861
705    1  2.855263 42.829749 11.421164
721    1  2.855283 45.685046  0.000000
722    1  2.855280 45.685049  2.855280
723    1  2.855277 45.685052  5.710569
724    1  2.855272 45.685060  8.565863
725    1  2.855266 45.685066 11.421169
741    1  2.855286 48.540352  0.000000
742    1  2.855283 48.540355  2.855283
743    1  2.855280 48.540358  5.710572
744    1  2.855275 48.540366  8.565869
745    1  2.855272 48.540369 11.421175
761    1  2.855286 51.395652  0.000000
762    1  2.855286 51.395652  2.855286
763    1  2.855283 51.395658  5.710578
764    1  2.855280 51.395661  8.565875
765    1  2.855277 51.395666 11.421181
781    1  2.855289 54.250944  0.000000
782    1  2.855289 54.250944  2.855289
783    1  2.855286 54.250946  5.710580
784    1  2.855283 54.250949  8.565878
785    1  2.855280 54.250952 11.421187
1101   1  5.710569 42.829734  0.000000
1102   1  5.710566 42.829737  2.855275
1103   1  5.710552 42.829746  5.710552
1104   1  5.710538 42.829757  8.565841
1105   1  5.710523 42.829769 11.421141
1121   1  5.710572 45.685049  0.000000
1122   1  5.710569 45.685052  2.855277
1123   1  5.710558 45.685060  5.710558
1124   1  5.710543 45.685072  8.565846
1125   1  5.710532 45.685083 11.421149
1141   1  5.710575 48.540358  0.000000
1142   1  5.710572 48.540358  2.855280
1143   1  5.710563 48.540366  5.710563
1144   1  5.710555 48.540375  8.565858
1145   1  5.710543 48.540386 11.421161
1161   1  5.710578 51.395655  0.000000
1162   1  5.710578 51.395658  2.855283
1163   1  5.710572 51.395661  5.710572
1164   1  5.710563 51.395669  8.565866
1165   1  5.710558 51.395675 11.421172
1181   1  5.710580 54.250946  0.000000
1182   1  5.710580 54.250946  2.855286
1183   1  5.710578 54.250949  5.710578
1184   1  5.710572 54.250952  8.565875
1185   1  5.710569 54.250955 11.421181
1501   1  8.565866 42.829740  0.000000
1502   1  8.565861 42.829743  2.855269
1503   1  8.565841 42.829757  5.710538
1504   1  8.565815 42.829780  8.565815
1505   1  8.565786 42.829803 11.421104
1521   1  8.565869 45.685054  0.000000
1522   1  8.565863 45.685060  2.855272
1523   1  8.565846 45.685072  5.710543
1524   1  8.565826 45.685092  8.565826
1525   1  8.565804 45.685112 11.421121
1541   1  8.565872 48.540360  0.000000
1542   1  8.565869 48.540366  2.855275
1543   1  8.565858 48.540375  5.710555
1544   1  8.565841 48.540392  8.565841
1545   1  8.565826 48.540406 11.421141
1561   1  8.565878 51.395658  0.000000
1562   1  8.565875 51.395661  2.855280
1563   1  8.565866 51.395669  5.710563
1564   1  8.565858 51.395678  8.565858
1565   1  8.565846 51.395689 11.421161
1581   1  8.565881 54.250946  0.000000
1582   1  8.565878 54.250949  2.855283
1583   1  8.565875 54.250952  5.710572
1584   1  8.565869 54.250958  8.565869
1585   1  8.565863 54.250964 11.421175
1901   1 11.421172 42.829743  0.000000
1902   1 11.421164 42.829749  2.855263
1903   1 11.421141 42.829769  5.710523
1904   1 11.421104 42.829803  8.565786
1905   1 11.421061 42.829843 11.421061
1921   1 11.421175 45.685057  0.000000
1922   1 11.421169 45.685066  2.855266
1923   1 11.421149 45.685083  5.710532
1924   1 11.421121 45.685112  8.565804
1925   1 11.421089 45.685146 11.421089
1941   1 11.421178 48.540363  0.000000
1942   1 11.421175 48.540369  2.855272
1943   1 11.421161 48.540386  5.710543
1944   1 11.421141 48.540406  8.565826
1945   1 11.421121 48.540429 11.421121
1961   1 11.421184 51.395661  0.000000
1962   1 11.421181 51.395666  2.855277
1963   1 11.421172 51.395675  5.710558
1964   1 11.421161 51.395689  8.565846
1965   1 11.421149 51.395701 11.421149
1981   1 11.421187 54.250949  0.000000
1982   1 11.421187 54.250952  2.855280
1983   1 11.421181 54.250955  5.710569
1984   1 11.421175 54.250964  8.565863
1985   1 11.421169 54.250966 11.421169
2301   1 14.276490 42.829743  0.000000
2302   1 14.276481 42.829751  2.855260
2303   1 14.276455 42.829777  5.710515
2304   1 14.276412 42.829823  8.565766
2305   1 14.276353 42.829880 11.421021
2321   1 14.276490 45.685060  0.000000
2322   1 14.276484 45.685069  2.855263
2323   1 14.276464 45.685092  5.710523
2324   1 14.276430 45.685129  8.565786
2325   1 14.276392 45.685172 11.421061
2341   1 14.276492 48.540366  0.000000
2342   1 14.276490 48.540375  2.855269
2343   1 14.276475 48.540392  5.710538
2344   1 14.276452 48.540417  8.565815
2345   1 14.276430 48.540446 11.421104
2361   1 14.276498 51.395663  0.000000
2362   1 14.276495 51.395669  2.855275
2363   1 14.276487 51.395681  5.710552
2364   1 14.276475 51.395695  8.565841
2365   1 14.276464 51.395709 11.421141
2381   1 14.276501 54.250952  0.000000
2382   1 14.276498 54.250952  2.855280
2383   1 14.276495 54.250958  5.710566
2384   1 14.276490 54.250966  8.565861
2385   1 14.276484 54.250972 11.421164
2701   1 17.131813 42.829740  0.000000
2702   1 17.131804 42.829751  2.855260
2703   1 17.131781 42.829780  5.710515
2704   1 17.131738 42.829834  8.565758
2705   1 17.131676 42.829906 11.420998
2721   1 17.131813 45.685060  0.000000
2722   1 17.131807 45.685069  2.855260
2723   1 17.131787 45.685097  5.710520
2724   1 17.131756 45.685140  8.565778
2725   1 17.131718 45.685189 11.421044
2741   1 17.131815 48.540366  0.000000
2742   1 17.131810 48.540375  2.855266
2743   1 17.131798 48.540395  5.710535
2744   1 17.131778 48.540426  8.565806
2745   1 17.131756 48.540455 11.421095
2761   1 17.131818 51.395663  0.000000
2762   1 17.131815 51.395669  2.855272
2763   1 17.131807 51.395683  5.710549
2764   1 17.131798 51.395701  8.565838
2765   1 17.131787 51.395712 11.421138
2781   1 17.131818 54.250952  0.000000
2782   1 17.131818 54.250955  2.855280
2783   1 17.131815 54.250961  5.710563
2784   1 17.131810 54.250966  8.565858
2785   1 17.131807 54.250972 11.421164
8301   1  1.427642 44.257390  1.427642
8302   1  1.427639 44.257393  4.282925
8303   1  1.427636 44.257396  7.138216
8304   1  1.427633 44.257401  9.993516
8305   1  1.427630 44.257404 12.848828
8321   1  1.427642 47.112699  1.427642
8322   1  1.427642 47.112702  4.282927
8323   1  1.427639 47.112707  7.138219
8324   1  1.427636 47.112713  9.993522
8325   1  1.427633 47.112716 12.848831
8341   1  1.427642 49.968002  1.427642
8342   1  1.427642 49.968005  4.282930
8343   1  1.427639 49.968010  7.138225
8344   1  1.427639 49.968013  9.993525
8345   1  1.427636 49.968016 12.848837
8361   1  1.427644 52.823299  1.427644
8362   1  1.427642 52.823299  4.282933
8363   1  1.427642 52.823302  7.138228
8364   1  1.427642 52.823305  9.993531
8365   1  1.427639 52.823308 12.848842
8381   1  1.427644 55.678588  1.427644
8382   1  1.427644 55.678588  4.282936
8383   1  1.427642 55.678591  7.138231
8384   1  1.427642 55.678591  9.993534
8385   1  1.427642 55.678591 12.848845
8701   1  4.282925 44.257393  1.427639
8702   1  4.282919 44.257396  4.282919
8703   1  4.282910 44.257404  7.138205
8704   1  4.282899 44.257413  9.993505
8705   1  4.282893 44.257419 12.848814
8721   1  4.282927 47.112702  1.427642
8722   1  4.282922 47.112707  4.282922
8723   1  4.282913 47.112713  7.138211
8724   1  4.282907 47.112722  9.993511
8725   1  4.282899 47.112730 12.848819
8741   1  4.282930 49.968005  1.427642
8742   1  4.282927 49.968008  4.282927
8743   1  4.282922 49.968016  7.138219
8744   1  4.282913 49.968022  9.993519
8745   1  4.282910 49.968028 12.848828
8761   1  4.282933 52.823299  1.427642
8762   1  4.282930 52.823302  4.282930
8763   1  4.282927 52.823305  7.138225
8764   1  4.282922 52.823311  9.993525
8765   1  4.282919 52.823314 12.848837
8781   1  4.282936 55.678588  1.427644
8782   1  4.282933 55.678591  4.282933
8783   1  4.282930 55.678591  7.138228
8784   1  4.282927 55.678594  9.993531
8785   1  4.282925 55.678594 12.848842
9101   1  7.138216 44.257396  1.427636
9102   1  7.138205 44.257404  4.282910
9103   1  7.138188 44.257419  7.138188
9104   1  7.138171 44.257436  9.993479
9105   1  7.138153 44.257450 12.848782
9121   1  7.138219 47.112707  1.427639
9122   1  7.138211 47.112713  4.282913
9123   1  7.138199 47.112727  7.138199
9124   1  7.138182 47.112742  9.993491
9125   1  7.138171 47.112753 12.848799
9141   1  7.138225 49.968010  1.427639
9142   1  7.138219 49.968016  4.282922
9143   1  7.138208 49.968025  7.138208
9144   1  7.138199 49.968036  9.993505
9145   1  7.138188 49.968045 12.848814
9161   1  7.138228 52.823302  1.427642
9162   1  7.138225 52.823305  4.282927
9163   1  7.138219 52.823311  7.138219
9164   1  7.138211 52.823319  9.993519
9165   1  7.138205 52.823325 12.848828
9181   1  7.138231 55.678591  1.427642
9182   1  7.138228 55.678591  4.282930
9183   1  7.138225 55.678594  7.138225
9184   1  7.138219 55.678597  9.993525
9185   1  7.138216 55.678597 12.848837
9501   1  9.993516 44.257401  1.427633
9502   1  9.993505 44.257413  4.282899
9503   1  9.993479 44.257436  7.138171
9504   1  9.993448 44.257464  9.993448
9505   1  9.993419 44.257490 12.848742
9521   1  9.993522 47.112713  1.427636
9522   1  9.993511 47.112722  4.282907
9523   1  9.993491 47.112742  7.138182
9524   1  9.993468 47.112765  9.993468
9525   1  9.993448 47.112784 12.848771
9541   1  9.993525 49.968013  1.427639
9542   1  9.993519 49.968022  4.282913
9543   1  9.993505 49.968036  7.138199
9544   1  9.993491 49.968050  9.993491
9545   1  9.993479 49.968065 12.848799
9561   1  9.993531 52.823305  1.427642
9562   1  9.993525 52.823311  4.282922
9563   1  9.993519 52.823319  7.138211
9564   1  9.993511 52.823328  9.993511
9565   1  9.993505 52.823333 12.848819
9581   1  9.993534 55.678591  1.427642
9582   1  9.993531 55.678594  4.282927
9583   1  9.993525 55.678597  7.138219
9584   1  9.993522 55.678597  9.993522
9585   1  9.993516 55.678599 12.848831
9901   1 12.848828 44.257404  1.427630
9902   1 12.848814 44.257419  4.282893
9903   1 12.848782 44.257450  7.138153
9904   1 12.848742 44.257490  9.993419
9905   1 12.848697 44.257536 12.848697
9921   1 12.848831 47.112716  1.427633
9922   1 12.848819 47.112730  4.282899
9923   1 12.848799 47.112753  7.138171
9924   1 12.848771 47.112784  9.993448
9925   1 12.848742 47.112816 12.848742
9941   1 12.848837 49.968016  1.427636
9942   1 12.848828 49.968028  4.282910
9943   1 12.848814 49.968045  7.138188
9944   1 12.848799 49.968065  9.993479
9945   1 12.848782 49.968079 12.848782
9961   1 12.848842 52.823308  1.427639
9962   1 12.848837 52.823314  4.282919
9963   1 12.848828 52.823325  7.138205
9964   1 12.848819 52.823333  9.993505
9965   1 12.848814 52.823342 12.848814
9981   1 12.848845 55.678591  1.427642
9982   1 12.848842 55.678594  4.282925
9983   1 12.848837 55.678597  7.138216
9984   1 12.848831 55.678599  9.993516
9985   1 12.848828 55.678602 12.848828
10301  1 15.704148 44.257404  1.427630
10302  1 15.704134 44.257421  4.282887
10303  1 15.704103 44.257459  7.138145
10304  1 15.704057 44.257513  9.993397
10305  1 15.704003 44.257573 12.848662
10321  1 15.704151 47.112716  1.427633
10322  1 15.704140 47.112733  4.282896
10323  1 15.704117 47.112762  7.138162
10324  1 15.704088 47.112799  9.993434
10325  1 15.704057 47.112836 12.848720
10341  1 15.704154 49.968019  1.427636
10342  1 15.704145 49.968030  4.282905
10343  1 15.704134 49.968050  7.138182
10344  1 15.704117 49.968073  9.993471
10345  1 15.704103 49.968090 12.848774
10361  1 15.704157 52.823311  1.427639
10362  1 15.704154 52.823316  4.282916
10363  1 15.704145 52.823328  7.138202
10364  1 15.704140 52.823336  9.993499
10365  1 15.704134 52.823345 12.848811
10381  1 15.704160 55.678594  1.427642
10382  1 15.704157 55.678594  4.282922
10383  1 15.704154 55.678597  7.138213
10384  1 15.704151 55.678602  9.993516
10385  1 15.704148 55.678602 12.848828
10701  1 18.559474 44.257401  1.427630
10702  1 18.559460 44.257421  4.282890
10703  1 18.559434 44.257464  7.138142
10704  1 18.559391 44.257524  9.993388
10705  1 18.559340 44.257590 12.848642
10721  1 18.559474 47.112716  1.427630
10722  1 18.559466 47.112733  4.282893
10723  1 18.559446 47.112767  7.138156
10724  1 18.559420 47.112807  9.993425
10725  1 18.559391 47.112844 12.848711
10741  1 18.559477 49.968019  1.427633
10742  1 18.559471 49.968030  4.282905
10743  1 18.559460 49.968053  7.138179
10744  1 18.559446 49.968076  9.993468
10745  1 18.559434 49.968090 12.848768
10761  1 18.559480 52.823311  1.427639
10762  1 18.559477 52.823316  4.282916
10763  1 18.559471 52.823328  7.138202
10764  1 18.559466 52.823339  9.993499
10765  1 18.559460 52.823345 12.848811
10781  1 18.559480 55.678594  1.427639
10782  1 18.559480 55.678597  4.282922
10783  1 18.559477 55.678599  7.138213
10784  1 18.559474 55.678602  9.993516
10785  1 18.559474 55.678602 12.848831
306    1  0.000000 42.829743 14.276490
326    1  0.000000 45.685060 14.276490
346    1  0.000000 48.540366 14.276492
366    1  0.000000 51.395663 14.276498
386    1  0.000000 54.250952 14.276501
706    1  2.855260 42.829751 14.276481
726    1  2.855263 45.685069 14.276484
746    1  2.855269 48.540375 14.276490
766    1  2.855275 51.395669 14.276495
786    1  2.855280 54.250952 14.276498
1106   1  5.710515 42.829777 14.276455
1126   1  5.710523 45.685092 14.276464
1146   1  5.710538 48.540392 14.276475
1166   1  5.710552 51.395681 14.276487
1186   1  5.710566 54.250958 14.276495
1506   1  8.565766 42.829823 14.276412
1526   1  8.565786 45.685129 14.276430
1546   1  8.565815 48.540417 14.276452
1566   1  8.565841 51.395695 14.276475
1586   1  8.565861 54.250966 14.276490
1906   1 11.421021 42.829880 14.276353
1926   1 11.421061 45.685172 14.276392
1946   1 11.421104 48.540446 14.276430
1966   1 11.421141 51.395709 14.276464
1986   1 11.421164 54.250972 14.276484
2306   1 14.276293 42.829940 14.276293
2326   1 14.276353 45.685211 14.276353
2346   1 14.276412 48.540466 14.276412
2366   1 14.276455 51.395718 14.276455
2386   1 14.276481 54.250972 14.276481
2706   1 17.131604 42.829986 14.276247
2726   1 17.131676 45.685234 14.276327
2746   1 17.131738 48.540475 14.276398
2766   1 17.131781 51.395718 14.276452
2786   1 17.131804 54.250972 14.276481
10790  1 18.559491 55.678591 27.125455
307    1  0.000000 42.829740 17.131813
308    1  0.000000 42.829737 19.987139
309    1  0.000000 42.829731 22.842464
310    1  0.000000 42.829729 25.697790
10789  1 18.559488 55.678591 24.270132
327    1  0.000000 45.685060 17.131813
328    1  0.000000 45.685057 19.987139
329    1  0.000000 45.685054 22.842464
330    1  0.000000 45.685052 25.697790
10788  1 18.559486 55.678594 21.414806
347    1  0.000000 48.540366 17.131815
348    1  0.000000 48.540366 19.987139
349    1  0.000000 48.540366 22.842464
350    1  0.000000 48.540363 25.697790
10787  1 18.559480 55.678599 18.559480
367    1  0.000000 51.395663 17.131818
368    1  0.000000 51.395663 19.987141
369    1  0.000000 51.395663 22.842464
370    1  0.000000 51.395663 25.697790
10786  1 18.559474 55.678602 15.704154
387    1  0.000000 54.250952 17.131818
388    1  0.000000 54.250952 19.987141
389    1  0.000000 54.250952 22.842467
390    1  0.000000 54.250952 25.697790
10770  1 18.559477 52.823311 27.125452
707    1  2.855260 42.829751 17.131804
708    1  2.855263 42.829749 19.987133
709    1  2.855266 42.829743 22.842462
710    1  2.855266 42.829740 25.697790
10769  1 18.559474 52.823316 24.270123
727    1  2.855260 45.685069 17.131807
728    1  2.855260 45.685066 19.987133
729    1  2.855263 45.685063 22.842462
730    1  2.855263 45.685063 25.697787
10768  1 18.559468 52.823325 21.414794
747    1  2.855266 48.540375 17.131810
748    1  2.855266 48.540375 19.987136
749    1  2.855266 48.540375 22.842462
750    1  2.855266 48.540372 25.697790
10767  1 18.559463 52.823333 18.559463
767    1  2.855272 51.395669 17.131815
768    1  2.855272 51.395669 19.987139
769    1  2.855272 51.395669 22.842464
770    1  2.855272 51.395669 25.697790
10766  1 18.559460 52.823342 15.704134
787    1  2.855280 54.250955 17.131818
788    1  2.855277 54.250955 19.987141
789    1  2.855277 54.250955 22.842464
790    1  2.855277 54.250955 25.697790
10750  1 18.559440 49.968048 27.125446
1107   1  5.710515 42.829780 17.131781
1108   1  5.710518 42.829780 19.987113
1109   1  5.710520 42.829777 22.842447
1110   1  5.710526 42.829774 25.697782
10749  1 18.559434 49.968056 24.270106
1127   1  5.710520 45.685097 17.131787
1128   1  5.710520 45.685097 19.987119
1129   1  5.710520 45.685094 22.842450
1130   1  5.710523 45.685092 25.697785
10748  1 18.559428 49.968070 21.414766
1147   1  5.710535 48.540395 17.131798
1148   1  5.710532 48.540397 19.987124
1149   1  5.710532 48.540397 22.842456
1150   1  5.710532 48.540395 25.697785
10747  1 18.559423 49.968085 18.559423
1167   1  5.710549 51.395683 17.131807
1168   1  5.710549 51.395683 19.987133
1169   1  5.710549 51.395683 22.842462
1170   1  5.710549 51.395683 25.697787
10746  1 18.559426 49.968093 15.704088
1187   1  5.710563 54.250961 17.131815
1188   1  5.710563 54.250961 19.987139
1189   1  5.710563 54.250961 22.842464
1190   1  5.710563 54.250961 25.697790
10730  1 18.559371 47.112813 27.125438
1507   1  8.565758 42.829834 17.131738
1508   1  8.565761 42.829837 19.987079
1509   1  8.565764 42.829834 22.842424
1510   1  8.565769 42.829831 25.697770
10729  1 18.559366 47.112824 24.270075
1527   1  8.565778 45.685140 17.131756
1528   1  8.565775 45.685143 19.987093
1529   1  8.565778 45.685143 22.842433
1530   1  8.565778 45.685140 25.697776
10728  1 18.559357 47.112844 21.414714
1547   1  8.565806 48.540426 17.131778
1548   1  8.565806 48.540429 19.987110
1549   1  8.565806 48.540429 22.842444
1550   1  8.565806 48.540426 25.697782
10727  1 18.559357 47.112864 18.559357
1567   1  8.565838 51.395701 17.131798
1568   1  8.565835 51.395701 19.987124
1569   1  8.565835 51.395701 22.842456
1570   1  8.565838 51.395701 25.697785
10726  1 18.559368 47.112864 15.704020
1587   1  8.565858 54.250966 17.131810
1588   1  8.565858 54.250966 19.987136
1589   1  8.565861 54.250966 22.842462
1590   1  8.565861 54.250966 25.697790
10710  1 18.559251 44.257627 27.125418
1907   1 11.420998 42.829906 17.131676
1908   1 11.420990 42.829917 19.987024
1909   1 11.420992 42.829917 22.842387
1910   1 11.420998 42.829914 25.697753
10709  1 18.559243 44.257644 24.270020
1927   1 11.421044 45.685189 17.131718
1928   1 11.421035 45.685197 19.987061
1929   1 11.421038 45.685197 22.842410
1930   1 11.421038 45.685194 25.697765
10708  1 18.559237 44.257667 21.414623
1947   1 11.421095 48.540455 17.131756
1948   1 11.421089 48.540457 19.987093
1949   1 11.421092 48.540457 22.842433
1950   1 11.421092 48.540455 25.697776
10707  1 18.559249 44.257678 18.559249
1967   1 11.421138 51.395712 17.131787
1968   1 11.421138 51.395712 19.987119
1969   1 11.421138 51.395712 22.842450
1970   1 11.421141 51.395709 25.697785
10706  1 18.559286 44.257650 15.703920
1987   1 11.421164 54.250972 17.131807
1988   1 11.421167 54.250972 19.987133
1989   1 11.421169 54.250969 22.842462
1990   1 11.421172 54.250969 25.697787
10390  1 15.704165 55.678597 27.125455
2307   1 14.276247 42.829986 17.131604
2308   1 14.276227 42.830008 19.986959
2309   1 14.276224 42.830008 22.842339
2310   1 14.276230 42.830003 25.697727
10389  1 15.704163 55.678597 24.270129
2327   1 14.276327 45.685234 17.131676
2328   1 14.276315 45.685243 19.987024
2329   1 14.276315 45.685240 22.842387
2330   1 14.276321 45.685234 25.697753
10388  1 15.704157 55.678599 21.414803
2347   1 14.276398 48.540475 17.131738
2348   1 14.276395 48.540475 19.987079
2349   1 14.276398 48.540469 22.842424
2350   1 14.276401 48.540463 25.697770
10387  1 15.704154 55.678602 18.559474
2367   1 14.276452 51.395718 17.131781
2368   1 14.276452 51.395715 19.987113
2369   1 14.276455 51.395712 22.842447
2370   1 14.276461 51.395706 25.697782
10386  1 15.704151 55.678602 15.704151
2387   1 14.276481 54.250972 17.131804
2388   1 14.276487 54.250969 19.987133
2389   1 14.276490 54.250969 22.842462
2390   1 14.276492 54.250966 25.697790
10370  1 15.704145 52.823328 27.125452
2707   1 17.131536 42.830054 17.131536
2708   1 17.131496 42.830083 19.986887
2709   1 17.131490 42.830077 22.842287
2710   1 17.131499 42.830063 25.697702
10369  1 15.704143 52.823331 24.270123
2727   1 17.131644 45.685260 17.131644
2728   1 17.131633 45.685263 19.986996
2729   1 17.131633 45.685249 22.842367
2730   1 17.131641 45.685234 25.697742
10368  1 15.704137 52.823336 21.414791
2747   1 17.131727 48.540477 17.131727
2748   1 17.131724 48.540472 19.987070
2749   1 17.131730 48.540457 22.842419
2750   1 17.131736 48.540446 25.697767
10367  1 15.704134 52.823342 18.559460
2767   1 17.131778 51.395718 17.131778
2768   1 17.131781 51.395706 19.987113
2769   1 17.131787 51.395698 22.842447
2770   1 17.131793 51.395689 25.697782
10366  1 15.704131 52.823345 15.704131
2787   1 17.131807 54.250969 17.131807
2788   1 17.131813 54.250966 19.987136
2789   1 17.131815 54.250961 22.842464
2790   1 17.131821 54.250958 25.697790
8306   1  1.427630 44.257404 15.704148
8307   1  1.427630 44.257401 18.559474
8308   1  1.427630 44.257399 21.414800
8309   1  1.427633 44.257396 24.270126
8310   1  1.427633 44.257393 27.125455
8326   1  1.427633 47.112716 15.704151
8327   1  1.427630 47.112716 18.559474
8328   1  1.427633 47.112713 21.414800
8329   1  1.427633 47.112713 24.270126
8330   1  1.427633 47.112710 27.125452
8346   1  1.427636 49.968019 15.704154
8347   1  1.427633 49.968019 18.559477
8348   1  1.427633 49.968019 21.414800
8349   1  1.427633 49.968019 24.270126
8350   1  1.427633 49.968016 27.125455
8366   1  1.427639 52.823311 15.704157
8367   1  1.427639 52.823311 18.559480
8368   1  1.427639 52.823311 21.414803
8369   1  1.427639 52.823311 24.270129
8370   1  1.427639 52.823311 27.125455
8386   1  1.427642 55.678594 15.704160
8387   1  1.427639 55.678594 18.559480
8388   1  1.427639 55.678594 21.414803
8389   1  1.427639 55.678594 24.270129
8390   1  1.427639 55.678594 27.125455
8706   1  4.282887 44.257421 15.704134
8707   1  4.282890 44.257421 18.559460
8708   1  4.282890 44.257419 21.414791
8709   1  4.282893 44.257416 24.270120
8710   1  4.282896 44.257416 27.125452
8726   1  4.282896 47.112733 15.704140
8727   1  4.282893 47.112733 18.559466
8728   1  4.282893 47.112733 21.414794
8729   1  4.282896 47.112730 24.270123
8730   1  4.282896 47.112730 27.125452
8746   1  4.282905 49.968030 15.704145
8747   1  4.282905 49.968030 18.559471
8748   1  4.282905 49.968030 21.414797
8749   1  4.282905 49.968030 24.270126
8750   1  4.282905 49.968030 27.125452
8766   1  4.282916 52.823316 15.704154
8767   1  4.282916 52.823316 18.559477
8768   1  4.282916 52.823316 21.414800
8769   1  4.282916 52.823316 24.270126
8770   1  4.282916 52.823316 27.125452
8786   1  4.282922 55.678594 15.704157
8787   1  4.282922 55.678597 18.559480
8788   1  4.282922 55.678597 21.414803
8789   1  4.282922 55.678597 24.270129
8790   1  4.282922 55.678597 27.125455
9106   1  7.138145 44.257459 15.704103
9107   1  7.138142 44.257464 18.559434
9108   1  7.138142 44.257464 21.414771
9109   1  7.138148 44.257461 24.270109
9110   1  7.138148 44.257459 27.125446
9126   1  7.138162 47.112762 15.704117
9127   1  7.138156 47.112767 18.559446
9128   1  7.138156 47.112767 21.414780
9129   1  7.138156 47.112765 24.270115
9130   1  7.138159 47.112765 27.125449
9146   1  7.138182 49.968050 15.704134
9147   1  7.138179 49.968053 18.559460
9148   1  7.138179 49.968053 21.414789
9149   1  7.138179 49.968053 24.270120
9150   1  7.138179 49.968053 27.125452
9166   1  7.138202 52.823328 15.704145
9167   1  7.138202 52.823328 18.559471
9168   1  7.138202 52.823328 21.414797
9169   1  7.138202 52.823328 24.270126
9170   1  7.138202 52.823328 27.125452
9186   1  7.138213 55.678597 15.704154
9187   1  7.138213 55.678599 18.559477
9188   1  7.138213 55.678599 21.414800
9189   1  7.138216 55.678599 24.270126
9190   1  7.138216 55.678599 27.125455
9506   1  9.993397 44.257513 15.704057
9507   1  9.993388 44.257524 18.559391
9508   1  9.993388 44.257524 21.414740
9509   1  9.993391 44.257524 24.270089
9510   1  9.993394 44.257521 27.125440
9526   1  9.993434 47.112799 15.704088
9527   1  9.993425 47.112807 18.559420
9528   1  9.993425 47.112807 21.414760
9529   1  9.993425 47.112807 24.270103
9530   1  9.993425 47.112807 27.125446
9546   1  9.993471 49.968073 15.704117
9547   1  9.993468 49.968076 18.559446
9548   1  9.993465 49.968076 21.414780
9549   1  9.993468 49.968076 24.270115
9550   1  9.993468 49.968076 27.125449
9566   1  9.993499 52.823336 15.704140
9567   1  9.993499 52.823339 18.559466
9568   1  9.993499 52.823339 21.414794
9569   1  9.993502 52.823339 24.270123
9570   1  9.993502 52.823336 27.125452
9586   1  9.993516 55.678602 15.704151
9587   1  9.993516 55.678602 18.559474
9588   1  9.993519 55.678602 21.414800
9589   1  9.993519 55.678602 24.270126
9590   1  9.993522 55.678599 27.125452
9906   1 12.848662 44.257573 15.704003
9907   1 12.848642 44.257590 18.559340
9908   1 12.848637 44.257596 21.414700
9909   1 12.848640 44.257593 24.270066
9910   1 12.848642 44.257590 27.125432
9926   1 12.848720 47.112836 15.704057
9927   1 12.848711 47.112844 18.559391
9928   1 12.848708 47.112844 21.414740
9929   1 12.848711 47.112842 24.270089
9930   1 12.848711 47.112839 27.125440
9946   1 12.848774 49.968090 15.704103
9947   1 12.848768 49.968090 18.559434
9948   1 12.848771 49.968090 21.414771
9949   1 12.848774 49.968088 24.270109
9950   1 12.848774 49.968085 27.125446
9966   1 12.848811 52.823345 15.704134
9967   1 12.848811 52.823345 18.559460
9968   1 12.848814 52.823342 21.414791
9969   1 12.848817 52.823339 24.270120
9970   1 12.848817 52.823339 27.125452
9986   1 12.848828 55.678602 15.704148
9987   1 12.848831 55.678602 18.559474
9988   1 12.848834 55.678602 21.414800
9989   1 12.848837 55.678599 24.270126
9990   1 12.848839 55.678599 27.125455
10306  1 15.703954 44.257621 15.703954
10307  1 15.703920 44.257650 18.559286
10308  1 15.703911 44.257653 21.414657
10309  1 15.703914 44.257644 24.270040
10310  1 15.703920 44.257638 27.125423
10326  1 15.704031 47.112859 15.704031
10327  1 15.704020 47.112864 18.559368
10328  1 15.704017 47.112859 21.414723
10329  1 15.704023 47.112850 24.270080
10330  1 15.704025 47.112844 27.125438
10346  1 15.704091 49.968096 15.704091
10347  1 15.704088 49.968093 18.559426
10348  1 15.704091 49.968088 21.414766
10349  1 15.704097 49.968079 24.270106
10350  1 15.704100 49.968073 27.125446
311    1  0.000000 42.829729 28.553116
312    1  0.000000 42.829729 31.408442
313    1  0.000000 42.829731 34.263768
314    1  0.000000 42.829737 37.119094
315    1  0.000000 42.829740 39.974420
331    1  0.000000 45.685052 28.553116
332    1  0.000000 45.685052 31.408442
333    1  0.000000 45.685054 34.263768
334    1  0.000000 45.685057 37.119094
335    1  0.000000 45.685060 39.974420
351    1  0.000000 48.540363 28.553116
352    1  0.000000 48.540363 31.408442
353    1  0.000000 48.540366 34.263768
354    1  0.000000 48.540366 37.119094
355    1  0.000000 48.540366 39.974420
371    1  0.000000 51.395663 28.553116
372    1  0.000000 51.395663 31.408442
373    1  0.000000 51.395663 34.263768
374    1  0.000000 51.395663 37.119094
375    1  0.000000 51.395663 39.974417
391    1  0.000000 54.250952 28.553116
392    1  0.000000 54.250952 31.408442
393    1  0.000000 54.250952 34.263768
394    1  0.000000 54.250952 37.119091
395    1  0.000000 54.250952 39.974414
711    1  2.855269 42.829740 28.553116
712    1  2.855266 42.829740 31.408445
713    1  2.855266 42.829743 34.263771
714    1  2.855263 42.829749 37.119100
715    1  2.855260 42.829751 39.974428
731    1  2.855263 45.685060 28.553116
732    1  2.855263 45.685063 31.408445
733    1  2.855263 45.685063 34.263771
734    1  2.855260 45.685066 37.119100
735    1  2.855260 45.685069 39.974425
751    1  2.855266 48.540372 28.553116
752    1  2.855266 48.540372 31.408445
753    1  2.855266 48.540375 34.263771
754    1  2.855266 48.540375 37.119097
755    1  2.855266 48.540375 39.974423
771    1  2.855272 51.395669 28.553116
772    1  2.855272 51.395669 31.408442
773    1  2.855272 51.395669 34.263768
774    1  2.855272 51.395669 37.119094
775    1  2.855272 51.395669 39.974417
791    1  2.855277 54.250955 28.553116
792    1  2.855277 54.250955 31.408442
793    1  2.855277 54.250955 34.263768
794    1  2.855277 54.250955 37.119091
795    1  2.855280 54.250955 39.974414
1111   1  5.710526 42.829771 28.553116
1112   1  5.710526 42.829774 31.408451
1113   1  5.710520 42.829777 34.263785
1114   1  5.710518 42.829780 37.119120
1115   1  5.710515 42.829780 39.974451
1131   1  5.710523 45.685092 28.553116
1132   1  5.710523 45.685092 31.408448
1133   1  5.710520 45.685094 34.263782
1134   1  5.710520 45.685097 37.119114
1135   1  5.710520 45.685097 39.974445
1151   1  5.710532 48.540395 28.553116
1152   1  5.710532 48.540395 31.408448
1153   1  5.710532 48.540397 34.263777
1154   1  5.710532 48.540397 37.119108
1155   1  5.710535 48.540395 39.974437
1171   1  5.710549 51.395683 28.553116
1172   1  5.710549 51.395683 31.408445
1173   1  5.710549 51.395683 34.263774
1174   1  5.710549 51.395683 37.119100
1175   1  5.710549 51.395683 39.974425
1191   1  5.710563 54.250961 28.553116
1192   1  5.710563 54.250961 31.408442
1193   1  5.710563 54.250961 34.263768
1194   1  5.710563 54.250961 37.119094
1195   1  5.710563 54.250961 39.974417
1511   1  8.565772 42.829828 28.553116
1512   1  8.565769 42.829831 31.408462
1513   1  8.565764 42.829834 34.263808
1514   1  8.565761 42.829837 37.119154
1515   1  8.565758 42.829834 39.974494
1531   1  8.565778 45.685140 28.553116
1532   1  8.565778 45.685140 31.408456
1533   1  8.565778 45.685143 34.263799
1534   1  8.565775 45.685143 37.119140
1535   1  8.565778 45.685140 39.974477
1551   1  8.565806 48.540426 28.553116
1552   1  8.565806 48.540426 31.408451
1553   1  8.565806 48.540429 34.263788
1554   1  8.565806 48.540429 37.119122
1555   1  8.565806 48.540426 39.974454
1571   1  8.565838 51.395701 28.553116
1572   1  8.565838 51.395701 31.408448
1573   1  8.565835 51.395701 34.263777
1574   1  8.565835 51.395701 37.119108
1575   1  8.565838 51.395701 39.974437
1591   1  8.565861 54.250966 28.553116
1592   1  8.565861 54.250966 31.408445
1593   1  8.565861 54.250966 34.263771
1594   1  8.565858 54.250966 37.119097
1595   1  8.565858 54.250966 39.974423
1911   1 11.421001 42.829911 28.553116
1912   1 11.420998 42.829914 31.408482
1913   1 11.420992 42.829917 34.263845
1914   1 11.420990 42.829917 37.119208
1915   1 11.420998 42.829906 39.974557
1931   1 11.421041 45.685194 28.553116
1932   1 11.421038 45.685194 31.408468
1933   1 11.421038 45.685197 34.263822
1934   1 11.421035 45.685197 37.119174
1935   1 11.421044 45.685189 39.974517
1951   1 11.421092 48.540455 28.553116
1952   1 11.421092 48.540455 31.408456
1953   1 11.421092 48.540457 34.263799
1954   1 11.421089 48.540457 37.119140
1955   1 11.421095 48.540455 39.974477
1971   1 11.421141 51.395709 28.553116
1972   1 11.421141 51.395709 31.408448
1973   1 11.421138 51.395712 34.263782
1974   1 11.421138 51.395712 37.119114
1975   1 11.421138 51.395712 39.974445
1991   1 11.421172 54.250969 28.553116
1992   1 11.421172 54.250969 31.408445
1993   1 11.421169 54.250969 34.263771
1994   1 11.421167 54.250972 37.119100
1995   1 11.421164 54.250972 39.974425
2311   1 14.276233 42.830000 28.553116
2312   1 14.276230 42.830003 31.408505
2313   1 14.276224 42.830008 34.263894
2314   1 14.276227 42.830008 37.119277
2315   1 14.276247 42.829986 39.974631
2331   1 14.276321 45.685231 28.553116
2332   1 14.276321 45.685234 31.408482
2333   1 14.276315 45.685240 34.263845
2334   1 14.276315 45.685243 37.119208
2335   1 14.276327 45.685234 39.974557
2351   1 14.276404 48.540460 28.553116
2352   1 14.276401 48.540463 31.408462
2353   1 14.276398 48.540469 34.263808
2354   1 14.276395 48.540475 37.119154
2355   1 14.276398 48.540475 39.974494
2371   1 14.276461 51.395706 28.553116
2372   1 14.276461 51.395706 31.408451
2373   1 14.276455 51.395712 34.263785
2374   1 14.276452 51.395715 37.119120
2375   1 14.276452 51.395718 39.974451
2391   1 14.276495 54.250966 28.553116
2392   1 14.276492 54.250966 31.408445
2393   1 14.276490 54.250969 34.263771
2394   1 14.276487 54.250969 37.119100
2395   1 14.276481 54.250972 39.974428
2711   1 17.131504 42.830057 28.553116
2712   1 17.131499 42.830063 31.408531
2713   1 17.131490 42.830077 34.263945
2714   1 17.131496 42.830083 37.119345
2715   1 17.131536 42.830054 39.974697
2731   1 17.131644 45.685231 28.553116
2732   1 17.131641 45.685234 31.408491
2733   1 17.131633 45.685249 34.263865
2734   1 17.131633 45.685263 37.119237
2735   1 17.131644 45.685260 39.974588
2751   1 17.131738 48.540443 28.553116
2752   1 17.131736 48.540446 31.408465
2753   1 17.131730 48.540457 34.263814
2754   1 17.131724 48.540472 37.119162
2755   1 17.131727 48.540477 39.974505
2771   1 17.131793 51.395689 28.553116
2772   1 17.131793 51.395689 31.408451
2773   1 17.131787 51.395698 34.263785
2774   1 17.131781 51.395706 37.119120
2775   1 17.131778 51.395718 39.974454
2791   1 17.131821 54.250955 28.553116
2792   1 17.131821 54.250958 31.408442
2793   1 17.131815 54.250961 34.263768
2794   1 17.131813 54.250966 37.119097
2795   1 17.131807 54.250969 39.974425
8311   1  1.427633 44.257393 29.980781
8312   1  1.427633 44.257396 32.836106
8313   1  1.427630 44.257399 35.691432
8314   1  1.427630 44.257401 38.546758
8315   1  1.427630 44.257404 41.402084
8331   1  1.427633 47.112710 29.980781
8332   1  1.427633 47.112713 32.836106
8333   1  1.427633 47.112713 35.691432
8334   1  1.427630 47.112716 38.546758
8335   1  1.427633 47.112716 41.402081
8351   1  1.427633 49.968016 29.980781
8352   1  1.427633 49.968019 32.836106
8353   1  1.427633 49.968019 35.691432
8354   1  1.427633 49.968019 38.546755
8355   1  1.427636 49.968019 41.402078
8371   1  1.427639 52.823311 29.980781
8372   1  1.427639 52.823311 32.836104
8373   1  1.427639 52.823311 35.691430
8374   1  1.427639 52.823311 38.546753
8375   1  1.427639 52.823311 41.402076
8391   1  1.427639 55.678594 29.980778
8392   1  1.427639 55.678594 32.836104
8393   1  1.427639 55.678594 35.691430
8394   1  1.427639 55.678594 38.546753
8395   1  1.427642 55.678594 41.402073
8711   1  4.282896 44.257416 29.980781
8712   1  4.282893 44.257416 32.836112
8713   1  4.282890 44.257419 35.691441
8714   1  4.282890 44.257421 38.546773
8715   1  4.282887 44.257421 41.402098
8731   1  4.282896 47.112730 29.980781
8732   1  4.282896 47.112730 32.836109
8733   1  4.282893 47.112733 35.691441
8734   1  4.282893 47.112733 38.546770
8735   1  4.282896 47.112733 41.402093
8751   1  4.282905 49.968030 29.980781
8752   1  4.282905 49.968030 32.836109
8753   1  4.282905 49.968030 35.691435
8754   1  4.282905 49.968030 38.546761
8755   1  4.282905 49.968030 41.402087
8771   1  4.282916 52.823316 29.980781
8772   1  4.282916 52.823316 32.836106
8773   1  4.282916 52.823316 35.691432
8774   1  4.282916 52.823316 38.546758
8775   1  4.282916 52.823316 41.402078
8791   1  4.282922 55.678597 29.980781
8792   1  4.282922 55.678597 32.836104
8793   1  4.282922 55.678597 35.691430
8794   1  4.282922 55.678597 38.546753
8795   1  4.282922 55.678594 41.402076
9111   1  7.138148 44.257459 29.980786
9112   1  7.138148 44.257461 32.836124
9113   1  7.138142 44.257464 35.691464
9114   1  7.138142 44.257464 38.546798
9115   1  7.138145 44.257459 41.402130
9131   1  7.138159 47.112765 29.980783
9132   1  7.138156 47.112765 32.836118
9133   1  7.138156 47.112767 35.691452
9134   1  7.138156 47.112767 38.546787
9135   1  7.138162 47.112762 41.402116
9151   1  7.138179 49.968053 29.980781
9152   1  7.138179 49.968053 32.836112
9153   1  7.138179 49.968053 35.691444
9154   1  7.138179 49.968053 38.546773
9155   1  7.138182 49.968050 41.402098
9171   1  7.138202 52.823328 29.980781
9172   1  7.138202 52.823328 32.836109
9173   1  7.138202 52.823328 35.691435
9174   1  7.138202 52.823328 38.546761
9175   1  7.138202 52.823328 41.402087
9191   1  7.138216 55.678599 29.980781
9192   1  7.138216 55.678599 32.836106
9193   1  7.138213 55.678599 35.691432
9194   1  7.138213 55.678599 38.546755
9195   1  7.138213 55.678597 41.402078
9511   1  9.993394 44.257521 29.980792
9512   1  9.993391 44.257524 32.836144
9513   1  9.993388 44.257524 35.691492
9514   1  9.993388 44.257524 38.546841
9515   1  9.993397 44.257513 41.402176
9531   1  9.993425 47.112807 29.980786
9532   1  9.993425 47.112807 32.836129
9533   1  9.993425 47.112807 35.691472
9534   1  9.993425 47.112807 38.546813
9535   1  9.993434 47.112799 41.402144
9551   1  9.993468 49.968076 29.980783
9552   1  9.993468 49.968076 32.836118
9553   1  9.993465 49.968076 35.691452
9554   1  9.993468 49.968076 38.546787
9555   1  9.993471 49.968073 41.402116
9571   1  9.993502 52.823336 29.980781
9572   1  9.993502 52.823339 32.836109
9573   1  9.993499 52.823339 35.691441
9574   1  9.993499 52.823339 38.546770
9575   1  9.993499 52.823336 41.402093
9591   1  9.993522 55.678599 29.980781
9592   1  9.993519 55.678602 32.836106
9593   1  9.993519 55.678602 35.691432
9594   1  9.993516 55.678602 38.546758
9595   1  9.993516 55.678602 41.402081
9911   1 12.848642 44.257590 29.980801
9912   1 12.848640 44.257593 32.836166
9913   1 12.848637 44.257596 35.691535
9914   1 12.848642 44.257590 38.546892
9915   1 12.848662 44.257573 41.402230
9931   1 12.848711 47.112839 29.980792
9932   1 12.848711 47.112842 32.836144
9933   1 12.848708 47.112844 35.691492
9934   1 12.848711 47.112844 38.546841
9935   1 12.848720 47.112836 41.402176
9951   1 12.848774 49.968085 29.980786
9952   1 12.848774 49.968088 32.836124
9953   1 12.848771 49.968090 35.691464
9954   1 12.848768 49.968090 38.546798
9955   1 12.848774 49.968090 41.402130
9971   1 12.848817 52.823339 29.980781
9972   1 12.848817 52.823339 32.836112
9973   1 12.848814 52.823342 35.691441
9974   1 12.848811 52.823345 38.546773
9975   1 12.848811 52.823345 41.402098
9991   1 12.848839 55.678599 29.980781
9992   1 12.848837 55.678599 32.836106
9993   1 12.848834 55.678602 35.691432
9994   1 12.848831 55.678602 38.546758
9995   1 12.848828 55.678602 41.402084
10311  1 15.703920 44.257638 29.980809
10312  1 15.703914 44.257644 32.836192
10313  1 15.703911 44.257653 35.691578
10314  1 15.703920 44.257650 38.546947
10315  1 15.703954 44.257621 41.402278
10331  1 15.704025 47.112844 29.980795
10332  1 15.704023 47.112850 32.836152
10333  1 15.704017 47.112859 35.691512
10334  1 15.704020 47.112864 38.546864
10335  1 15.704031 47.112859 41.402201
10351  1 15.704100 49.968073 29.980786
10352  1 15.704097 49.968079 32.836126
10353  1 15.704091 49.968088 35.691467
10354  1 15.704088 49.968093 38.546807
10355  1 15.704091 49.968096 41.402141
10371  1 15.704145 52.823328 29.980781
10372  1 15.704143 52.823331 32.836112
10373  1 15.704137 52.823336 35.691441
10374  1 15.704134 52.823342 38.546773
10375  1 15.704131 52.823345 41.402101
10391  1 15.704165 55.678597 29.980778
10392  1 15.704163 55.678597 32.836104
10393  1 15.704157 55.678599 35.691430
10394  1 15.704154 55.678602 38.546758
10395  1 15.704151 55.678602 41.402084
10711  1 18.559251 44.257627 29.980815
10712  1 18.559243 44.257644 32.836212
10713  1 18.559237 44.257667 35.691609
10714  1 18.559249 44.257678 38.546984
10715  1 18.559286 44.257650 41.402313
10731  1 18.559371 47.112813 29.980795
10732  1 18.559366 47.112824 32.836158
10733  1 18.559357 47.112844 35.691521
10734  1 18.559357 47.112864 38.546875
10735  1 18.559368 47.112864 41.402213
10751  1 18.559440 49.968048 29.980786
10752  1 18.559434 49.968056 32.836126
10753  1 18.559428 49.968070 35.691467
10754  1 18.559423 49.968085 38.546810
10755  1 18.559426 49.968093 41.402144
10771  1 18.559477 52.823311 29.980781
10772  1 18.559474 52.823316 32.836109
10773  1 18.559468 52.823325 35.691438
10774  1 18.559463 52.823333 38.546770
10775  1 18.559460 52.823342 41.402101
10791  1 18.559491 55.678591 29.980778
10792  1 18.559488 55.678591 32.836101
10793  1 18.559486 55.678594 35.691427
10794  1 18.559480 55.678599 38.546753
10795  1 18.559474 55.678602 41.402078
316    1  0.000000 42.829743 42.829743
317    1  0.000000 42.829743 45.685060
318    1  0.000000 42.829740 48.540366
319    1  0.000000 42.829734 51.395663
320    1  0.000000 42.829731 54.250952
336    1  0.000000 45.685060 42.829743
337    1  0.000000 45.685057 45.685057
338    1  0.000000 45.685054 48.540363
339    1  0.000000 45.685049 51.395661
340    1  0.000000 45.685046 54.250949
356    1  0.000000 48.540366 42.829740
357    1  0.000000 48.540363 45.685054
358    1  0.000000 48.540360 48.540360
359    1  0.000000 48.540358 51.395658
360    1  0.000000 48.540352 54.250946
376    1  0.000000 51.395663 42.829734
377    1  0.000000 51.395661 45.685049
378    1  0.000000 51.395658 48.540358
379    1  0.000000 51.395655 51.395655
380    1  0.000000 51.395652 54.250946
396    1  0.000000 54.250952 42.829731
397    1  0.000000 54.250949 45.685046
398    1  0.000000 54.250946 48.540352
399    1  0.000000 54.250946 51.395652
400    1  0.000000 54.250944 54.250944
716    1  2.855260 42.829751 42.829751
717    1  2.855263 42.829749 45.685069
718    1  2.855269 42.829743 48.540375
719    1  2.855275 42.829737 51.395669
720    1  2.855280 42.829734 54.250952
736    1  2.855263 45.685069 42.829749
737    1  2.855266 45.685066 45.685066
738    1  2.855272 45.685060 48.540369
739    1  2.855277 45.685052 51.395666
740    1  2.855280 45.685049 54.250952
756    1  2.855269 48.540375 42.829743
757    1  2.855272 48.540369 45.685060
758    1  2.855275 48.540366 48.540366
759    1  2.855280 48.540358 51.395661
760    1  2.855283 48.540355 54.250949
776    1  2.855275 51.395669 42.829737
777    1  2.855277 51.395666 45.685052
778    1  2.855280 51.395661 48.540358
779    1  2.855283 51.395658 51.395658
780    1  2.855286 51.395652 54.250946
796    1  2.855280 54.250952 42.829734
797    1  2.855280 54.250952 45.685049
798    1  2.855283 54.250949 48.540355
799    1  2.855286 54.250946 51.395652
800    1  2.855289 54.250944 54.250944
1116   1  5.710515 42.829777 42.829777
1117   1  5.710523 42.829769 45.685092
1118   1  5.710538 42.829757 48.540392
1119   1  5.710552 42.829746 51.395681
1120   1  5.710566 42.829737 54.250958
1136   1  5.710523 45.685092 42.829769
1137   1  5.710532 45.685083 45.685083
1138   1  5.710543 45.685072 48.540386
1139   1  5.710558 45.685060 51.395675
1140   1  5.710569 45.685052 54.250955
1156   1  5.710538 48.540392 42.829757
1157   1  5.710543 48.540386 45.685072
1158   1  5.710555 48.540375 48.540375
1159   1  5.710563 48.540366 51.395669
1160   1  5.710572 48.540358 54.250952
1176   1  5.710552 51.395681 42.829746
1177   1  5.710558 51.395675 45.685060
1178   1  5.710563 51.395669 48.540366
1179   1  5.710572 51.395661 51.395661
1180   1  5.710578 51.395658 54.250949
1196   1  5.710566 54.250958 42.829737
1197   1  5.710569 54.250955 45.685052
1198   1  5.710572 54.250952 48.540358
1199   1  5.710578 54.250949 51.395658
1200   1  5.710580 54.250946 54.250946
1516   1  8.565766 42.829823 42.829823
1517   1  8.565786 42.829803 45.685129
1518   1  8.565815 42.829780 48.540417
1519   1  8.565841 42.829757 51.395695
1520   1  8.565861 42.829743 54.250966
1536   1  8.565786 45.685129 42.829803
1537   1  8.565804 45.685112 45.685112
1538   1  8.565826 45.685092 48.540406
1539   1  8.565846 45.685072 51.395689
1540   1  8.565863 45.685060 54.250964
1556   1  8.565815 48.540417 42.829780
1557   1  8.565826 48.540406 45.685092
1558   1  8.565841 48.540392 48.540392
1559   1  8.565858 48.540375 51.395678
1560   1  8.565869 48.540366 54.250958
1576   1  8.565841 51.395695 42.829757
1577   1  8.565846 51.395689 45.685072
1578   1  8.565858 51.395678 48.540375
1579   1  8.565866 51.395669 51.395669
1580   1  8.565875 51.395661 54.250952
1596   1  8.565861 54.250966 42.829743
1597   1  8.565863 54.250964 45.685060
1598   1  8.565869 54.250958 48.540366
1599   1  8.565875 54.250952 51.395661
1600   1  8.565878 54.250949 54.250949
1916   1 11.421021 42.829880 42.829880
1917   1 11.421061 42.829843 45.685172
1918   1 11.421104 42.829803 48.540446
1919   1 11.421141 42.829769 51.395709
1920   1 11.421164 42.829749 54.250972
1936   1 11.421061 45.685172 42.829843
1937   1 11.421089 45.685146 45.685146
1938   1 11.421121 45.685112 48.540429
1939   1 11.421149 45.685083 51.395701
1940   1 11.421169 45.685066 54.250966
1956   1 11.421104 48.540446 42.829803
1957   1 11.421121 48.540429 45.685112
1958   1 11.421141 48.540406 48.540406
1959   1 11.421161 48.540386 51.395689
1960   1 11.421175 48.540369 54.250964
1976   1 11.421141 51.395709 42.829769
1977   1 11.421149 51.395701 45.685083
1978   1 11.421161 51.395689 48.540386
1979   1 11.421172 51.395675 51.395675
1980   1 11.421181 51.395666 54.250955
1996   1 11.421164 54.250972 42.829749
1997   1 11.421169 54.250966 45.685066
1998   1 11.421175 54.250964 48.540369
1999   1 11.421181 54.250955 51.395666
2000   1 11.421187 54.250952 54.250952
2316   1 14.276293 42.829940 42.829940
2317   1 14.276353 42.829880 45.685211
2318   1 14.276412 42.829823 48.540466
2319   1 14.276455 42.829777 51.395718
2320   1 14.276481 42.829751 54.250972
2336   1 14.276353 45.685211 42.829880
2337   1 14.276392 45.685172 45.685172
2338   1 14.276430 45.685129 48.540446
2339   1 14.276464 45.685092 51.395709
2340   1 14.276484 45.685069 54.250972
2356   1 14.276412 48.540466 42.829823
2357   1 14.276430 48.540446 45.685129
2358   1 14.276452 48.540417 48.540417
2359   1 14.276475 48.540392 51.395695
2360   1 14.276490 48.540375 54.250966
2376   1 14.276455 51.395718 42.829777
2377   1 14.276464 51.395709 45.685092
2378   1 14.276475 51.395695 48.540392
2379   1 14.276487 51.395681 51.395681
2380   1 14.276495 51.395669 54.250958
2396   1 14.276481 54.250972 42.829751
2397   1 14.276484 54.250972 45.685069
2398   1 14.276490 54.250966 48.540375
2399   1 14.276495 54.250958 51.395669
2400   1 14.276498 54.250952 54.250952
2716   1 17.131604 42.829986 42.829986
2717   1 17.131676 42.829906 45.685234
2718   1 17.131738 42.829834 48.540475
2719   1 17.131781 42.829780 51.395718
2720   1 17.131804 42.829751 54.250972
2736   1 17.131676 45.685234 42.829906
2737   1 17.131718 45.685189 45.685189
2738   1 17.131756 45.685140 48.540455
2739   1 17.131787 45.685097 51.395712
2740   1 17.131807 45.685069 54.250972
2756   1 17.131738 48.540475 42.829834
2757   1 17.131756 48.540455 45.685140
2758   1 17.131778 48.540426 48.540426
2759   1 17.131798 48.540395 51.395701
2760   1 17.131810 48.540375 54.250966
2776   1 17.131781 51.395718 42.829780
2777   1 17.131787 51.395712 45.685097
2778   1 17.131798 51.395701 48.540395
2779   1 17.131807 51.395683 51.395683
2780   1 17.131815 51.395669 54.250961
2796   1 17.131804 54.250972 42.829751
2797   1 17.131807 54.250972 45.685069
2798   1 17.131810 54.250966 48.540375
2799   1 17.131815 54.250961 51.395669
2800   1 17.131818 54.250955 54.250955
8316   1  1.427630 44.257404 44.257404
8317   1  1.427633 44.257401 47.112716
8318   1  1.427636 44.257396 49.968016
8319   1  1.427639 44.257393 52.823308
8320   1  1.427642 44.257390 55.678591
8336   1  1.427633 47.112716 44.257401
8337   1  1.427636 47.112713 47.112713
8338   1  1.427639 47.112707 49.968013
8339   1  1.427642 47.112702 52.823305
8340   1  1.427642 47.112699 55.678591
8356   1  1.427636 49.968016 44.257396
8357   1  1.427639 49.968013 47.112707
8358   1  1.427639 49.968010 49.968010
8359   1  1.427642 49.968005 52.823302
8360   1  1.427642 49.968002 55.678591
8376   1  1.427639 52.823308 44.257393
8377   1  1.427642 52.823305 47.112702
8378   1  1.427642 52.823302 49.968005
8379   1  1.427642 52.823299 52.823299
8380   1  1.427644 52.823299 55.678588
8396   1  1.427642 55.678591 44.257390
8397   1  1.427642 55.678591 47.112699
8398   1  1.427642 55.678591 49.968002
8399   1  1.427644 55.678588 52.823299
8400   1  1.427644 55.678588 55.678588
8716   1  4.282893 44.257419 44.257419
8717   1  4.282899 44.257413 47.112730
8718   1  4.282910 44.257404 49.968028
8719   1  4.282919 44.257396 52.823314
8720   1  4.282925 44.257393 55.678594
8736   1  4.282899 47.112730 44.257413
8737   1  4.282907 47.112722 47.112722
8738   1  4.282913 47.112713 49.968022
8739   1  4.282922 47.112707 52.823311
8740   1  4.282927 47.112702 55.678594
8756   1  4.282910 49.968028 44.257404
8757   1  4.282913 49.968022 47.112713
8758   1  4.282922 49.968016 49.968016
8759   1  4.282927 49.968008 52.823305
8760   1  4.282930 49.968005 55.678591
8776   1  4.282919 52.823314 44.257396
8777   1  4.282922 52.823311 47.112707
8778   1  4.282927 52.823305 49.968008
8779   1  4.282930 52.823302 52.823302
8780   1  4.282933 52.823299 55.678591
8796   1  4.282925 55.678594 44.257393
8797   1  4.282927 55.678594 47.112702
8798   1  4.282930 55.678591 49.968005
8799   1  4.282933 55.678591 52.823299
8800   1  4.282936 55.678588 55.678588
9116   1  7.138153 44.257450 44.257450
9117   1  7.138171 44.257436 47.112753
9118   1  7.138188 44.257419 49.968045
9119   1  7.138205 44.257404 52.823325
9120   1  7.138216 44.257396 55.678597
9136   1  7.138171 47.112753 44.257436
9137   1  7.138182 47.112742 47.112742
9138   1  7.138199 47.112727 49.968036
9139   1  7.138211 47.112713 52.823319
9140   1  7.138219 47.112707 55.678597
9156   1  7.138188 49.968045 44.257419
9157   1  7.138199 49.968036 47.112727
9158   1  7.138208 49.968025 49.968025
9159   1  7.138219 49.968016 52.823311
9160   1  7.138225 49.968010 55.678594
9176   1  7.138205 52.823325 44.257404
9177   1  7.138211 52.823319 47.112713
9178   1  7.138219 52.823311 49.968016
9179   1  7.138225 52.823305 52.823305
9180   1  7.138228 52.823302 55.678591
9196   1  7.138216 55.678597 44.257396
9197   1  7.138219 55.678597 47.112707
9198   1  7.138225 55.678594 49.968010
9199   1  7.138228 55.678591 52.823302
9200   1  7.138231 55.678591 55.678591
9516   1  9.993419 44.257490 44.257490
9517   1  9.993448 44.257464 47.112784
9518   1  9.993479 44.257436 49.968065
9519   1  9.993505 44.257413 52.823333
9520   1  9.993516 44.257401 55.678599
9536   1  9.993448 47.112784 44.257464
9537   1  9.993468 47.112765 47.112765
9538   1  9.993491 47.112742 49.968050
9539   1  9.993511 47.112722 52.823328
9540   1  9.993522 47.112713 55.678597
9556   1  9.993479 49.968065 44.257436
9557   1  9.993491 49.968050 47.112742
9558   1  9.993505 49.968036 49.968036
9559   1  9.993519 49.968022 52.823319
9560   1  9.993525 49.968013 55.678597
9576   1  9.993505 52.823333 44.257413
9577   1  9.993511 52.823328 47.112722
9578   1  9.993519 52.823319 49.968022
9579   1  9.993525 52.823311 52.823311
9580   1  9.993531 52.823305 55.678594
9596   1  9.993516 55.678599 44.257401
9597   1  9.993522 55.678597 47.112713
9598   1  9.993525 55.678597 49.968013
9599   1  9.993531 55.678594 52.823305
9600   1  9.993534 55.678591 55.678591
9916   1 12.848697 44.257536 44.257536
9917   1 12.848742 44.257490 47.112816
9918   1 12.848782 44.257450 49.968079
9919   1 12.848814 44.257419 52.823342
9920   1 12.848828 44.257404 55.678602
9936   1 12.848742 47.112816 44.257490
9937   1 12.848771 47.112784 47.112784
9938   1 12.848799 47.112753 49.968065
9939   1 12.848819 47.112730 52.823333
9940   1 12.848831 47.112716 55.678599
9956   1 12.848782 49.968079 44.257450
9957   1 12.848799 49.968065 47.112753
9958   1 12.848814 49.968045 49.968045
9959   1 12.848828 49.968028 52.823325
9960   1 12.848837 49.968016 55.678597
9976   1 12.848814 52.823342 44.257419
9977   1 12.848819 52.823333 47.112730
9978   1 12.848828 52.823325 49.968028
9979   1 12.848837 52.823314 52.823314
9980   1 12.848842 52.823308 55.678594
9996   1 12.848828 55.678602 44.257404
9997   1 12.848831 55.678599 47.112716
9998   1 12.848837 55.678597 49.968016
9999   1 12.848842 55.678594 52.823308
10000  1 12.848845 55.678591 55.678591
10316  1 15.704003 44.257573 44.257573
10317  1 15.704057 44.257513 47.112836
10318  1 15.704103 44.257459 49.968090
10319  1 15.704134 44.257421 52.823345
10320  1 15.704148 44.257404 55.678602
10336  1 15.704057 47.112836 44.257513
10337  1 15.704088 47.112799 47.112799
10338  1 15.704117 47.112762 49.968073
10339  1 15.704140 47.112733 52.823336
10340  1 15.704151 47.112716 55.678602
10356  1 15.704103 49.968090 44.257459
10357  1 15.704117 49.968073 47.112762
10358  1 15.704134 49.968050 49.968050
10359  1 15.704145 49.968030 52.823328
10360  1 15.704154 49.968019 55.678597
10376  1 15.704134 52.823345 44.257421
10377  1 15.704140 52.823336 47.112733
10378  1 15.704145 52.823328 49.968030
10379  1 15.704154 52.823316 52.823316
10380  1 15.704157 52.823311 55.678594
10396  1 15.704148 55.678602 44.257404
10397  1 15.704151 55.678602 47.112716
10398  1 15.704154 55.678597 49.968019
10399  1 15.704157 55.678594 52.823311
10400  1 15.704160 55.678594 55.678594
10716  1 18.559340 44.257590 44.257590
10717  1 18.559391 44.257524 47.112844
10718  1 18.559434 44.257464 49.968090
10719  1 18.559460 44.257421 52.823345
10720  1 18.559474 44.257401 55.678602
10736  1 18.559391 47.112844 44.257524
10737  1 18.559420 47.112807 47.112807
10738  1 18.559446 47.112767 49.968076
10739  1 18.559466 47.112733 52.823339
10740  1 18.559474 47.112716 55.678602
10756  1 18.559434 49.968090 44.257464
10757  1 18.559446 49.968076 47.112767
10758  1 18.559460 49.968053 49.968053
10759  1 18.559471 49.968030 52.823328
10760  1 18.559477 49.968019 55.678599
10776  1 18.559460 52.823345 44.257421
10777  1 18.559466 52.823339 47.112733
10778  1 18.559471 52.823328 49.968030
10779  1 18.559477 52.823316 52.823316
10780  1 18.559480 52.823311 55.678597
10796  1 18.559474 55.678602 44.257401
10797  1 18.559474 55.678602 47.112716
10798  1 18.559477 55.678599 49.968019
10799  1 18.559480 55.678597 52.823311
10800  1 18.559480 55.678594 55.678594
2801   1 19.987141  0.000000  0.000000
2802   1 19.987141  0.000000  2.855280
2803   1 19.987141  0.000000  5.710569
2804   1 19.987139  0.000000  8.565866
2805   1 19.987139  0.000000 11.421175
2821   1 19.987141  2.855280  0.000000
2822   1 19.987141  2.855277  2.855277
2823   1 19.987139  2.855272  5.710563
2824   1 19.987136  2.855266  8.565858
2825   1 19.987133  2.855260 11.421167
2841   1 19.987141  5.710569  0.000000
2842   1 19.987139  5.710563  2.855272
2843   1 19.987133  5.710549  5.710549
2844   1 19.987124  5.710532  8.565835
2845   1 19.987119  5.710520 11.421138
2861   1 19.987139  8.565866  0.000000
2862   1 19.987136  8.565858  2.855266
2863   1 19.987124  8.565835  5.710532
2864   1 19.987110  8.565806  8.565806
2865   1 19.987093  8.565775 11.421089
2881   1 19.987139 11.421175  0.000000
2882   1 19.987133 11.421167  2.855260
2883   1 19.987119 11.421138  5.710520
2884   1 19.987093 11.421089  8.565775
2885   1 19.987061 11.421035 11.421035
3201   1 22.842467  0.000000  0.000000
3202   1 22.842467  0.000000  2.855280
3203   1 22.842464  0.000000  5.710569
3204   1 22.842464  0.000000  8.565866
3205   1 22.842464  0.000000 11.421178
3221   1 22.842467  2.855280  0.000000
3222   1 22.842464  2.855277  2.855277
3223   1 22.842464  2.855272  5.710563
3224   1 22.842462  2.855266  8.565861
3225   1 22.842462  2.855263 11.421169
3241   1 22.842464  5.710569  0.000000
3242   1 22.842464  5.710563  2.855272
3243   1 22.842462  5.710549  5.710549
3244   1 22.842456  5.710532  8.565835
3245   1 22.842450  5.710520 11.421138
3261   1 22.842464  8.565866  0.000000
3262   1 22.842462  8.565861  2.855266
3263   1 22.842456  8.565835  5.710532
3264   1 22.842444  8.565806  8.565806
3265   1 22.842433  8.565778 11.421092
3281   1 22.842464 11.421178  0.000000
3282   1 22.842462 11.421169  2.855263
3283   1 22.842450 11.421138  5.710520
3284   1 22.842433 11.421092  8.565778
3285   1 22.842410 11.421038 11.421038
3601   1 25.697790  0.000000  0.000000
3602   1 25.697790  0.000000  2.855280
3603   1 25.697790  0.000000  5.710569
3604   1 25.697790  0.000000  8.565869
3605   1 25.697790  0.000000 11.421181
3621   1 25.697790  2.855280  0.000000
3622   1 25.697790  2.855277  2.855277
3623   1 25.697790  2.855272  5.710563
3624   1 25.697790  2.855266  8.565861
3625   1 25.697787  2.855263 11.421172
3641   1 25.697790  5.710569  0.000000
3642   1 25.697790  5.710563  2.855272
3643   1 25.697787  5.710549  5.710549
3644   1 25.697785  5.710532  8.565838
3645   1 25.697785  5.710523 11.421141
3661   1 25.697790  8.565869  0.000000
3662   1 25.697790  8.565861  2.855266
3663   1 25.697785  8.565838  5.710532
3664   1 25.697782  8.565806  8.565806
3665   1 25.697776  8.565778 11.421092
3681   1 25.697790 11.421181  0.000000
3682   1 25.697787 11.421172  2.855263
3683   1 25.697785 11.421141  5.710523
3684   1 25.697776 11.421092  8.565778
3685   1 25.697765 11.421038 11.421038
4001   1 28.553116  0.000000  0.000000
4002   1 28.553116  0.000000  2.855280
4003   1 28.553116  0.000000  5.710569
4004   1 28.553116  0.000000  8.565869
4005   1 28.553116  0.000000 11.421184
4021   1 28.553116  2.855280  0.000000
4022   1 28.553116  2.855277  2.855277
4023   1 28.553116  2.855272  5.710563
4024   1 28.553116  2.855266  8.565861
4025   1 28.553116  2.855263 11.421172
4041   1 28.553116  5.710569  0.000000
4042   1 28.553116  5.710563  2.855272
4043   1 28.553116  5.710549  5.710549
4044   1 28.553116  5.710532  8.565838
4045   1 28.553116  5.710523 11.421141
4061   1 28.553116  8.565869  0.000000
4062   1 28.553116  8.565861  2.855266
4063   1 28.553116  8.565838  5.710532
4064   1 28.553116  8.565806  8.565806
4065   1 28.553116  8.565778 11.421092
4081   1 28.553116 11.421184  0.000000
4082   1 28.553116 11.421172  2.855263
4083   1 28.553116 11.421141  5.710523
4084   1 28.553116 11.421092  8.565778
4085   1 28.553116 11.421041 11.421041
4401   1 31.408442  0.000000  0.000000
4402   1 31.408442  0.000000  2.855280
4403   1 31.408442  0.000000  5.710569
4404   1 31.408442  0.000000  8.565869
4405   1 31.408442  0.000000 11.421181
4421   1 31.408442  2.855280  0.000000
4422   1 31.408442  2.855277  2.855277
4423   1 31.408442  2.855272  5.710563
4424   1 31.408445  2.855266  8.565861
4425   1 31.408445  2.855263 11.421172
4441   1 31.408442  5.710569  0.000000
4442   1 31.408442  5.710563  2.855272
4443   1 31.408445  5.710549  5.710549
4444   1 31.408448  5.710532  8.565838
4445   1 31.408448  5.710523 11.421141
4461   1 31.408442  8.565869  0.000000
4462   1 31.408445  8.565861  2.855266
4463   1 31.408448  8.565838  5.710532
4464   1 31.408451  8.565806  8.565806
4465   1 31.408456  8.565778 11.421092
4481   1 31.408442 11.421181  0.000000
4482   1 31.408445 11.421172  2.855263
4483   1 31.408448 11.421141  5.710523
4484   1 31.408456 11.421092  8.565778
4485   1 31.408468 11.421038 11.421038
4801   1 34.263765  0.000000  0.000000
4802   1 34.263768  0.000000  2.855280
4803   1 34.263768  0.000000  5.710569
4804   1 34.263768  0.000000  8.565866
4805   1 34.263768  0.000000 11.421178
4821   1 34.263768  2.855280  0.000000
4822   1 34.263768  2.855277  2.855277
4823   1 34.263768  2.855272  5.710563
4824   1 34.263771  2.855266  8.565861
4825   1 34.263771  2.855263 11.421169
4841   1 34.263768  5.710569  0.000000
4842   1 34.263768  5.710563  2.855272
4843   1 34.263774  5.710549  5.710549
4844   1 34.263777  5.710532  8.565835
4845   1 34.263782  5.710520 11.421138
4861   1 34.263768  8.565866  0.000000
4862   1 34.263771  8.565861  2.855266
4863   1 34.263777  8.565835  5.710532
4864   1 34.263788  8.565806  8.565806
4865   1 34.263799  8.565778 11.421092
4881   1 34.263768 11.421178  0.000000
4882   1 34.263771 11.421169  2.855263
4883   1 34.263782 11.421138  5.710520
4884   1 34.263799 11.421092  8.565778
4885   1 34.263822 11.421038 11.421038
5201   1 37.119091  0.000000  0.000000
5202   1 37.119091  0.000000  2.855280
5203   1 37.119094  0.000000  5.710569
5204   1 37.119094  0.000000  8.565866
5205   1 37.119094  0.000000 11.421175
5221   1 37.119091  2.855280  0.000000
5222   1 37.119091  2.855277  2.855277
5223   1 37.119094  2.855272  5.710563
5224   1 37.119097  2.855266  8.565858
5225   1 37.119100  2.855260 11.421167
5241   1 37.119094  5.710569  0.000000
5242   1 37.119094  5.710563  2.855272
5243   1 37.119100  5.710549  5.710549
5244   1 37.119108  5.710532  8.565835
5245   1 37.119114  5.710520 11.421138
5261   1 37.119094  8.565866  0.000000
5262   1 37.119097  8.565858  2.855266
5263   1 37.119108  8.565835  5.710532
5264   1 37.119122  8.565806  8.565806
5265   1 37.119140  8.565775 11.421089
5281   1 37.119094 11.421175  0.000000
5282   1 37.119100 11.421167  2.855260
5283   1 37.119114 11.421138  5.710520
5284   1 37.119140 11.421089  8.565775
5285   1 37.119174 11.421035 11.421035
10801  1 21.414803  1.427639  1.427639
10802  1 21.414803  1.427639  4.282922
10803  1 21.414800  1.427633  7.138213
10804  1 21.414800  1.427633  9.993519
10805  1 21.414800  1.427630 12.848834
10821  1 21.414803  4.282922  1.427639
10822  1 21.414800  4.282916  4.282916
10823  1 21.414797  4.282905  7.138202
10824  1 21.414794  4.282893  9.993499
10825  1 21.414791  4.282890 12.848814
10841  1 21.414800  7.138213  1.427633
10842  1 21.414797  7.138202  4.282905
10843  1 21.414789  7.138179  7.138179
10844  1 21.414780  7.138156  9.993465
10845  1 21.414771  7.138142 12.848771
10861  1 21.414800  9.993519  1.427633
10862  1 21.414794  9.993499  4.282893
10863  1 21.414780  9.993465  7.138156
10864  1 21.414760  9.993425  9.993425
10865  1 21.414740  9.993388 12.848708
10881  1 21.414800 12.848834  1.427630
10882  1 21.414791 12.848814  4.282890
10883  1 21.414771 12.848771  7.138142
10884  1 21.414740 12.848708  9.993388
10885  1 21.414700 12.848637 12.848637
11201  1 24.270129  1.427639  1.427639
11202  1 24.270129  1.427639  4.282922
11203  1 24.270126  1.427633  7.138216
11204  1 24.270126  1.427633  9.993519
11205  1 24.270126  1.427633 12.848837
11221  1 24.270129  4.282922  1.427639
11222  1 24.270126  4.282916  4.282916
11223  1 24.270126  4.282905  7.138202
11224  1 24.270123  4.282896  9.993502
11225  1 24.270120  4.282893 12.848817
11241  1 24.270126  7.138216  1.427633
11242  1 24.270126  7.138202  4.282905
11243  1 24.270120  7.138179  7.138179
11244  1 24.270115  7.138156  9.993468
11245  1 24.270109  7.138148 12.848774
11261  1 24.270126  9.993519  1.427633
11262  1 24.270123  9.993502  4.282896
11263  1 24.270115  9.993468  7.138156
11264  1 24.270103  9.993425  9.993425
11265  1 24.270089  9.993391 12.848711
11281  1 24.270126 12.848837  1.427633
11282  1 24.270120 12.848817  4.282893
11283  1 24.270109 12.848774  7.138148
11284  1 24.270089 12.848711  9.993391
11285  1 24.270066 12.848640 12.848640
11601  1 27.125455  1.427639  1.427639
11602  1 27.125455  1.427639  4.282922
11603  1 27.125455  1.427633  7.138216
11604  1 27.125452  1.427633  9.993522
11605  1 27.125455  1.427633 12.848839
11621  1 27.125455  4.282922  1.427639
11622  1 27.125452  4.282916  4.282916
11623  1 27.125452  4.282905  7.138202
11624  1 27.125452  4.282896  9.993502
11625  1 27.125452  4.282896 12.848817
11641  1 27.125455  7.138216  1.427633
11642  1 27.125452  7.138202  4.282905
11643  1 27.125452  7.138179  7.138179
11644  1 27.125449  7.138159  9.993468
11645  1 27.125446  7.138148 12.848774
11661  1 27.125452  9.993522  1.427633
11662  1 27.125452  9.993502  4.282896
11663  1 27.125449  9.993468  7.138159
11664  1 27.125446  9.993425  9.993425
11665  1 27.125440  9.993394 12.848711
11681  1 27.125455 12.848839  1.427633
11682  1 27.125452 12.848817  4.282896
11683  1 27.125446 12.848774  7.138148
11684  1 27.125440 12.848711  9.993394
11685  1 27.125432 12.848642 12.848642
12001  1 29.980778  1.427639  1.427639
12002  1 29.980781  1.427639  4.282922
12003  1 29.980781  1.427633  7.138216
12004  1 29.980781  1.427633  9.993522
12005  1 29.980781  1.427633 12.848839
12021  1 29.980781  4.282922  1.427639
12022  1 29.980781  4.282916  4.282916
12023  1 29.980781  4.282905  7.138202
12024  1 29.980781  4.282896  9.993502
12025  1 29.980781  4.282896 12.848817
12041  1 29.980781  7.138216  1.427633
12042  1 29.980781  7.138202  4.282905
12043  1 29.980781  7.138179  7.138179
12044  1 29.980783  7.138159  9.993468
12045  1 29.980786  7.138148 12.848774
12061  1 29.980781  9.993522  1.427633
12062  1 29.980781  9.993502  4.282896
12063  1 29.980783  9.993468  7.138159
12064  1 29.980786  9.993425  9.993425
12065  1 29.980792  9.993394 12.848711
12081  1 29.980781 12.848839  1.427633
12082  1 29.980781 12.848817  4.282896
12083  1 29.980786 12.848774  7.138148
12084  1 29.980792 12.848711  9.993394
12085  1 29.980801 12.848642 12.848642
12401  1 32.836104  1.427639  1.427639
12402  1 32.836104  1.427639  4.282922
12403  1 32.836106  1.427633  7.138216
12404  1 32.836106  1.427633  9.993519
12405  1 32.836106  1.427633 12.848837
12421  1 32.836104  4.282922  1.427639
12422  1 32.836106  4.282916  4.282916
12423  1 32.836109  4.282905  7.138202
12424  1 32.836109  4.282896  9.993502
12425  1 32.836112  4.282893 12.848817
12441  1 32.836106  7.138216  1.427633
12442  1 32.836109  7.138202  4.282905
12443  1 32.836112  7.138179  7.138179
12444  1 32.836118  7.138156  9.993468
12445  1 32.836124  7.138148 12.848774
12461  1 32.836106  9.993519  1.427633
12462  1 32.836109  9.993502  4.282896
12463  1 32.836118  9.993468  7.138156
12464  1 32.836129  9.993425  9.993425
12465  1 32.836144  9.993391 12.848711
12481  1 32.836106 12.848837  1.427633
12482  1 32.836112 12.848817  4.282893
12483  1 32.836124 12.848774  7.138148
12484  1 32.836144 12.848711  9.993391
12485  1 32.836166 12.848640 12.848640
12801  1 35.691430  1.427639  1.427639
12802  1 35.691430  1.427639  4.282922
12803  1 35.691432  1.427633  7.138213
12804  1 35.691432  1.427633  9.993519
12805  1 35.691432  1.427630 12.848834
12821  1 35.691430  4.282922  1.427639
12822  1 35.691432  4.282916  4.282916
12823  1 35.691435  4.282905  7.138202
12824  1 35.691441  4.282893  9.993499
12825  1 35.691441  4.282890 12.848814
12841  1 35.691432  7.138213  1.427633
12842  1 35.691435  7.138202  4.282905
12843  1 35.691444  7.138179  7.138179
12844  1 35.691452  7.138156  9.993465
12845  1 35.691464  7.138142 12.848771
12861  1 35.691432  9.993519  1.427633
12862  1 35.691441  9.993499  4.282893
12863  1 35.691452  9.993465  7.138156
12864  1 35.691472  9.993425  9.993425
12865  1 35.691492  9.993388 12.848708
12881  1 35.691432 12.848834  1.427630
12882  1 35.691441 12.848814  4.282890
12883  1 35.691464 12.848771  7.138142
12884  1 35.691492 12.848708  9.993388
12885  1 35.691535 12.848637 12.848637
2901   1 19.987139 14.276495  0.000000
2902   1 19.987133 14.276487  2.855263
2903   1 19.987113 14.276452  5.710518
2904   1 19.987079 14.276395  8.565761
2905   1 19.987024 14.276315 11.420990
3301   1 22.842464 14.276501  0.000000
3302   1 22.842462 14.276490  2.855266
3303   1 22.842447 14.276455  5.710520
3304   1 22.842424 14.276398  8.565764
3305   1 22.842387 14.276315 11.420992
3701   1 25.697790 14.276504  0.000000
3702   1 25.697790 14.276492  2.855266
3703   1 25.697782 14.276461  5.710526
3704   1 25.697770 14.276401  8.565769
3705   1 25.697753 14.276321 11.420998
4101   1 28.553116 14.276504  0.000000
4102   1 28.553116 14.276495  2.855269
4103   1 28.553116 14.276461  5.710526
4104   1 28.553116 14.276404  8.565772
4105   1 28.553116 14.276321 11.421001
4501   1 31.408442 14.276504  0.000000
4502   1 31.408445 14.276492  2.855266
4503   1 31.408451 14.276461  5.710526
4504   1 31.408462 14.276401  8.565769
4505   1 31.408482 14.276321 11.420998
4901   1 34.263768 14.276501  0.000000
4902   1 34.263771 14.276490  2.855266
4903   1 34.263785 14.276455  5.710520
4904   1 34.263808 14.276398  8.565764
4905   1 34.263845 14.276315 11.420992
5301   1 37.119094 14.276495  0.000000
5302   1 37.119100 14.276487  2.855263
5303   1 37.119120 14.276452  5.710518
5304   1 37.119154 14.276395  8.565761
5305   1 37.119208 14.276315 11.420990
2806   1 19.987139  0.000000 14.276495
2826   1 19.987133  2.855263 14.276487
2846   1 19.987113  5.710518 14.276452
2866   1 19.987079  8.565761 14.276395
2886   1 19.987024 11.420990 14.276315
5306   1 37.119277 14.276227 14.276227
3206   1 22.842464  0.000000 14.276501
3226   1 22.842462  2.855266 14.276490
3246   1 22.842447  5.710520 14.276455
3266   1 22.842424  8.565764 14.276398
4906   1 34.263894 14.276224 14.276224
3286   1 22.842387 11.420992 14.276315
3606   1 25.697790  0.000000 14.276504
3626   1 25.697790  2.855266 14.276492
3646   1 25.697782  5.710526 14.276461
4506   1 31.408505 14.276230 14.276230
3666   1 25.697770  8.565769 14.276401
3686   1 25.697753 11.420998 14.276321
4006   1 28.553116  0.000000 14.276504
4026   1 28.553116  2.855269 14.276495
4106   1 28.553116 14.276233 14.276233
4046   1 28.553116  5.710526 14.276461
4066   1 28.553116  8.565772 14.276404
4086   1 28.553116 11.421001 14.276321
4406   1 31.408442  0.000000 14.276504
3706   1 25.697727 14.276230 14.276230
4426   1 31.408445  2.855266 14.276492
4446   1 31.408451  5.710526 14.276461
4466   1 31.408462  8.565769 14.276401
4486   1 31.408482 11.420998 14.276321
3306   1 22.842339 14.276224 14.276224
4806   1 34.263768  0.000000 14.276501
4826   1 34.263771  2.855266 14.276490
4846   1 34.263785  5.710520 14.276455
4866   1 34.263808  8.565764 14.276398
2906   1 19.986959 14.276227 14.276227
4886   1 34.263845 11.420992 14.276315
5206   1 37.119094  0.000000 14.276495
5226   1 37.119100  2.855263 14.276487
5246   1 37.119120  5.710518 14.276452
5266   1 37.119154  8.565761 14.276395
5286   1 37.119208 11.420990 14.276315
5310   1 37.119388 14.276187 25.697685
2807   1 19.987141  0.000000 17.131821
2808   1 19.987147  0.000000 19.987147
2809   1 19.987153  0.000000 22.842473
2810   1 19.987156  0.000000 25.697796
5309   1 37.119402 14.276150 22.842250
2827   1 19.987136  2.855269 17.131813
2828   1 19.987139  2.855275 19.987139
2829   1 19.987144  2.855283 22.842467
2830   1 19.987150  2.855289 25.697793
5308   1 37.119394 14.276124 19.986839
2847   1 19.987113  5.710526 17.131781
2848   1 19.987116  5.710540 19.987116
2849   1 19.987121  5.710558 22.842453
2850   1 19.987127  5.710569 25.697785
5307   1 37.119345 14.276150 17.131496
2867   1 19.987070  8.565764 17.131724
2868   1 19.987070  8.565781 19.987070
2869   1 19.987076  8.565806 22.842419
2870   1 19.987084  8.565826 25.697770
4910   1 34.263971 14.276287 25.697685
2887   1 19.986996 11.420970 17.131633
2888   1 19.986984 11.420984 19.986984
2889   1 19.986990 11.421015 22.842362
2890   1 19.986999 11.421044 25.697739
4909   1 34.263991 14.276213 22.842245
3207   1 22.842467  0.000000 17.131827
3208   1 22.842473  0.000000 19.987153
3209   1 22.842476  0.000000 22.842476
3210   1 22.842479  0.000000 25.697796
4908   1 34.263982 14.276150 19.986830
3227   1 22.842464  2.855272 17.131815
3228   1 22.842467  2.855283 19.987144
3229   1 22.842470  2.855292 22.842470
3230   1 22.842476  2.855300 25.697796
4907   1 34.263945 14.276156 17.131490
3247   1 22.842447  5.710535 17.131787
3248   1 22.842453  5.710558 19.987121
3249   1 22.842456  5.710578 22.842456
3250   1 22.842462  5.710592 25.697787
4510   1 31.408536 14.276398 25.697696
3267   1 22.842419  8.565775 17.131730
3268   1 22.842419  8.565806 19.987076
3269   1 22.842427  8.565843 22.842427
3270   1 22.842433  8.565869 25.697773
4509   1 31.408551 14.276287 22.842262
3287   1 22.842367 11.420984 17.131633
3288   1 22.842362 11.421015 19.986990
3289   1 22.842367 11.421069 22.842367
3290   1 22.842379 11.421115 25.697745
4508   1 31.408548 14.276187 19.986844
3607   1 25.697793  0.000000 17.131830
3608   1 25.697796  0.000000 19.987156
3609   1 25.697796  0.000000 22.842479
3610   1 25.697799  0.000000 25.697799
4507   1 31.408531 14.276170 17.131499
3627   1 25.697790  2.855277 17.131821
3628   1 25.697793  2.855289 19.987150
3629   1 25.697796  2.855300 22.842476
3630   1 25.697796  2.855306 25.697796
4110   1 28.553116 14.276447 25.697705
3647   1 25.697782  5.710543 17.131793
3648   1 25.697785  5.710569 19.987127
3649   1 25.697787  5.710592 22.842462
3650   1 25.697790  5.710612 25.697790
4109   1 28.553116 14.276318 22.842273
3667   1 25.697767  8.565786 17.131736
3668   1 25.697770  8.565826 19.987084
3669   1 25.697773  8.565869 22.842433
3670   1 25.697779  8.565903 25.697779
4108   1 28.553116 14.276204 19.986853
3687   1 25.697742 11.420998 17.131641
3688   1 25.697739 11.421044 19.986999
3689   1 25.697745 11.421115 22.842379
3690   1 25.697750 11.421175 25.697750
4107   1 28.553116 14.276175 17.131504
4007   1 28.553116  0.000000 17.131833
4008   1 28.553116  0.000000 19.987158
4009   1 28.553116  0.000000 22.842479
4010   1 28.553116  0.000000 25.697799
3710   1 25.697696 14.276398 25.697696
4027   1 28.553116  2.855277 17.131821
4028   1 28.553116  2.855292 19.987150
4029   1 28.553116  2.855303 22.842476
4030   1 28.553116  2.855309 25.697799
3709   1 25.697685 14.276287 22.842262
4047   1 28.553116  5.710546 17.131793
4048   1 28.553116  5.710572 19.987130
4049   1 28.553116  5.710598 22.842464
4050   1 28.553116  5.710618 25.697790
3708   1 25.697685 14.276187 19.986844
4067   1 28.553116  8.565792 17.131738
4068   1 28.553116  8.565832 19.987087
4069   1 28.553116  8.565881 22.842436
4070   1 28.553116  8.565915 25.697779
3707   1 25.697702 14.276170 17.131499
4087   1 28.553116 11.421004 17.131644
4088   1 28.553116 11.421052 19.987004
4089   1 28.553116 11.421132 22.842384
4090   1 28.553116 11.421201 25.697756
3310   1 22.842262 14.276287 25.697685
4407   1 31.408439  0.000000 17.131830
4408   1 31.408439  0.000000 19.987156
4409   1 31.408436  0.000000 22.842479
4410   1 31.408434  0.000000 25.697799
3309   1 22.842245 14.276213 22.842245
4427   1 31.408442  2.855277 17.131821
4428   1 31.408439  2.855289 19.987150
4429   1 31.408439  2.855300 22.842476
4430   1 31.408436  2.855306 25.697796
3308   1 22.842250 14.276150 19.986830
4447   1 31.408451  5.710543 17.131793
4448   1 31.408448  5.710569 19.987127
4449   1 31.408445  5.710592 22.842462
4450   1 31.408442  5.710612 25.697790
3307   1 22.842287 14.276156 17.131490
4467   1 31.408465  8.565786 17.131736
4468   1 31.408462  8.565826 19.987084
4469   1 31.408459  8.565869 22.842433
4470   1 31.408456  8.565903 25.697779
2910   1 19.986844 14.276187 25.697685
4487   1 31.408491 11.420998 17.131641
4488   1 31.408493 11.421044 19.986999
4489   1 31.408488 11.421115 22.842379
4490   1 31.408482 11.421175 25.697750
2909   1 19.986830 14.276150 22.842250
4807   1 34.263765  0.000000 17.131827
4808   1 34.263759  0.000000 19.987153
4809   1 34.263757  0.000000 22.842476
4810   1 34.263754  0.000000 25.697796
2908   1 19.986839 14.276124 19.986839
4827   1 34.263768  2.855272 17.131815
4828   1 34.263765  2.855283 19.987144
4829   1 34.263762  2.855292 22.842470
4830   1 34.263759  2.855300 25.697796
2907   1 19.986887 14.276150 17.131496
4847   1 34.263785  5.710535 17.131787
4848   1 34.263782  5.710558 19.987121
4849   1 34.263777  5.710578 22.842456
4850   1 34.263771  5.710592 25.697787
12890  1 35.691598 12.848680 27.125418
4867   1 34.263814  8.565775 17.131730
4868   1 34.263814  8.565806 19.987076
4869   1 34.263808  8.565843 22.842427
4870   1 34.263799  8.565869 25.697773
12889  1 35.691609 12.848645 24.270015
4887   1 34.263865 11.420984 17.131633
4888   1 34.263871 11.421015 19.986990
4889   1 34.263868 11.421069 22.842367
4890   1 34.263854 11.421115 25.697745
12888  1 35.691621 12.848597 21.414612
5207   1 37.119091  0.000000 17.131821
5208   1 37.119085  0.000000 19.987147
5209   1 37.119080  0.000000 22.842473
5210   1 37.119077  0.000000 25.697796
12887  1 35.691609 12.848565 18.559237
5227   1 37.119097  2.855269 17.131813
5228   1 37.119094  2.855275 19.987139
5229   1 37.119088  2.855283 22.842467
5230   1 37.119082  2.855289 25.697793
12886  1 35.691578 12.848580 15.703911
5247   1 37.119120  5.710526 17.131781
5248   1 37.119117  5.710540 19.987116
5249   1 37.119111  5.710558 22.842453
5250   1 37.119105  5.710569 25.697785
12870  1 35.691501  9.993479 27.125438
5267   1 37.119162  8.565764 17.131724
5268   1 37.119162  8.565781 19.987070
5269   1 37.119157  8.565806 22.842419
5270   1 37.119148  8.565826 25.697770
12869  1 35.691507  9.993456 24.270077
5287   1 37.119237 11.420970 17.131633
5288   1 37.119248 11.420984 19.986984
5289   1 37.119242 11.421015 22.842362
5290   1 37.119234 11.421044 25.697739
10806  1 21.414803  1.427633 15.704157
10807  1 21.414806  1.427639 18.559486
10808  1 21.414811  1.427642 21.414811
10809  1 21.414814  1.427647 24.270134
10810  1 21.414817  1.427647 27.125455
10826  1 21.414791  4.282896 15.704137
10827  1 21.414794  4.282907 18.559468
10828  1 21.414797  4.282922 21.414797
10829  1 21.414803  4.282936 24.270129
10830  1 21.414806  4.282942 27.125455
10846  1 21.414766  7.138145 15.704091
10847  1 21.414766  7.138162 18.559428
10848  1 21.414771  7.138188 21.414771
10849  1 21.414777  7.138211 24.270112
10850  1 21.414783  7.138222 27.125449
10866  1 21.414723  9.993374 15.704017
10867  1 21.414714  9.993388 18.559357
10868  1 21.414714  9.993422 21.414714
10869  1 21.414726  9.993456 24.270077
10870  1 21.414732  9.993479 27.125438
10886  1 21.414657 12.848580 15.703911
10887  1 21.414623 12.848565 18.559237
10888  1 21.414612 12.848597 21.414612
10889  1 21.414623 12.848645 24.270015
10890  1 21.414634 12.848680 27.125418
11206  1 24.270129  1.427636 15.704163
11207  1 24.270132  1.427642 18.559488
11208  1 24.270134  1.427647 21.414814
11209  1 24.270137  1.427650 24.270137
11210  1 24.270140  1.427653 27.125458
11226  1 24.270123  4.282902 15.704143
11227  1 24.270123  4.282916 18.559474
11228  1 24.270129  4.282936 21.414803
11229  1 24.270132  4.282950 24.270132
11230  1 24.270134  4.282959 27.125455
11246  1 24.270106  7.138153 15.704097
11247  1 24.270106  7.138179 18.559434
11248  1 24.270112  7.138211 21.414777
11249  1 24.270117  7.138239 24.270117
11250  1 24.270120  7.138253 27.125449
11266  1 24.270080  9.993382 15.704023
11267  1 24.270075  9.993408 18.559366
11268  1 24.270077  9.993456 21.414726
11269  1 24.270086  9.993505 24.270086
11270  1 24.270092  9.993536 27.125440
11286  1 24.270040 12.848588 15.703914
11287  1 24.270020 12.848588 18.559243
11288  1 24.270015 12.848645 21.414623
11289  1 24.270023 12.848728 24.270023
11290  1 24.270037 12.848780 27.125420
11606  1 27.125455  1.427636 15.704165
11607  1 27.125455  1.427642 18.559491
11608  1 27.125455  1.427647 21.414817
11609  1 27.125458  1.427653 24.270140
11610  1 27.125458  1.427656 27.125458
11626  1 27.125452  4.282905 15.704145
11627  1 27.125452  4.282922 18.559477
11628  1 27.125455  4.282942 21.414806
11629  1 27.125455  4.282959 24.270134
11630  1 27.125455  4.282967 27.125455
11646  1 27.125446  7.138159 15.704100
11647  1 27.125446  7.138188 18.559440
11648  1 27.125449  7.138222 21.414783
11649  1 27.125449  7.138253 24.270120
11650  1 27.125452  7.138273 27.125452
11666  1 27.125438  9.993388 15.704025
11667  1 27.125438  9.993422 18.559371
11668  1 27.125438  9.993479 21.414732
11669  1 27.125440  9.993536 24.270092
11670  1 27.125443  9.993571 27.125443
11686  1 27.125423 12.848597 15.703920
11687  1 27.125418 12.848605 18.559251
11688  1 27.125418 12.848680 21.414634
11689  1 27.125420 12.848780 24.270037
11690  1 27.125426 12.848848 27.125426
12006  1 29.980778  1.427636 15.704165
12007  1 29.980778  1.427642 18.559491
12008  1 29.980778  1.427647 21.414817
12009  1 29.980775  1.427653 24.270140
12010  1 29.980775  1.427656 27.125458
12026  1 29.980781  4.282905 15.704145
12027  1 29.980781  4.282922 18.559477
12028  1 29.980778  4.282942 21.414806
12029  1 29.980778  4.282959 24.270134
12030  1 29.980778  4.282967 27.125455
12046  1 29.980786  7.138159 15.704100
12047  1 29.980786  7.138188 18.559440
12048  1 29.980783  7.138222 21.414783
12049  1 29.980783  7.138253 24.270120
12050  1 29.980781  7.138273 27.125452
12066  1 29.980795  9.993388 15.704025
12067  1 29.980795  9.993422 18.559371
12068  1 29.980795  9.993479 21.414732
12069  1 29.980792  9.993536 24.270092
12070  1 29.980789  9.993571 27.125443
12086  1 29.980809 12.848597 15.703920
12087  1 29.980815 12.848605 18.559251
12088  1 29.980815 12.848680 21.414634
12089  1 29.980812 12.848780 24.270037
12090  1 29.980806 12.848848 27.125426
12406  1 32.836104  1.427636 15.704163
12407  1 32.836101  1.427642 18.559488
12408  1 32.836098  1.427647 21.414814
12409  1 32.836095  1.427650 24.270137
12410  1 32.836095  1.427653 27.125458
12426  1 32.836112  4.282902 15.704143
12427  1 32.836109  4.282916 18.559474
12428  1 32.836106  4.282936 21.414803
12429  1 32.836101  4.282950 24.270132
12430  1 32.836101  4.282959 27.125455
12446  1 32.836126  7.138153 15.704097
12447  1 32.836126  7.138179 18.559434
12448  1 32.836121  7.138211 21.414777
12449  1 32.836118  7.138239 24.270117
12450  1 32.836112  7.138253 27.125449
12466  1 32.836152  9.993382 15.704023
12467  1 32.836158  9.993408 18.559366
12468  1 32.836155  9.993456 21.414726
12469  1 32.836146  9.993505 24.270086
12470  1 32.836141  9.993536 27.125440
12486  1 32.836192 12.848588 15.703914
12487  1 32.836212 12.848588 18.559243
12488  1 32.836218 12.848645 21.414623
12489  1 32.836209 12.848728 24.270023
12490  1 32.836195 12.848780 27.125420
12806  1 35.691430  1.427633 15.704157
12807  1 35.691427  1.427639 18.559486
12808  1 35.691421  1.427642 21.414811
12809  1 35.691418  1.427647 24.270134
12810  1 35.691415  1.427647 27.125455
12826  1 35.691441  4.282896 15.704137
12827  1 35.691438  4.282907 18.559468
12828  1 35.691435  4.282922 21.414797
12829  1 35.691430  4.282936 24.270129
12830  1 35.691427  4.282942 27.125455
12846  1 35.691467  7.138145 15.704091
12847  1 35.691467  7.138162 18.559428
12848  1 35.691464  7.138188 21.414771
12849  1 35.691455  7.138211 24.270112
12850  1 35.691452  7.138222 27.125449
12866  1 35.691512  9.993374 15.704017
12867  1 35.691521  9.993388 18.559357
12868  1 35.691518  9.993422 21.414714
2811   1 19.987158  0.000000 28.553116
2812   1 19.987156  0.000000 31.408439
2813   1 19.987153  0.000000 34.263759
2814   1 19.987147  0.000000 37.119085
2815   1 19.987141  0.000000 39.974411
2831   1 19.987150  2.855292 28.553116
2832   1 19.987150  2.855289 31.408439
2833   1 19.987144  2.855283 34.263765
2834   1 19.987139  2.855275 37.119094
2835   1 19.987136  2.855269 39.974423
2851   1 19.987130  5.710572 28.553116
2852   1 19.987127  5.710569 31.408448
2853   1 19.987121  5.710558 34.263782
2854   1 19.987116  5.710540 37.119117
2855   1 19.987113  5.710526 39.974451
2871   1 19.987087  8.565832 28.553116
2872   1 19.987084  8.565826 31.408462
2873   1 19.987076  8.565806 34.263814
2874   1 19.987070  8.565781 37.119162
2875   1 19.987070  8.565764 39.974508
2891   1 19.987004 11.421052 28.553116
2892   1 19.986999 11.421044 31.408493
2893   1 19.986990 11.421015 34.263871
2894   1 19.986984 11.420984 37.119248
2895   1 19.986996 11.420970 39.974603
3211   1 22.842479  0.000000 28.553116
3212   1 22.842479  0.000000 31.408436
3213   1 22.842476  0.000000 34.263757
3214   1 22.842473  0.000000 37.119080
3215   1 22.842467  0.000000 39.974406
3231   1 22.842476  2.855303 28.553116
3232   1 22.842476  2.855300 31.408439
3233   1 22.842470  2.855292 34.263762
3234   1 22.842467  2.855283 37.119088
3235   1 22.842464  2.855272 39.974417
3251   1 22.842464  5.710598 28.553116
3252   1 22.842462  5.710592 31.408445
3253   1 22.842456  5.710578 34.263777
3254   1 22.842453  5.710558 37.119111
3255   1 22.842447  5.710535 39.974445
3271   1 22.842436  8.565881 28.553116
3272   1 22.842433  8.565869 31.408459
3273   1 22.842427  8.565843 34.263808
3274   1 22.842419  8.565806 37.119157
3275   1 22.842419  8.565775 39.974503
3291   1 22.842384 11.421132 28.553116
3292   1 22.842379 11.421115 31.408488
3293   1 22.842367 11.421069 34.263868
3294   1 22.842362 11.421015 37.119242
3295   1 22.842367 11.420984 39.974600
3611   1 25.697799  0.000000 28.553116
3612   1 25.697799  0.000000 31.408434
3613   1 25.697796  0.000000 34.263754
3614   1 25.697796  0.000000 37.119077
3615   1 25.697793  0.000000 39.974403
3631   1 25.697799  2.855309 28.553116
3632   1 25.697796  2.855306 31.408436
3633   1 25.697796  2.855300 34.263759
3634   1 25.697793  2.855289 37.119082
3635   1 25.697790  2.855277 39.974411
3651   1 25.697790  5.710618 28.553116
3652   1 25.697790  5.710612 31.408442
3653   1 25.697787  5.710592 34.263771
3654   1 25.697785  5.710569 37.119105
3655   1 25.697782  5.710543 39.974443
3671   1 25.697779  8.565915 28.553116
3672   1 25.697779  8.565903 31.408456
3673   1 25.697773  8.565869 34.263799
3674   1 25.697770  8.565826 37.119148
3675   1 25.697767  8.565786 39.974497
3691   1 25.697756 11.421201 28.553116
3692   1 25.697750 11.421175 31.408482
3693   1 25.697745 11.421115 34.263854
3694   1 25.697739 11.421044 37.119234
3695   1 25.697742 11.420998 39.974594
4011   1 28.553116  0.000000 28.553116
4012   1 28.553116  0.000000 31.408434
4013   1 28.553116  0.000000 34.263754
4014   1 28.553116  0.000000 37.119077
4015   1 28.553116  0.000000 39.974403
4031   1 28.553116  2.855312 28.553116
4032   1 28.553116  2.855309 31.408436
4033   1 28.553116  2.855303 34.263757
4034   1 28.553116  2.855292 37.119082
4035   1 28.553116  2.855277 39.974411
4051   1 28.553116  5.710623 28.553116
4052   1 28.553116  5.710618 31.408442
4053   1 28.553116  5.710598 34.263771
4054   1 28.553116  5.710572 37.119102
4055   1 28.553116  5.710546 39.974440
4071   1 28.553116  8.565929 28.553116
4072   1 28.553116  8.565915 31.408454
4073   1 28.553116  8.565881 34.263797
4074   1 28.553116  8.565832 37.119145
4075   1 28.553116  8.565792 39.974494
4091   1 28.553116 11.421226 28.553116
4092   1 28.553116 11.421201 31.408476
4093   1 28.553116 11.421132 34.263848
4094   1 28.553116 11.421052 37.119228
4095   1 28.553116 11.421004 39.974588
4411   1 31.408434  0.000000 28.553116
4412   1 31.408434  0.000000 31.408434
4413   1 31.408436  0.000000 34.263754
4414   1 31.408439  0.000000 37.119077
4415   1 31.408439  0.000000 39.974403
4431   1 31.408436  2.855309 28.553116
4432   1 31.408436  2.855306 31.408436
4433   1 31.408439  2.855300 34.263759
4434   1 31.408439  2.855289 37.119082
4435   1 31.408442  2.855277 39.974411
4451   1 31.408442  5.710618 28.553116
4452   1 31.408442  5.710612 31.408442
4453   1 31.408445  5.710592 34.263771
4454   1 31.408448  5.710569 37.119105
4455   1 31.408451  5.710543 39.974443
4471   1 31.408454  8.565915 28.553116
4472   1 31.408456  8.565903 31.408456
4473   1 31.408459  8.565869 34.263799
4474   1 31.408462  8.565826 37.119148
4475   1 31.408465  8.565786 39.974497
4491   1 31.408476 11.421201 28.553116
4492   1 31.408482 11.421175 31.408482
4493   1 31.408488 11.421115 34.263854
4494   1 31.408493 11.421044 37.119234
4495   1 31.408491 11.420998 39.974594
4811   1 34.263754  0.000000 28.553116
4812   1 34.263754  0.000000 31.408436
4813   1 34.263757  0.000000 34.263757
4814   1 34.263759  0.000000 37.119080
4815   1 34.263765  0.000000 39.974406
4831   1 34.263757  2.855303 28.553116
4832   1 34.263759  2.855300 31.408439
4833   1 34.263762  2.855292 34.263762
4834   1 34.263765  2.855283 37.119088
4835   1 34.263768  2.855272 39.974417
4851   1 34.263771  5.710598 28.553116
4852   1 34.263771  5.710592 31.408445
4853   1 34.263777  5.710578 34.263777
4854   1 34.263782  5.710558 37.119111
4855   1 34.263785  5.710535 39.974445
4871   1 34.263797  8.565881 28.553116
4872   1 34.263799  8.565869 31.408459
4873   1 34.263808  8.565843 34.263808
4874   1 34.263814  8.565806 37.119157
4875   1 34.263814  8.565775 39.974503
4891   1 34.263848 11.421132 28.553116
4892   1 34.263854 11.421115 31.408488
4893   1 34.263868 11.421069 34.263868
4894   1 34.263871 11.421015 37.119242
4895   1 34.263865 11.420984 39.974600
5211   1 37.119077  0.000000 28.553116
5212   1 37.119077  0.000000 31.408439
5213   1 37.119080  0.000000 34.263759
5214   1 37.119085  0.000000 37.119085
5215   1 37.119091  0.000000 39.974411
5231   1 37.119082  2.855292 28.553116
5232   1 37.119082  2.855289 31.408439
5233   1 37.119088  2.855283 34.263765
5234   1 37.119094  2.855275 37.119094
5235   1 37.119097  2.855269 39.974423
5251   1 37.119102  5.710572 28.553116
5252   1 37.119105  5.710569 31.408448
5253   1 37.119111  5.710558 34.263782
5254   1 37.119117  5.710540 37.119117
5255   1 37.119120  5.710526 39.974451
5271   1 37.119145  8.565832 28.553116
5272   1 37.119148  8.565826 31.408462
5273   1 37.119157  8.565806 34.263814
5274   1 37.119162  8.565781 37.119162
5275   1 37.119162  8.565764 39.974508
5291   1 37.119228 11.421052 28.553116
5292   1 37.119234 11.421044 31.408493
5293   1 37.119242 11.421015 34.263871
5294   1 37.119248 11.420984 37.119248
5295   1 37.119237 11.420970 39.974603
10811  1 21.414817  1.427647 29.980778
10812  1 21.414814  1.427647 32.836098
10813  1 21.414811  1.427642 35.691421
10814  1 21.414806  1.427639 38.546747
10815  1 21.414803  1.427633 41.402076
10831  1 21.414806  4.282942 29.980778
10832  1 21.414803  4.282936 32.836106
10833  1 21.414797  4.282922 35.691435
10834  1 21.414794  4.282907 38.546767
10835  1 21.414791  4.282896 41.402096
10851  1 21.414783  7.138222 29.980783
10852  1 21.414777  7.138211 32.836121
10853  1 21.414771  7.138188 35.691464
10854  1 21.414766  7.138162 38.546804
10855  1 21.414766  7.138145 41.402141
10871  1 21.414732  9.993479 29.980795
10872  1 21.414726  9.993456 32.836155
10873  1 21.414714  9.993422 35.691518
10874  1 21.414714  9.993388 38.546875
10875  1 21.414723  9.993374 41.402216
10891  1 21.414634 12.848680 29.980815
10892  1 21.414623 12.848645 32.836218
10893  1 21.414612 12.848597 35.691621
10894  1 21.414623 12.848565 38.546998
10895  1 21.414657 12.848580 41.402321
11211  1 24.270140  1.427653 29.980775
11212  1 24.270137  1.427650 32.836095
11213  1 24.270134  1.427647 35.691418
11214  1 24.270132  1.427642 38.546744
11215  1 24.270129  1.427636 41.402070
11231  1 24.270134  4.282959 29.980778
11232  1 24.270132  4.282950 32.836101
11233  1 24.270129  4.282936 35.691430
11234  1 24.270123  4.282916 38.546761
11235  1 24.270123  4.282902 41.402090
11251  1 24.270120  7.138253 29.980783
11252  1 24.270117  7.138239 32.836118
11253  1 24.270112  7.138211 35.691455
11254  1 24.270106  7.138179 38.546798
11255  1 24.270106  7.138153 41.402136
11271  1 24.270092  9.993536 29.980792
11272  1 24.270086  9.993505 32.836146
11273  1 24.270077  9.993456 35.691507
11274  1 24.270075  9.993408 38.546867
11275  1 24.270080  9.993382 41.402210
11291  1 24.270037 12.848780 29.980812
11292  1 24.270023 12.848728 32.836209
11293  1 24.270015 12.848645 35.691609
11294  1 24.270020 12.848588 38.546990
11295  1 24.270040 12.848588 41.402318
11611  1 27.125458  1.427656 29.980775
11612  1 27.125458  1.427653 32.836095
11613  1 27.125455  1.427647 35.691415
11614  1 27.125455  1.427642 38.546741
11615  1 27.125455  1.427636 41.402067
11631  1 27.125455  4.282967 29.980778
11632  1 27.125455  4.282959 32.836101
11633  1 27.125455  4.282942 35.691427
11634  1 27.125452  4.282922 38.546755
11635  1 27.125452  4.282905 41.402087
11651  1 27.125452  7.138273 29.980781
11652  1 27.125449  7.138253 32.836112
11653  1 27.125449  7.138222 35.691452
11654  1 27.125446  7.138188 38.546793
11655  1 27.125446  7.138159 41.402133
11671  1 27.125443  9.993571 29.980789
11672  1 27.125440  9.993536 32.836141
11673  1 27.125438  9.993479 35.691501
11674  1 27.125438  9.993422 38.546861
11675  1 27.125438  9.993388 41.402207
11691  1 27.125426 12.848848 29.980806
11692  1 27.125420 12.848780 32.836195
11693  1 27.125418 12.848680 35.691598
11694  1 27.125418 12.848605 38.546981
11695  1 27.125423 12.848597 41.402313
12011  1 29.980775  1.427656 29.980775
12012  1 29.980775  1.427653 32.836095
12013  1 29.980778  1.427647 35.691415
12014  1 29.980778  1.427642 38.546741
12015  1 29.980778  1.427636 41.402067
12031  1 29.980778  4.282967 29.980778
12032  1 29.980778  4.282959 32.836101
12033  1 29.980778  4.282942 35.691427
12034  1 29.980781  4.282922 38.546755
12035  1 29.980781  4.282905 41.402087
12051  1 29.980781  7.138273 29.980781
12052  1 29.980783  7.138253 32.836112
12053  1 29.980783  7.138222 35.691452
12054  1 29.980786  7.138188 38.546793
12055  1 29.980786  7.138159 41.402133
12071  1 29.980789  9.993571 29.980789
12072  1 29.980792  9.993536 32.836141
12073  1 29.980795  9.993479 35.691501
12074  1 29.980795  9.993422 38.546861
12075  1 29.980795  9.993388 41.402207
12091  1 29.980806 12.848848 29.980806
12092  1 29.980812 12.848780 32.836195
12093  1 29.980815 12.848680 35.691598
12094  1 29.980815 12.848605 38.546981
12095  1 29.980809 12.848597 41.402313
12411  1 32.836095  1.427653 29.980775
12412  1 32.836095  1.427650 32.836095
12413  1 32.836098  1.427647 35.691418
12414  1 32.836101  1.427642 38.546744
12415  1 32.836104  1.427636 41.402070
12431  1 32.836101  4.282959 29.980778
12432  1 32.836101  4.282950 32.836101
12433  1 32.836106  4.282936 35.691430
12434  1 32.836109  4.282916 38.546761
12435  1 32.836112  4.282902 41.402090
12451  1 32.836112  7.138253 29.980783
12452  1 32.836118  7.138239 32.836118
12453  1 32.836121  7.138211 35.691455
12454  1 32.836126  7.138179 38.546798
12455  1 32.836126  7.138153 41.402136
12471  1 32.836141  9.993536 29.980792
12472  1 32.836146  9.993505 32.836146
12473  1 32.836155  9.993456 35.691507
12474  1 32.836158  9.993408 38.546867
12475  1 32.836152  9.993382 41.402210
12491  1 32.836195 12.848780 29.980812
12492  1 32.836209 12.848728 32.836209
12493  1 32.836218 12.848645 35.691609
12494  1 32.836212 12.848588 38.546990
12495  1 32.836192 12.848588 41.402318
12811  1 35.691415  1.427647 29.980778
12812  1 35.691418  1.427647 32.836098
12813  1 35.691421  1.427642 35.691421
12814  1 35.691427  1.427639 38.546747
12815  1 35.691430  1.427633 41.402076
12831  1 35.691427  4.282942 29.980778
12832  1 35.691430  4.282936 32.836106
12833  1 35.691435  4.282922 35.691435
12834  1 35.691438  4.282907 38.546767
12835  1 35.691441  4.282896 41.402096
12851  1 35.691452  7.138222 29.980783
12852  1 35.691455  7.138211 32.836121
12853  1 35.691464  7.138188 35.691464
12854  1 35.691467  7.138162 38.546804
12855  1 35.691467  7.138145 41.402141
12871  1 35.691501  9.993479 29.980795
12872  1 35.691507  9.993456 32.836155
12873  1 35.691518  9.993422 35.691518
12874  1 35.691521  9.993388 38.546875
12875  1 35.691512  9.993374 41.402216
12891  1 35.691598 12.848680 29.980815
12892  1 35.691609 12.848645 32.836218
12893  1 35.691621 12.848597 35.691621
12894  1 35.691609 12.848565 38.546998
12895  1 35.691578 12.848580 41.402321
2911   1 19.986853 14.276204 28.553116
2912   1 19.986844 14.276187 31.408548
2913   1 19.986830 14.276150 34.263982
2914   1 19.986839 14.276124 37.119394
2915   1 19.986887 14.276150 39.974737
3311   1 22.842273 14.276318 28.553116
3312   1 22.842262 14.276287 31.408551
3313   1 22.842245 14.276213 34.263991
3314   1 22.842250 14.276150 37.119402
3315   1 22.842287 14.276156 39.974742
3711   1 25.697705 14.276447 28.553116
3712   1 25.697696 14.276398 31.408536
3713   1 25.697685 14.276287 34.263971
3714   1 25.697685 14.276187 37.119388
3715   1 25.697702 14.276170 39.974734
4111   1 28.553116 14.276501 28.553116
4112   1 28.553116 14.276447 31.408528
4113   1 28.553116 14.276318 34.263959
4114   1 28.553116 14.276204 37.119379
4115   1 28.553116 14.276175 39.974728
4511   1 31.408528 14.276447 28.553116
4512   1 31.408536 14.276398 31.408536
4513   1 31.408551 14.276287 34.263971
4514   1 31.408548 14.276187 37.119388
4515   1 31.408531 14.276170 39.974734
4911   1 34.263959 14.276318 28.553116
4912   1 34.263971 14.276287 31.408551
4913   1 34.263991 14.276213 34.263991
4914   1 34.263982 14.276150 37.119402
4915   1 34.263945 14.276156 39.974742
5311   1 37.119379 14.276204 28.553116
5312   1 37.119388 14.276187 31.408548
5313   1 37.119402 14.276150 34.263982
5314   1 37.119394 14.276124 37.119394
5315   1 37.119345 14.276150 39.974737
2816   1 19.987139  0.000000 42.829737
2817   1 19.987139  0.000000 45.685057
2818   1 19.987139  0.000000 48.540366
2819   1 19.987141  0.000000 51.395663
2820   1 19.987141  0.000000 54.250952
2836   1 19.987133  2.855263 42.829749
2837   1 19.987133  2.855260 45.685066
2838   1 19.987136  2.855266 48.540375
2839   1 19.987139  2.855272 51.395669
2840   1 19.987141  2.855277 54.250955
2856   1 19.987113  5.710518 42.829780
2857   1 19.987119  5.710520 45.685097
2858   1 19.987124  5.710532 48.540397
2859   1 19.987133  5.710549 51.395683
2860   1 19.987139  5.710563 54.250961
2876   1 19.987079  8.565761 42.829837
2877   1 19.987093  8.565775 45.685143
2878   1 19.987110  8.565806 48.540429
2879   1 19.987124  8.565835 51.395701
2880   1 19.987136  8.565858 54.250966
2896   1 19.987024 11.420990 42.829917
2897   1 19.987061 11.421035 45.685197
2898   1 19.987093 11.421089 48.540457
2899   1 19.987119 11.421138 51.395712
2900   1 19.987133 11.421167 54.250972
3216   1 22.842464  0.000000 42.829731
3217   1 22.842464  0.000000 45.685054
3218   1 22.842464  0.000000 48.540366
3219   1 22.842464  0.000000 51.395663
3220   1 22.842467  0.000000 54.250952
3236   1 22.842462  2.855266 42.829743
3237   1 22.842462  2.855263 45.685063
3238   1 22.842462  2.855266 48.540375
3239   1 22.842464  2.855272 51.395669
3240   1 22.842464  2.855277 54.250955
3256   1 22.842447  5.710520 42.829777
3257   1 22.842450  5.710520 45.685094
3258   1 22.842456  5.710532 48.540397
3259   1 22.842462  5.710549 51.395683
3260   1 22.842464  5.710563 54.250961
3276   1 22.842424  8.565764 42.829834
3277   1 22.842433  8.565778 45.685143
3278   1 22.842444  8.565806 48.540429
3279   1 22.842456  8.565835 51.395701
3280   1 22.842462  8.565861 54.250966
3296   1 22.842387 11.420992 42.829917
3297   1 22.842410 11.421038 45.685197
3298   1 22.842433 11.421092 48.540457
3299   1 22.842450 11.421138 51.395712
3300   1 22.842462 11.421169 54.250969
3616   1 25.697790  0.000000 42.829729
3617   1 25.697790  0.000000 45.685052
3618   1 25.697790  0.000000 48.540363
3619   1 25.697790  0.000000 51.395663
3620   1 25.697790  0.000000 54.250952
3636   1 25.697790  2.855266 42.829740
3637   1 25.697787  2.855263 45.685063
3638   1 25.697790  2.855266 48.540372
3639   1 25.697790  2.855272 51.395669
3640   1 25.697790  2.855277 54.250955
3656   1 25.697782  5.710526 42.829774
3657   1 25.697785  5.710523 45.685092
3658   1 25.697785  5.710532 48.540395
3659   1 25.697787  5.710549 51.395683
3660   1 25.697790  5.710563 54.250961
3676   1 25.697770  8.565769 42.829831
3677   1 25.697776  8.565778 45.685140
3678   1 25.697782  8.565806 48.540426
3679   1 25.697785  8.565838 51.395701
3680   1 25.697790  8.565861 54.250966
3696   1 25.697753 11.420998 42.829914
3697   1 25.697765 11.421038 45.685194
3698   1 25.697776 11.421092 48.540455
3699   1 25.697785 11.421141 51.395709
3700   1 25.697787 11.421172 54.250969
4016   1 28.553116  0.000000 42.829729
4017   1 28.553116  0.000000 45.685052
4018   1 28.553116  0.000000 48.540363
4019   1 28.553116  0.000000 51.395663
4020   1 28.553116  0.000000 54.250952
4036   1 28.553116  2.855269 42.829740
4037   1 28.553116  2.855263 45.685060
4038   1 28.553116  2.855266 48.540372
4039   1 28.553116  2.855272 51.395669
4040   1 28.553116  2.855277 54.250955
4056   1 28.553116  5.710526 42.829771
4057   1 28.553116  5.710523 45.685092
4058   1 28.553116  5.710532 48.540395
4059   1 28.553116  5.710549 51.395683
4060   1 28.553116  5.710563 54.250961
4076   1 28.553116  8.565772 42.829828
4077   1 28.553116  8.565778 45.685140
4078   1 28.553116  8.565806 48.540426
4079   1 28.553116  8.565838 51.395701
4080   1 28.553116  8.565861 54.250966
4096   1 28.553116 11.421001 42.829911
4097   1 28.553116 11.421041 45.685194
4098   1 28.553116 11.421092 48.540455
4099   1 28.553116 11.421141 51.395709
4100   1 28.553116 11.421172 54.250969
4416   1 31.408442  0.000000 42.829729
4417   1 31.408442  0.000000 45.685052
4418   1 31.408442  0.000000 48.540363
4419   1 31.408442  0.000000 51.395663
4420   1 31.408442  0.000000 54.250952
4436   1 31.408445  2.855266 42.829740
4437   1 31.408445  2.855263 45.685063
4438   1 31.408445  2.855266 48.540372
4439   1 31.408442  2.855272 51.395669
4440   1 31.408442  2.855277 54.250955
4456   1 31.408451  5.710526 42.829774
4457   1 31.408448  5.710523 45.685092
4458   1 31.408448  5.710532 48.540395
4459   1 31.408445  5.710549 51.395683
4460   1 31.408442  5.710563 54.250961
4476   1 31.408462  8.565769 42.829831
4477   1 31.408456  8.565778 45.685140
4478   1 31.408451  8.565806 48.540426
4479   1 31.408448  8.565838 51.395701
4480   1 31.408445  8.565861 54.250966
4496   1 31.408482 11.420998 42.829914
4497   1 31.408468 11.421038 45.685194
4498   1 31.408456 11.421092 48.540455
4499   1 31.408448 11.421141 51.395709
4500   1 31.408445 11.421172 54.250969
4816   1 34.263768  0.000000 42.829731
4817   1 34.263768  0.000000 45.685054
4818   1 34.263768  0.000000 48.540366
4819   1 34.263768  0.000000 51.395663
4820   1 34.263768  0.000000 54.250952
4836   1 34.263771  2.855266 42.829743
4837   1 34.263771  2.855263 45.685063
4838   1 34.263771  2.855266 48.540375
4839   1 34.263768  2.855272 51.395669
4840   1 34.263768  2.855277 54.250955
4856   1 34.263785  5.710520 42.829777
4857   1 34.263782  5.710520 45.685094
4858   1 34.263777  5.710532 48.540397
4859   1 34.263774  5.710549 51.395683
4860   1 34.263768  5.710563 54.250961
4876   1 34.263808  8.565764 42.829834
4877   1 34.263799  8.565778 45.685143
4878   1 34.263788  8.565806 48.540429
4879   1 34.263777  8.565835 51.395701
4880   1 34.263771  8.565861 54.250966
4896   1 34.263845 11.420992 42.829917
4897   1 34.263822 11.421038 45.685197
4898   1 34.263799 11.421092 48.540457
4899   1 34.263782 11.421138 51.395712
4900   1 34.263771 11.421169 54.250969
5216   1 37.119094  0.000000 42.829737
5217   1 37.119094  0.000000 45.685057
5218   1 37.119094  0.000000 48.540366
5219   1 37.119094  0.000000 51.395663
5220   1 37.119091  0.000000 54.250952
5236   1 37.119100  2.855263 42.829749
5237   1 37.119100  2.855260 45.685066
5238   1 37.119097  2.855266 48.540375
5239   1 37.119094  2.855272 51.395669
5240   1 37.119091  2.855277 54.250955
5256   1 37.119120  5.710518 42.829780
5257   1 37.119114  5.710520 45.685097
5258   1 37.119108  5.710532 48.540397
5259   1 37.119100  5.710549 51.395683
5260   1 37.119094  5.710563 54.250961
5276   1 37.119154  8.565761 42.829837
5277   1 37.119140  8.565775 45.685143
5278   1 37.119122  8.565806 48.540429
5279   1 37.119108  8.565835 51.395701
5280   1 37.119097  8.565858 54.250966
5296   1 37.119208 11.420990 42.829917
5297   1 37.119174 11.421035 45.685197
5298   1 37.119140 11.421089 48.540457
5299   1 37.119114 11.421138 51.395712
5300   1 37.119100 11.421167 54.250972
10816  1 21.414800  1.427630 44.257399
10817  1 21.414800  1.427633 47.112713
10818  1 21.414800  1.427633 49.968019
10819  1 21.414803  1.427639 52.823311
10820  1 21.414803  1.427639 55.678594
10836  1 21.414791  4.282890 44.257419
10837  1 21.414794  4.282893 47.112733
10838  1 21.414797  4.282905 49.968030
10839  1 21.414800  4.282916 52.823316
10840  1 21.414803  4.282922 55.678597
10856  1 21.414771  7.138142 44.257464
10857  1 21.414780  7.138156 47.112767
10858  1 21.414789  7.138179 49.968053
10859  1 21.414797  7.138202 52.823328
10860  1 21.414800  7.138213 55.678599
10876  1 21.414740  9.993388 44.257524
10877  1 21.414760  9.993425 47.112807
10878  1 21.414780  9.993465 49.968076
10879  1 21.414794  9.993499 52.823339
10880  1 21.414800  9.993519 55.678602
10896  1 21.414700 12.848637 44.257596
10897  1 21.414740 12.848708 47.112844
10898  1 21.414771 12.848771 49.968090
10899  1 21.414791 12.848814 52.823342
10900  1 21.414800 12.848834 55.678602
11216  1 24.270126  1.427633 44.257396
11217  1 24.270126  1.427633 47.112713
11218  1 24.270126  1.427633 49.968019
11219  1 24.270129  1.427639 52.823311
11220  1 24.270129  1.427639 55.678594
11236  1 24.270120  4.282893 44.257416
11237  1 24.270123  4.282896 47.112730
11238  1 24.270126  4.282905 49.968030
11239  1 24.270126  4.282916 52.823316
11240  1 24.270129  4.282922 55.678597
11256  1 24.270109  7.138148 44.257461
11257  1 24.270115  7.138156 47.112765
11258  1 24.270120  7.138179 49.968053
11259  1 24.270126  7.138202 52.823328
11260  1 24.270126  7.138216 55.678599
11276  1 24.270089  9.993391 44.257524
11277  1 24.270103  9.993425 47.112807
11278  1 24.270115  9.993468 49.968076
11279  1 24.270123  9.993502 52.823339
11280  1 24.270126  9.993519 55.678602
11296  1 24.270066 12.848640 44.257593
11297  1 24.270089 12.848711 47.112842
11298  1 24.270109 12.848774 49.968088
11299  1 24.270120 12.848817 52.823339
11300  1 24.270126 12.848837 55.678599
11616  1 27.125455  1.427633 44.257393
11617  1 27.125452  1.427633 47.112710
11618  1 27.125455  1.427633 49.968016
11619  1 27.125455  1.427639 52.823311
11620  1 27.125455  1.427639 55.678594
11636  1 27.125452  4.282896 44.257416
11637  1 27.125452  4.282896 47.112730
11638  1 27.125452  4.282905 49.968030
11639  1 27.125452  4.282916 52.823316
11640  1 27.125455  4.282922 55.678597
11656  1 27.125446  7.138148 44.257459
11657  1 27.125449  7.138159 47.112765
11658  1 27.125452  7.138179 49.968053
11659  1 27.125452  7.138202 52.823328
11660  1 27.125455  7.138216 55.678599
11676  1 27.125440  9.993394 44.257521
11677  1 27.125446  9.993425 47.112807
11678  1 27.125449  9.993468 49.968076
11679  1 27.125452  9.993502 52.823336
11680  1 27.125452  9.993522 55.678599
11696  1 27.125432 12.848642 44.257590
11697  1 27.125440 12.848711 47.112839
11698  1 27.125446 12.848774 49.968085
11699  1 27.125452 12.848817 52.823339
11700  1 27.125455 12.848839 55.678599
12016  1 29.980781  1.427633 44.257393
12017  1 29.980781  1.427633 47.112710
12018  1 29.980781  1.427633 49.968016
12019  1 29.980781  1.427639 52.823311
12020  1 29.980778  1.427639 55.678594
12036  1 29.980781  4.282896 44.257416
12037  1 29.980781  4.282896 47.112730
12038  1 29.980781  4.282905 49.968030
12039  1 29.980781  4.282916 52.823316
12040  1 29.980781  4.282922 55.678597
12056  1 29.980786  7.138148 44.257459
12057  1 29.980783  7.138159 47.112765
12058  1 29.980781  7.138179 49.968053
12059  1 29.980781  7.138202 52.823328
12060  1 29.980781  7.138216 55.678599
12076  1 29.980792  9.993394 44.257521
12077  1 29.980786  9.993425 47.112807
12078  1 29.980783  9.993468 49.968076
12079  1 29.980781  9.993502 52.823336
12080  1 29.980781  9.993522 55.678599
12096  1 29.980801 12.848642 44.257590
12097  1 29.980792 12.848711 47.112839
12098  1 29.980786 12.848774 49.968085
12099  1 29.980781 12.848817 52.823339
12100  1 29.980781 12.848839 55.678599
12416  1 32.836106  1.427633 44.257396
12417  1 32.836106  1.427633 47.112713
12418  1 32.836106  1.427633 49.968019
12419  1 32.836104  1.427639 52.823311
12420  1 32.836104  1.427639 55.678594
12436  1 32.836112  4.282893 44.257416
12437  1 32.836109  4.282896 47.112730
12438  1 32.836109  4.282905 49.968030
12439  1 32.836106  4.282916 52.823316
12440  1 32.836104  4.282922 55.678597
12456  1 32.836124  7.138148 44.257461
12457  1 32.836118  7.138156 47.112765
12458  1 32.836112  7.138179 49.968053
12459  1 32.836109  7.138202 52.823328
12460  1 32.836106  7.138216 55.678599
12476  1 32.836144  9.993391 44.257524
12477  1 32.836129  9.993425 47.112807
12478  1 32.836118  9.993468 49.968076
12479  1 32.836109  9.993502 52.823339
12480  1 32.836106  9.993519 55.678602
12496  1 32.836166 12.848640 44.257593
12497  1 32.836144 12.848711 47.112842
12498  1 32.836124 12.848774 49.968088
12499  1 32.836112 12.848817 52.823339
12500  1 32.836106 12.848837 55.678599
12816  1 35.691432  1.427630 44.257399
12817  1 35.691432  1.427633 47.112713
12818  1 35.691432  1.427633 49.968019
12819  1 35.691430  1.427639 52.823311
12820  1 35.691430  1.427639 55.678594
12836  1 35.691441  4.282890 44.257419
12837  1 35.691441  4.282893 47.112733
12838  1 35.691435  4.282905 49.968030
12839  1 35.691432  4.282916 52.823316
12840  1 35.691430  4.282922 55.678597
12856  1 35.691464  7.138142 44.257464
12857  1 35.691452  7.138156 47.112767
12858  1 35.691444  7.138179 49.968053
12859  1 35.691435  7.138202 52.823328
12860  1 35.691432  7.138213 55.678599
12876  1 35.691492  9.993388 44.257524
12877  1 35.691472  9.993425 47.112807
12878  1 35.691452  9.993465 49.968076
12879  1 35.691441  9.993499 52.823339
12880  1 35.691432  9.993519 55.678602
12896  1 35.691535 12.848637 44.257596
12897  1 35.691492 12.848708 47.112844
12898  1 35.691464 12.848771 49.968090
12899  1 35.691441 12.848814 52.823342
12900  1 35.691432 12.848834 55.678602
2916   1 19.986959 14.276227 42.830008
2917   1 19.987024 14.276315 45.685243
2918   1 19.987079 14.276395 48.540475
2919   1 19.987113 14.276452 51.395715
2920   1 19.987133 14.276487 54.250969
3316   1 22.842339 14.276224 42.830008
3317   1 22.842387 14.276315 45.685240
3318   1 22.842424 14.276398 48.540469
3319   1 22.842447 14.276455 51.395712
3320   1 22.842462 14.276490 54.250969
3716   1 25.697727 14.276230 42.830003
3717   1 25.697753 14.276321 45.685234
3718   1 25.697770 14.276401 48.540463
3719   1 25.697782 14.276461 51.395706
3720   1 25.697790 14.276492 54.250966
4116   1 28.553116 14.276233 42.830000
4117   1 28.553116 14.276321 45.685231
4118   1 28.553116 14.276404 48.540460
4119   1 28.553116 14.276461 51.395706
4120   1 28.553116 14.276495 54.250966
4516   1 31.408505 14.276230 42.830003
4517   1 31.408482 14.276321 45.685234
4518   1 31.408462 14.276401 48.540463
4519   1 31.408451 14.276461 51.395706
4520   1 31.408445 14.276492 54.250966
4916   1 34.263894 14.276224 42.830008
4917   1 34.263845 14.276315 45.685240
4918   1 34.263808 14.276398 48.540469
4919   1 34.263785 14.276455 51.395712
4920   1 34.263771 14.276490 54.250969
5316   1 37.119277 14.276227 42.830008
5317   1 37.119208 14.276315 45.685243
5318   1 37.119154 14.276395 48.540475
5319   1 37.119120 14.276452 51.395715
5320   1 37.119100 14.276487 54.250969
12985  1 35.691598 27.125418 12.848680
12984  1 35.691501 27.125438  9.993479
12983  1 35.691452 27.125449  7.138222
12982  1 35.691427 27.125455  4.282942
12981  1 35.691415 27.125455  1.427647
2921   1 19.987141 17.131821  0.000000
2922   1 19.987136 17.131813  2.855269
2923   1 19.987113 17.131781  5.710526
2924   1 19.987070 17.131724  8.565764
2925   1 19.986996 17.131633 11.420970
2941   1 19.987147 19.987147  0.000000
2942   1 19.987139 19.987139  2.855275
2943   1 19.987116 19.987116  5.710540
2944   1 19.987070 19.987070  8.565781
2945   1 19.986984 19.986984 11.420984
2961   1 19.987153 22.842473  0.000000
2962   1 19.987144 22.842467  2.855283
2963   1 19.987121 22.842453  5.710558
2964   1 19.987076 22.842419  8.565806
2965   1 19.986990 22.842362 11.421015
2981   1 19.987156 25.697796  0.000000
2982   1 19.987150 25.697793  2.855289
2983   1 19.987127 25.697785  5.710569
2984   1 19.987084 25.697770  8.565826
2985   1 19.986999 25.697739 11.421044
12965  1 35.691609 24.270015 12.848645
12964  1 35.691507 24.270077  9.993456
12963  1 35.691455 24.270112  7.138211
12962  1 35.691430 24.270129  4.282936
12961  1 35.691418 24.270134  1.427647
3321   1 22.842467 17.131827  0.000000
3322   1 22.842464 17.131815  2.855272
3323   1 22.842447 17.131787  5.710535
3324   1 22.842419 17.131730  8.565775
3325   1 22.842367 17.131633 11.420984
3341   1 22.842473 19.987153  0.000000
3342   1 22.842467 19.987144  2.855283
3343   1 22.842453 19.987121  5.710558
3344   1 22.842419 19.987076  8.565806
3345   1 22.842362 19.986990 11.421015
3361   1 22.842476 22.842476  0.000000
3362   1 22.842470 22.842470  2.855292
3363   1 22.842456 22.842456  5.710578
3364   1 22.842427 22.842427  8.565843
3365   1 22.842367 22.842367 11.421069
3381   1 22.842479 25.697796  0.000000
3382   1 22.842476 25.697796  2.855300
3383   1 22.842462 25.697787  5.710592
3384   1 22.842433 25.697773  8.565869
3385   1 22.842379 25.697745 11.421115
12945  1 35.691621 21.414612 12.848597
12944  1 35.691518 21.414714  9.993422
12943  1 35.691464 21.414771  7.138188
12942  1 35.691435 21.414797  4.282922
12941  1 35.691421 21.414811  1.427642
3721   1 25.697793 17.131830  0.000000
3722   1 25.697790 17.131821  2.855277
3723   1 25.697782 17.131793  5.710543
3724   1 25.697767 17.131736  8.565786
3725   1 25.697742 17.131641 11.420998
3741   1 25.697796 19.987156  0.000000
3742   1 25.697793 19.987150  2.855289
3743   1 25.697785 19.987127  5.710569
3744   1 25.697770 19.987084  8.565826
3745   1 25.697739 19.986999 11.421044
3761   1 25.697796 22.842479  0.000000
3762   1 25.697796 22.842476  2.855300
3763   1 25.697787 22.842462  5.710592
3764   1 25.697773 22.842433  8.565869
3765   1 25.697745 22.842379 11.421115
3781   1 25.697799 25.697799  0.000000
3782   1 25.697796 25.697796  2.855306
3783   1 25.697790 25.697790  5.710612
3784   1 25.697779 25.697779  8.565903
3785   1 25.697750 25.697750 11.421175
12925  1 35.691609 18.559237 12.848565
12924  1 35.691521 18.559357  9.993388
12923  1 35.691467 18.559428  7.138162
12922  1 35.691438 18.559468  4.282907
12921  1 35.691427 18.559486  1.427639
4121   1 28.553116 17.131833  0.000000
4122   1 28.553116 17.131821  2.855277
4123   1 28.553116 17.131793  5.710546
4124   1 28.553116 17.131738  8.565792
4125   1 28.553116 17.131644 11.421004
4141   1 28.553116 19.987158  0.000000
4142   1 28.553116 19.987150  2.855292
4143   1 28.553116 19.987130  5.710572
4144   1 28.553116 19.987087  8.565832
4145   1 28.553116 19.987004 11.421052
4161   1 28.553116 22.842479  0.000000
4162   1 28.553116 22.842476  2.855303
4163   1 28.553116 22.842464  5.710598
4164   1 28.553116 22.842436  8.565881
4165   1 28.553116 22.842384 11.421132
4181   1 28.553116 25.697799  0.000000
4182   1 28.553116 25.697799  2.855309
4183   1 28.553116 25.697790  5.710618
4184   1 28.553116 25.697779  8.565915
4185   1 28.553116 25.697756 11.421201
12905  1 35.691578 15.703911 12.848580
12904  1 35.691512 15.704017  9.993374
12903  1 35.691467 15.704091  7.138145
12902  1 35.691441 15.704137  4.282896
12901  1 35.691430 15.704157  1.427633
4521   1 31.408439 17.131830  0.000000
4522   1 31.408442 17.131821  2.855277
4523   1 31.408451 17.131793  5.710543
4524   1 31.408465 17.131736  8.565786
4525   1 31.408491 17.131641 11.420998
4541   1 31.408439 19.987156  0.000000
4542   1 31.408439 19.987150  2.855289
4543   1 31.408448 19.987127  5.710569
4544   1 31.408462 19.987084  8.565826
4545   1 31.408493 19.986999 11.421044
4561   1 31.408436 22.842479  0.000000
4562   1 31.408439 22.842476  2.855300
4563   1 31.408445 22.842462  5.710592
4564   1 31.408459 22.842433  8.565869
4565   1 31.408488 22.842379 11.421115
4581   1 31.408434 25.697799  0.000000
4582   1 31.408436 25.697796  2.855306
4583   1 31.408442 25.697790  5.710612
4584   1 31.408456 25.697779  8.565903
4585   1 31.408482 25.697750 11.421175
12585  1 32.836195 27.125420 12.848780
12584  1 32.836141 27.125440  9.993536
12583  1 32.836112 27.125449  7.138253
12582  1 32.836101 27.125455  4.282959
12581  1 32.836095 27.125458  1.427653
4921   1 34.263765 17.131827  0.000000
4922   1 34.263768 17.131815  2.855272
4923   1 34.263785 17.131787  5.710535
4924   1 34.263814 17.131730  8.565775
4925   1 34.263865 17.131633 11.420984
4941   1 34.263759 19.987153  0.000000
4942   1 34.263765 19.987144  2.855283
4943   1 34.263782 19.987121  5.710558
4944   1 34.263814 19.987076  8.565806
4945   1 34.263871 19.986990 11.421015
4961   1 34.263757 22.842476  0.000000
4962   1 34.263762 22.842470  2.855292
4963   1 34.263777 22.842456  5.710578
4964   1 34.263808 22.842427  8.565843
4965   1 34.263868 22.842367 11.421069
4981   1 34.263754 25.697796  0.000000
4982   1 34.263759 25.697796  2.855300
4983   1 34.263771 25.697787  5.710592
4984   1 34.263799 25.697773  8.565869
4985   1 34.263854 25.697745 11.421115
12565  1 32.836209 24.270023 12.848728
12564  1 32.836146 24.270086  9.993505
12563  1 32.836118 24.270117  7.138239
12562  1 32.836101 24.270132  4.282950
12561  1 32.836095 24.270137  1.427650
5321   1 37.119091 17.131821  0.000000
5322   1 37.119097 17.131813  2.855269
5323   1 37.119120 17.131781  5.710526
5324   1 37.119162 17.131724  8.565764
5325   1 37.119237 17.131633 11.420970
5341   1 37.119085 19.987147  0.000000
5342   1 37.119094 19.987139  2.855275
5343   1 37.119117 19.987116  5.710540
5344   1 37.119162 19.987070  8.565781
5345   1 37.119248 19.986984 11.420984
5361   1 37.119080 22.842473  0.000000
5362   1 37.119088 22.842467  2.855283
5363   1 37.119111 22.842453  5.710558
5364   1 37.119157 22.842419  8.565806
5365   1 37.119242 22.842362 11.421015
5381   1 37.119077 25.697796  0.000000
5382   1 37.119082 25.697793  2.855289
5383   1 37.119105 25.697785  5.710569
5384   1 37.119148 25.697770  8.565826
5385   1 37.119234 25.697739 11.421044
10901  1 21.414803 15.704157  1.427633
10902  1 21.414791 15.704137  4.282896
10903  1 21.414766 15.704091  7.138145
10904  1 21.414723 15.704017  9.993374
10905  1 21.414657 15.703911 12.848580
10921  1 21.414806 18.559486  1.427639
10922  1 21.414794 18.559468  4.282907
10923  1 21.414766 18.559428  7.138162
10924  1 21.414714 18.559357  9.993388
10925  1 21.414623 18.559237 12.848565
10941  1 21.414811 21.414811  1.427642
10942  1 21.414797 21.414797  4.282922
10943  1 21.414771 21.414771  7.138188
10944  1 21.414714 21.414714  9.993422
10945  1 21.414612 21.414612 12.848597
10961  1 21.414814 24.270134  1.427647
10962  1 21.414803 24.270129  4.282936
10963  1 21.414777 24.270112  7.138211
10964  1 21.414726 24.270077  9.993456
10965  1 21.414623 24.270015 12.848645
10981  1 21.414817 27.125455  1.427647
10982  1 21.414806 27.125455  4.282942
10983  1 21.414783 27.125449  7.138222
10984  1 21.414732 27.125438  9.993479
10985  1 21.414634 27.125418 12.848680
11301  1 24.270129 15.704163  1.427636
11302  1 24.270123 15.704143  4.282902
11303  1 24.270106 15.704097  7.138153
11304  1 24.270080 15.704023  9.993382
11305  1 24.270040 15.703914 12.848588
11321  1 24.270132 18.559488  1.427642
11322  1 24.270123 18.559474  4.282916
11323  1 24.270106 18.559434  7.138179
11324  1 24.270075 18.559366  9.993408
11325  1 24.270020 18.559243 12.848588
11341  1 24.270134 21.414814  1.427647
11342  1 24.270129 21.414803  4.282936
11343  1 24.270112 21.414777  7.138211
11344  1 24.270077 21.414726  9.993456
11345  1 24.270015 21.414623 12.848645
11361  1 24.270137 24.270137  1.427650
11362  1 24.270132 24.270132  4.282950
11363  1 24.270117 24.270117  7.138239
11364  1 24.270086 24.270086  9.993505
11365  1 24.270023 24.270023 12.848728
11381  1 24.270140 27.125458  1.427653
11382  1 24.270134 27.125455  4.282959
11383  1 24.270120 27.125449  7.138253
11384  1 24.270092 27.125440  9.993536
11385  1 24.270037 27.125420 12.848780
11701  1 27.125455 15.704165  1.427636
11702  1 27.125452 15.704145  4.282905
11703  1 27.125446 15.704100  7.138159
11704  1 27.125438 15.704025  9.993388
11705  1 27.125423 15.703920 12.848597
11721  1 27.125455 18.559491  1.427642
11722  1 27.125452 18.559477  4.282922
11723  1 27.125446 18.559440  7.138188
11724  1 27.125438 18.559371  9.993422
11725  1 27.125418 18.559251 12.848605
11741  1 27.125455 21.414817  1.427647
11742  1 27.125455 21.414806  4.282942
11743  1 27.125449 21.414783  7.138222
11744  1 27.125438 21.414732  9.993479
11745  1 27.125418 21.414634 12.848680
11761  1 27.125458 24.270140  1.427653
11762  1 27.125455 24.270134  4.282959
11763  1 27.125449 24.270120  7.138253
11764  1 27.125440 24.270092  9.993536
11765  1 27.125420 24.270037 12.848780
11781  1 27.125458 27.125458  1.427656
11782  1 27.125455 27.125455  4.282967
11783  1 27.125452 27.125452  7.138273
11784  1 27.125443 27.125443  9.993571
11785  1 27.125426 27.125426 12.848848
12101  1 29.980778 15.704165  1.427636
12102  1 29.980781 15.704145  4.282905
12103  1 29.980786 15.704100  7.138159
12104  1 29.980795 15.704025  9.993388
12105  1 29.980809 15.703920 12.848597
12121  1 29.980778 18.559491  1.427642
12122  1 29.980781 18.559477  4.282922
12123  1 29.980786 18.559440  7.138188
12124  1 29.980795 18.559371  9.993422
12125  1 29.980815 18.559251 12.848605
12141  1 29.980778 21.414817  1.427647
12142  1 29.980778 21.414806  4.282942
12143  1 29.980783 21.414783  7.138222
12144  1 29.980795 21.414732  9.993479
12145  1 29.980815 21.414634 12.848680
12161  1 29.980775 24.270140  1.427653
12162  1 29.980778 24.270134  4.282959
12163  1 29.980783 24.270120  7.138253
12164  1 29.980792 24.270092  9.993536
12165  1 29.980812 24.270037 12.848780
12181  1 29.980775 27.125458  1.427656
12182  1 29.980778 27.125455  4.282967
12183  1 29.980781 27.125452  7.138273
12184  1 29.980789 27.125443  9.993571
12185  1 29.980806 27.125426 12.848848
12501  1 32.836104 15.704163  1.427636
12502  1 32.836112 15.704143  4.282902
12503  1 32.836126 15.704097  7.138153
12504  1 32.836152 15.704023  9.993382
12505  1 32.836192 15.703914 12.848588
12521  1 32.836101 18.559488  1.427642
12522  1 32.836109 18.559474  4.282916
12523  1 32.836126 18.559434  7.138179
12524  1 32.836158 18.559366  9.993408
12525  1 32.836212 18.559243 12.848588
12541  1 32.836098 21.414814  1.427647
12542  1 32.836106 21.414803  4.282936
12543  1 32.836121 21.414777  7.138211
12544  1 32.836155 21.414726  9.993456
12545  1 32.836218 21.414623 12.848645
2926   1 19.986887 17.131496 14.276150
2946   1 19.986839 19.986839 14.276124
2966   1 19.986830 22.842250 14.276150
2986   1 19.986844 25.697685 14.276187
3326   1 22.842287 17.131490 14.276156
3346   1 22.842250 19.986830 14.276150
3366   1 22.842245 22.842245 14.276213
3386   1 22.842262 25.697685 14.276287
3726   1 25.697702 17.131499 14.276170
3746   1 25.697685 19.986844 14.276187
3766   1 25.697685 22.842262 14.276287
3786   1 25.697696 25.697696 14.276398
4126   1 28.553116 17.131504 14.276175
4146   1 28.553116 19.986853 14.276204
4166   1 28.553116 22.842273 14.276318
4186   1 28.553116 25.697705 14.276447
4526   1 31.408531 17.131499 14.276170
4546   1 31.408548 19.986844 14.276187
4566   1 31.408551 22.842262 14.276287
4586   1 31.408536 25.697696 14.276398
4926   1 34.263945 17.131490 14.276156
4946   1 34.263982 19.986830 14.276150
4966   1 34.263991 22.842245 14.276213
4986   1 34.263971 25.697685 14.276287
5326   1 37.119345 17.131496 14.276150
5346   1 37.119394 19.986839 14.276124
5366   1 37.119402 22.842250 14.276150
5386   1 37.119388 25.697685 14.276187
12990  1 35.692672 27.124675 27.124675
12989  1 35.693009 27.124944 24.268655
12988  1 35.692652 27.125141 21.413581
12987  1 35.692172 27.125289 18.558706
12986  1 35.691795 27.125375 15.703777
12550  1 32.837577 21.413224 27.124944
2927   1 19.986744 17.131336 17.131336
2928   1 19.986610 17.131207 19.986610
2929   1 19.986562 17.131190 22.842053
2930   1 19.986579 17.131230 25.697585
12549  1 32.837697 21.412887 24.268536
2947   1 19.986610 19.986610 17.131207
2948   1 19.986370 19.986370 19.986370
2949   1 19.986199 19.986199 22.841736
2950   1 19.986245 19.986245 25.697425
12548  1 32.837106 21.413449 21.413449
2967   1 19.986562 22.842053 17.131190
2968   1 19.986199 22.841736 19.986199
2969   1 19.985894 22.841411 22.841411
2970   1 19.985996 22.841405 25.697222
12547  1 32.836606 21.414023 18.558635
2987   1 19.986579 25.697585 17.131230
2988   1 19.986245 25.697425 19.986245
2989   1 19.985996 25.697222 22.841405
2990   1 19.986131 25.697068 25.697068
12970  1 35.693009 24.268655 27.124944
12969  1 35.693345 24.268536 24.268536
12968  1 35.692783 24.269127 21.413449
12967  1 35.692212 24.269626 18.558635
12966  1 35.691815 24.269886 15.703729
12546  1 32.836346 21.414417 15.703729
3327   1 22.842176 17.131322 17.131322
3328   1 22.842053 17.131190 19.986562
3329   1 22.841976 17.131187 22.841976
3330   1 22.841999 17.131299 25.697548
12530  1 32.836658 18.558866 27.125263
3347   1 22.842053 19.986562 17.131190
3348   1 22.841736 19.986199 19.986199
3349   1 22.841411 19.985894 22.841411
3350   1 22.841405 19.985996 25.697222
12529  1 32.836712 18.558675 24.269521
3367   1 22.841976 22.841976 17.131187
3368   1 22.841411 22.841411 19.985894
3369   1 22.840920 22.840920 22.840920
3370   1 22.840460 22.840460 25.696403
12528  1 32.836606 18.558635 21.414023
3387   1 22.841999 25.697548 17.131299
3388   1 22.841405 25.697222 19.985996
3389   1 22.840460 25.696403 22.840460
3390   1 22.839244 25.695163 25.695163
12950  1 35.692652 21.413581 27.125141
12949  1 35.692783 21.413449 24.269127
12948  1 35.692517 21.413715 21.413715
12947  1 35.692166 21.414066 18.558620
12946  1 35.691818 21.414415 15.703669
12527  1 32.836443 18.558815 18.558815
3727   1 25.697648 17.131336 17.131336
3728   1 25.697585 17.131230 19.986579
3729   1 25.697548 17.131299 22.841999
3730   1 25.697550 17.131487 25.697550
12526  1 32.836306 18.559049 15.703709
3747   1 25.697585 19.986579 17.131230
3748   1 25.697425 19.986245 19.986245
3749   1 25.697222 19.985996 22.841405
3750   1 25.697068 19.986131 25.697068
12510  1 32.836323 15.703940 27.125378
3767   1 25.697548 22.841999 17.131299
3768   1 25.697222 22.841405 19.985996
3769   1 25.696403 22.840460 22.840460
3770   1 25.695163 22.839244 25.695163
12509  1 32.836349 15.703840 24.269886
3787   1 25.697550 25.697550 17.131487
3788   1 25.697068 25.697068 19.986131
3789   1 25.695163 25.695163 22.839244
3790   1 25.694775 25.694775 25.694775
12930  1 35.692172 18.558706 27.125289
12929  1 35.692212 18.558635 24.269626
12928  1 35.692166 18.558620 21.414066
12927  1 35.691966 18.558812 18.558812
12926  1 35.691758 18.559046 15.703689
12508  1 32.836346 15.703729 21.414417
4127   1 28.553116 17.131344 17.131344
4128   1 28.553116 17.131253 19.986593
4129   1 28.553116 17.131350 22.842019
4130   1 28.553116 17.131590 25.697573
12507  1 32.836306 15.703709 18.559049
4147   1 28.553116 19.986593 17.131253
4148   1 28.553116 19.986279 19.986279
4149   1 28.553116 19.986088 22.841456
4150   1 28.553116 19.986399 25.697162
12506  1 32.836246 15.703794 15.703794
4167   1 28.553116 22.842019 17.131350
4168   1 28.553116 22.841456 19.986088
4169   1 28.553116 22.840731 22.840731
4170   1 28.553116 22.840109 25.695752
12190  1 29.986837 27.119396 27.119396
4187   1 28.553116 25.697573 17.131590
4188   1 28.553116 25.697162 19.986399
4189   1 28.553116 25.695752 22.840109
4190   1 28.553116 25.691574 25.691574
12910  1 35.691795 15.703777 27.125375
12909  1 35.691815 15.703729 24.269886
12908  1 35.691818 15.703669 21.414415
12907  1 35.691758 15.703689 18.559046
12906  1 35.691664 15.703788 15.703788
12189  1 29.986029 27.120204 24.264561
4527   1 31.408585 17.131336 17.131336
4528   1 31.408648 17.131230 19.986579
4529   1 31.408685 17.131299 22.841999
4530   1 31.408685 17.131487 25.697550
12188  1 29.981557 27.124675 21.413561
4547   1 31.408648 19.986579 17.131230
4548   1 31.408808 19.986245 19.986245
4549   1 31.409010 19.985996 22.841405
4550   1 31.409164 19.986131 25.697068
12187  1 29.980969 27.125263 18.559160
4567   1 31.408685 22.841999 17.131299
4568   1 31.409010 22.841405 19.985996
4569   1 31.409830 22.840460 22.840460
4570   1 31.411069 22.839244 25.695163
12186  1 29.980846 27.125386 15.704080
4587   1 31.408685 25.697550 17.131487
4588   1 31.409164 25.697068 19.986131
4589   1 31.411069 25.695163 22.839244
4590   1 31.411457 25.694775 25.694775
12590  1 32.841671 27.120204 27.120204
12589  1 32.839219 27.123636 24.267014
12588  1 32.837577 27.124944 21.413224
12587  1 32.836658 27.125263 18.558866
12586  1 32.836323 27.125378 15.703940
12170  1 29.986029 24.264561 27.120204
4927   1 34.264056 17.131322 17.131322
4928   1 34.264179 17.131190 19.986562
4929   1 34.264256 17.131187 22.841976
4930   1 34.264236 17.131299 25.697548
12169  1 29.982597 24.267014 24.267014
4947   1 34.264179 19.986562 17.131190
4948   1 34.264496 19.986199 19.986199
4949   1 34.264822 19.985894 22.841411
4950   1 34.264830 19.985996 25.697222
12168  1 29.981289 24.268655 21.413224
4967   1 34.264256 22.841976 17.131187
4968   1 34.264822 22.841411 19.985894
4969   1 34.265316 22.840920 22.840920
4970   1 34.265772 22.840460 25.696403
12167  1 29.980969 24.269575 18.558866
4987   1 34.264236 25.697548 17.131299
4988   1 34.264830 25.697222 19.985996
4989   1 34.265772 25.696403 22.840460
4990   1 34.266989 25.695163 25.695163
12570  1 32.839219 24.267014 27.123636
12569  1 32.838296 24.267936 24.267936
12568  1 32.837697 24.268536 21.412887
12567  1 32.836712 24.269521 18.558675
12566  1 32.836349 24.269886 15.703840
12166  1 29.980855 24.269909 15.703940
5327   1 37.119491 17.131336 17.131336
5328   1 37.119622 17.131207 19.986610
5329   1 37.119674 17.131190 22.842053
5330   1 37.119654 17.131230 25.697585
12150  1 29.981557 21.413561 27.124675
5347   1 37.119622 19.986610 17.131207
5348   1 37.119862 19.986370 19.986370
5349   1 37.120033 19.986199 22.841736
5350   1 37.119988 19.986245 25.697425
12149  1 29.981289 21.413224 24.268655
5367   1 37.119674 22.842053 17.131190
5368   1 37.120033 22.841736 19.986199
5369   1 37.120339 22.841411 22.841411
5370   1 37.120236 22.841405 25.697222
12148  1 29.981092 21.413581 21.413581
5387   1 37.119654 25.697585 17.131230
5388   1 37.119988 25.697425 19.986245
5389   1 37.120236 25.697222 22.841405
5390   1 37.120102 25.697068 25.697068
10906  1 21.414569 15.703788 15.703788
10907  1 21.414475 15.703689 18.559046
10908  1 21.414415 15.703669 21.414415
10909  1 21.414417 15.703729 24.269886
10910  1 21.414437 15.703777 27.125375
10926  1 21.414475 18.559046 15.703689
10927  1 21.414266 18.558812 18.558812
10928  1 21.414066 18.558620 21.414066
10929  1 21.414023 18.558635 24.269626
10930  1 21.414061 18.558706 27.125289
10946  1 21.414415 21.414415 15.703669
10947  1 21.414066 21.414066 18.558620
10948  1 21.413715 21.413715 21.413715
10949  1 21.413449 21.413449 24.269127
10950  1 21.413581 21.413581 27.125141
10966  1 21.414417 24.269886 15.703729
10967  1 21.414023 24.269626 18.558635
10968  1 21.413449 24.269127 21.413449
10969  1 21.412887 24.268536 24.268536
10970  1 21.413224 24.268655 27.124944
10986  1 21.414437 27.125375 15.703777
10987  1 21.414061 27.125289 18.558706
10988  1 21.413581 27.125141 21.413581
10989  1 21.413224 27.124944 24.268655
10990  1 21.413561 27.124675 27.124675
11306  1 24.269986 15.703794 15.703794
11307  1 24.269926 15.703709 18.559049
11308  1 24.269886 15.703729 21.414417
11309  1 24.269886 15.703840 24.269886
11310  1 24.269909 15.703940 27.125378
11326  1 24.269926 18.559049 15.703709
11327  1 24.269789 18.558815 18.558815
11328  1 24.269626 18.558635 21.414023
11329  1 24.269521 18.558675 24.269521
11330  1 24.269575 18.558866 27.125263
11346  1 24.269886 21.414417 15.703729
11347  1 24.269626 21.414023 18.558635
11348  1 24.269127 21.413449 21.413449
11349  1 24.268536 21.412887 24.268536
11350  1 24.268655 21.413224 27.124944
11366  1 24.269886 24.269886 15.703840
11367  1 24.269521 24.269521 18.558675
11368  1 24.268536 24.268536 21.412887
11369  1 24.267936 24.267936 24.267936
11370  1 24.267014 24.267014 27.123636
11386  1 24.269909 27.125378 15.703940
11387  1 24.269575 27.125263 18.558866
11388  1 24.268655 27.124944 21.413224
11389  1 24.267014 27.123636 24.267014
11390  1 24.264561 27.120204 27.120204
11706  1 27.125406 15.703803 15.703803
11707  1 27.125389 15.703729 18.559063
11708  1 27.125375 15.703777 21.414437
11709  1 27.125378 15.703940 24.269909
11710  1 27.125386 15.704080 27.125386
11726  1 27.125389 18.559063 15.703729
11727  1 27.125343 18.558840 18.558840
11728  1 27.125289 18.558706 21.414061
11729  1 27.125263 18.558866 24.269575
11730  1 27.125263 18.559160 27.125263
11746  1 27.125375 21.414437 15.703777
11747  1 27.125289 21.414061 18.558706
11748  1 27.125141 21.413581 21.413581
11749  1 27.124944 21.413224 24.268655
11750  1 27.124675 21.413561 27.124675
11766  1 27.125378 24.269909 15.703940
11767  1 27.125263 24.269575 18.558866
11768  1 27.124944 24.268655 21.413224
11769  1 27.123636 24.267014 24.267014
11770  1 27.120204 24.264561 27.120204
11786  1 27.125386 27.125386 15.704080
11787  1 27.125263 27.125263 18.559160
11788  1 27.124675 27.124675 21.413561
11789  1 27.120204 27.120204 24.264561
11790  1 27.119396 27.119396 27.119396
12106  1 29.980826 15.703803 15.703803
12107  1 29.980846 15.703729 18.559063
12108  1 29.980858 15.703777 21.414437
12109  1 29.980855 15.703940 24.269909
12110  1 29.980846 15.704080 27.125386
12126  1 29.980846 18.559063 15.703729
12127  1 29.980889 18.558840 18.558840
12128  1 29.980943 18.558706 21.414061
12129  1 29.980969 18.558866 24.269575
12130  1 29.980969 18.559160 27.125263
12146  1 29.980858 21.414437 15.703777
12147  1 29.980943 21.414061 18.558706
12995  1 35.691795 27.125375 41.402455
12994  1 35.692172 27.125289 38.547526
12993  1 35.692652 27.125141 35.692652
12992  1 35.693009 27.124944 32.837577
12991  1 35.692672 27.124675 29.981557
2931   1 19.986593 17.131253 28.553116
2932   1 19.986579 17.131230 31.408648
2933   1 19.986562 17.131190 34.264179
2934   1 19.986610 17.131207 37.119622
2935   1 19.986744 17.131336 39.974897
2951   1 19.986279 19.986279 28.553116
2952   1 19.986245 19.986245 31.408808
2953   1 19.986199 19.986199 34.264496
2954   1 19.986370 19.986370 37.119862
2955   1 19.986610 19.986610 39.975025
2971   1 19.986088 22.841456 28.553116
2972   1 19.985996 22.841405 31.409010
2973   1 19.985894 22.841411 34.264822
2974   1 19.986199 22.841736 37.120033
2975   1 19.986562 22.842053 39.975042
2991   1 19.986399 25.697162 28.553116
2992   1 19.986131 25.697068 31.409164
2993   1 19.985996 25.697222 34.264830
2994   1 19.986245 25.697425 37.119988
2995   1 19.986579 25.697585 39.975002
12975  1 35.691815 24.269886 41.402507
12974  1 35.692212 24.269626 38.547598
12973  1 35.692783 24.269127 35.692783
12972  1 35.693345 24.268536 32.837697
12971  1 35.693009 24.268655 29.981289
3331   1 22.842019 17.131350 28.553116
3332   1 22.841999 17.131299 31.408685
3333   1 22.841976 17.131187 34.264256
3334   1 22.842053 17.131190 37.119674
3335   1 22.842176 17.131322 39.974911
3351   1 22.841456 19.986088 28.553116
3352   1 22.841405 19.985996 31.409010
3353   1 22.841411 19.985894 34.264822
3354   1 22.841736 19.986199 37.120033
3355   1 22.842053 19.986562 39.975042
3371   1 22.840731 22.840731 28.553116
3372   1 22.840460 22.840460 31.409830
3373   1 22.840920 22.840920 34.265316
3374   1 22.841411 22.841411 37.120339
3375   1 22.841976 22.841976 39.975045
3391   1 22.840109 25.695752 28.553116
3392   1 22.839244 25.695163 31.411069
3393   1 22.840460 25.696403 34.265772
3394   1 22.841405 25.697222 37.120236
3395   1 22.841999 25.697548 39.974934
12955  1 35.691818 21.414415 41.402564
12954  1 35.692166 21.414066 38.547612
12953  1 35.692517 21.413715 35.692517
12952  1 35.692783 21.413449 32.837106
12951  1 35.692652 21.413581 29.981092
3731   1 25.697573 17.131590 28.553116
3732   1 25.697550 17.131487 31.408685
3733   1 25.697548 17.131299 34.264236
3734   1 25.697585 17.131230 37.119654
3735   1 25.697648 17.131336 39.974897
3751   1 25.697162 19.986399 28.553116
3752   1 25.697068 19.986131 31.409164
3753   1 25.697222 19.985996 34.264830
3754   1 25.697425 19.986245 37.119988
3755   1 25.697585 19.986579 39.975002
3771   1 25.695752 22.840109 28.553116
3772   1 25.695163 22.839244 31.411069
3773   1 25.696403 22.840460 34.265772
3774   1 25.697222 22.841405 37.120236
3775   1 25.697548 22.841999 39.974934
3791   1 25.691574 25.691574 28.553116
3792   1 25.694775 25.694775 31.411457
3793   1 25.695163 25.695163 34.266989
3794   1 25.697068 25.697068 37.120102
3795   1 25.697550 25.697550 39.974745
12935  1 35.691758 18.559046 41.402544
12934  1 35.691966 18.558812 38.547424
12933  1 35.692166 18.558620 35.692166
12932  1 35.692212 18.558635 32.836606
12931  1 35.692172 18.558706 29.980943
4131   1 28.553116 17.131727 28.553116
4132   1 28.553116 17.131590 31.408659
4133   1 28.553116 17.131350 34.264213
4134   1 28.553116 17.131253 37.119642
4135   1 28.553116 17.131344 39.974888
4151   1 28.553116 19.986722 28.553116
4152   1 28.553116 19.986399 31.409070
4153   1 28.553116 19.986088 34.264776
4154   1 28.553116 19.986279 37.119956
4155   1 28.553116 19.986593 39.974979
4171   1 28.553116 22.839672 28.553116
4172   1 28.553116 22.840109 31.410481
4173   1 28.553116 22.840731 34.265501
4174   1 28.553116 22.841456 37.120145
4175   1 28.553116 22.842019 39.974882
4191   1 28.553116 25.653841 28.553116
4192   1 28.553116 25.691574 31.414658
4193   1 28.553116 25.695752 34.266126
4194   1 28.553116 25.697162 37.119836
4195   1 28.553116 25.697573 39.974643
12915  1 35.691664 15.703788 41.402444
12914  1 35.691758 15.703689 38.547187
12913  1 35.691818 15.703669 35.691818
12912  1 35.691815 15.703729 32.836346
12911  1 35.691795 15.703777 29.980858
4531   1 31.408659 17.131590 28.553116
4532   1 31.408685 17.131487 31.408685
4533   1 31.408685 17.131299 34.264236
4534   1 31.408648 17.131230 37.119654
4535   1 31.408585 17.131336 39.974897
4551   1 31.409070 19.986399 28.553116
4552   1 31.409164 19.986131 31.409164
4553   1 31.409010 19.985996 34.264830
4554   1 31.408808 19.986245 37.119988
4555   1 31.408648 19.986579 39.975002
4571   1 31.410481 22.840109 28.553116
4572   1 31.411069 22.839244 31.411069
4573   1 31.409830 22.840460 34.265772
4574   1 31.409010 22.841405 37.120236
4575   1 31.408685 22.841999 39.974934
4591   1 31.414658 25.691574 28.553116
4592   1 31.411457 25.694775 31.411457
4593   1 31.411069 25.695163 34.266989
4594   1 31.409164 25.697068 37.120102
4595   1 31.408685 25.697550 39.974745
12595  1 32.836323 27.125378 41.402295
12594  1 32.836658 27.125263 38.547366
12593  1 32.837577 27.124944 35.693009
12592  1 32.839219 27.123636 32.839219
12591  1 32.841671 27.120204 29.986029
4931   1 34.264213 17.131350 28.553116
4932   1 34.264236 17.131299 31.408685
4933   1 34.264256 17.131187 34.264256
4934   1 34.264179 17.131190 37.119674
4935   1 34.264056 17.131322 39.974911
4951   1 34.264776 19.986088 28.553116
4952   1 34.264830 19.985996 31.409010
4953   1 34.264822 19.985894 34.264822
4954   1 34.264496 19.986199 37.120033
4955   1 34.264179 19.986562 39.975042
4971   1 34.265501 22.840731 28.553116
4972   1 34.265772 22.840460 31.409830
4973   1 34.265316 22.840920 34.265316
4974   1 34.264822 22.841411 37.120339
4975   1 34.264256 22.841976 39.975045
4991   1 34.266126 25.695752 28.553116
4992   1 34.266989 25.695163 31.411069
4993   1 34.265772 25.696403 34.265772
4994   1 34.264830 25.697222 37.120236
4995   1 34.264236 25.697548 39.974934
12575  1 32.836349 24.269886 41.402393
12574  1 32.836712 24.269521 38.547558
12573  1 32.837697 24.268536 35.693345
12572  1 32.838296 24.267936 32.838296
12571  1 32.839219 24.267014 29.982597
5331   1 37.119642 17.131253 28.553116
5332   1 37.119654 17.131230 31.408648
5333   1 37.119674 17.131190 34.264179
5334   1 37.119622 17.131207 37.119622
5335   1 37.119491 17.131336 39.974897
5351   1 37.119956 19.986279 28.553116
5352   1 37.119988 19.986245 31.408808
5353   1 37.120033 19.986199 34.264496
5354   1 37.119862 19.986370 37.119862
5355   1 37.119622 19.986610 39.975025
5371   1 37.120145 22.841456 28.553116
5372   1 37.120236 22.841405 31.409010
5373   1 37.120339 22.841411 34.264822
5374   1 37.120033 22.841736 37.120033
5375   1 37.119674 22.842053 39.975042
5391   1 37.119836 25.697162 28.553116
5392   1 37.120102 25.697068 31.409164
5393   1 37.120236 25.697222 34.264830
5394   1 37.119988 25.697425 37.119988
5395   1 37.119654 25.697585 39.975002
10911  1 21.414437 15.703777 29.980858
10912  1 21.414417 15.703729 32.836346
10913  1 21.414415 15.703669 35.691818
10914  1 21.414475 15.703689 38.547187
10915  1 21.414569 15.703788 41.402444
10931  1 21.414061 18.558706 29.980943
10932  1 21.414023 18.558635 32.836606
10933  1 21.414066 18.558620 35.692166
10934  1 21.414266 18.558812 38.547424
10935  1 21.414475 18.559046 41.402544
10951  1 21.413581 21.413581 29.981092
10952  1 21.413449 21.413449 32.837106
10953  1 21.413715 21.413715 35.692517
10954  1 21.414066 21.414066 38.547612
10955  1 21.414415 21.414415 41.402564
10971  1 21.413224 24.268655 29.981289
10972  1 21.412887 24.268536 32.837697
10973  1 21.413449 24.269127 35.692783
10974  1 21.414023 24.269626 38.547598
10975  1 21.414417 24.269886 41.402507
10991  1 21.413561 27.124675 29.981557
10992  1 21.413224 27.124944 32.837577
10993  1 21.413581 27.125141 35.692652
10994  1 21.414061 27.125289 38.547526
10995  1 21.414437 27.125375 41.402455
11311  1 24.269909 15.703940 29.980855
11312  1 24.269886 15.703840 32.836349
11313  1 24.269886 15.703729 35.691815
11314  1 24.269926 15.703709 38.547184
11315  1 24.269986 15.703794 41.402438
11331  1 24.269575 18.558866 29.980969
11332  1 24.269521 18.558675 32.836712
11333  1 24.269626 18.558635 35.692212
11334  1 24.269789 18.558815 38.547421
11335  1 24.269926 18.559049 41.402524
11351  1 24.268655 21.413224 29.981289
11352  1 24.268536 21.412887 32.837697
11353  1 24.269127 21.413449 35.692783
11354  1 24.269626 21.414023 38.547598
11355  1 24.269886 21.414417 41.402507
11371  1 24.267014 24.267014 29.982597
11372  1 24.267936 24.267936 32.838296
11373  1 24.268536 24.268536 35.693345
11374  1 24.269521 24.269521 38.547558
11375  1 24.269886 24.269886 41.402393
11391  1 24.264561 27.120204 29.986029
11392  1 24.267014 27.123636 32.839219
11393  1 24.268655 27.124944 35.693009
11394  1 24.269575 27.125263 38.547366
11395  1 24.269909 27.125378 41.402295
11711  1 27.125386 15.704080 29.980846
11712  1 27.125378 15.703940 32.836323
11713  1 27.125375 15.703777 35.691795
11714  1 27.125389 15.703729 38.547169
11715  1 27.125406 15.703803 41.402430
11731  1 27.125263 18.559160 29.980969
11732  1 27.125263 18.558866 32.836658
11733  1 27.125289 18.558706 35.692172
11734  1 27.125343 18.558840 38.547392
11735  1 27.125389 18.559063 41.402504
11751  1 27.124675 21.413561 29.981557
11752  1 27.124944 21.413224 32.837577
11753  1 27.125141 21.413581 35.692652
11754  1 27.125289 21.414061 38.547526
11755  1 27.125375 21.414437 41.402455
11771  1 27.120204 24.264561 29.986029
11772  1 27.123636 24.267014 32.839219
11773  1 27.124944 24.268655 35.693009
11774  1 27.125263 24.269575 38.547366
11775  1 27.125378 24.269909 41.402295
11791  1 27.119396 27.119396 29.986837
11792  1 27.120204 27.120204 32.841671
11793  1 27.124675 27.124675 35.692672
11794  1 27.125263 27.125263 38.547072
11795  1 27.125386 27.125386 41.402153
12111  1 29.980846 15.704080 29.980846
12112  1 29.980855 15.703940 32.836323
12113  1 29.980858 15.703777 35.691795
12114  1 29.980846 15.703729 38.547169
12115  1 29.980826 15.703803 41.402430
12131  1 29.980969 18.559160 29.980969
12132  1 29.980969 18.558866 32.836658
12133  1 29.980943 18.558706 35.692172
12134  1 29.980889 18.558840 38.547392
12135  1 29.980846 18.559063 41.402504
12151  1 29.981557 21.413561 29.981557
12152  1 29.981289 21.413224 32.837577
12153  1 29.981092 21.413581 35.692652
12154  1 29.980943 21.414061 38.547526
12155  1 29.980858 21.414437 41.402455
12171  1 29.986029 24.264561 29.986029
12172  1 29.982597 24.267014 32.839219
12173  1 29.981289 24.268655 35.693009
12174  1 29.980969 24.269575 38.547366
12175  1 29.980855 24.269909 41.402295
12191  1 29.986837 27.119396 29.986837
12192  1 29.986029 27.120204 32.841671
12193  1 29.981557 27.124675 35.692672
12194  1 29.980969 27.125263 38.547072
12195  1 29.980846 27.125386 41.402153
12511  1 32.836323 15.703940 29.980855
12512  1 32.836349 15.703840 32.836349
12513  1 32.836346 15.703729 35.691815
12514  1 32.836306 15.703709 38.547184
12515  1 32.836246 15.703794 41.402438
12531  1 32.836658 18.558866 29.980969
12532  1 32.836712 18.558675 32.836712
12533  1 32.836606 18.558635 35.692212
12534  1 32.836443 18.558815 38.547421
12535  1 32.836306 18.559049 41.402524
12551  1 32.837577 21.413224 29.981289
12552  1 32.837697 21.412887 32.837697
12553  1 32.837106 21.413449 35.692783
12554  1 32.836606 21.414023 38.547598
12555  1 32.836346 21.414417 41.402507
13000  1 35.691415 27.125455 55.678585
12999  1 35.691427 27.125455 52.823291
12998  1 35.691452 27.125449 49.968010
12997  1 35.691501 27.125438 47.112756
12996  1 35.691598 27.125418 44.257553
2936   1 19.986887 17.131496 42.830083
2937   1 19.986996 17.131633 45.685263
2938   1 19.987070 17.131724 48.540472
2939   1 19.987113 17.131781 51.395706
2940   1 19.987136 17.131813 54.250966
2956   1 19.986839 19.986839 42.830108
2957   1 19.986984 19.986984 45.685251
2958   1 19.987070 19.987070 48.540452
2959   1 19.987116 19.987116 51.395692
2960   1 19.987139 19.987139 54.250958
2976   1 19.986830 22.842250 42.830083
2977   1 19.986990 22.842362 45.685217
2978   1 19.987076 22.842419 48.540426
2979   1 19.987121 22.842453 51.395678
2980   1 19.987144 22.842467 54.250949
2996   1 19.986844 25.697685 42.830045
2997   1 19.986999 25.697739 45.685189
2998   1 19.987084 25.697770 48.540406
2999   1 19.987127 25.697785 51.395666
3000   1 19.987150 25.697793 54.250944
12980  1 35.691418 24.270134 55.678585
12979  1 35.691430 24.270129 52.823299
12978  1 35.691455 24.270112 49.968022
12977  1 35.691507 24.270077 47.112776
12976  1 35.691609 24.270015 44.257587
3336   1 22.842287 17.131490 42.830077
3337   1 22.842367 17.131633 45.685249
3338   1 22.842419 17.131730 48.540457
3339   1 22.842447 17.131787 51.395698
3340   1 22.842464 17.131815 54.250961
3356   1 22.842250 19.986830 42.830083
3357   1 22.842362 19.986990 45.685217
3358   1 22.842419 19.987076 48.540426
3359   1 22.842453 19.987121 51.395678
3360   1 22.842467 19.987144 54.250949
3376   1 22.842245 22.842245 42.830020
3377   1 22.842367 22.842367 45.685166
3378   1 22.842427 22.842427 48.540389
3379   1 22.842456 22.842456 51.395655
3380   1 22.842470 22.842470 54.250941
3396   1 22.842262 25.697685 42.829946
3397   1 22.842379 25.697745 45.685117
3398   1 22.842433 25.697773 48.540363
3399   1 22.842462 25.697787 51.395641
3400   1 22.842476 25.697796 54.250932
12960  1 35.691421 21.414811 55.678591
12959  1 35.691435 21.414797 52.823311
12958  1 35.691464 21.414771 49.968045
12957  1 35.691518 21.414714 47.112810
12956  1 35.691621 21.414612 44.257638
3736   1 25.697702 17.131499 42.830063
3737   1 25.697742 17.131641 45.685234
3738   1 25.697767 17.131736 48.540446
3739   1 25.697782 17.131793 51.395689
3740   1 25.697790 17.131821 54.250958
3756   1 25.697685 19.986844 42.830045
3757   1 25.697739 19.986999 45.685189
3758   1 25.697770 19.987084 48.540406
3759   1 25.697785 19.987127 51.395666
3760   1 25.697793 19.987150 54.250944
3776   1 25.697685 22.842262 42.829946
3777   1 25.697745 22.842379 45.685117
3778   1 25.697773 22.842433 48.540363
3779   1 25.697787 22.842462 51.395641
3780   1 25.697796 22.842476 54.250932
3796   1 25.697696 25.697696 42.829834
3797   1 25.697750 25.697750 45.685057
3798   1 25.697779 25.697779 48.540329
3799   1 25.697790 25.697790 51.395623
3800   1 25.697796 25.697796 54.250926
12940  1 35.691427 18.559486 55.678594
12939  1 35.691438 18.559468 52.823325
12938  1 35.691467 18.559428 49.968070
12937  1 35.691521 18.559357 47.112844
12936  1 35.691609 18.559237 44.257667
4136   1 28.553116 17.131504 42.830057
4137   1 28.553116 17.131644 45.685231
4138   1 28.553116 17.131738 48.540443
4139   1 28.553116 17.131793 51.395689
4140   1 28.553116 17.131821 54.250955
4156   1 28.553116 19.986853 42.830031
4157   1 28.553116 19.987004 45.685180
4158   1 28.553116 19.987087 48.540400
4159   1 28.553116 19.987130 51.395661
4160   1 28.553116 19.987150 54.250944
4176   1 28.553116 22.842273 42.829917
4177   1 28.553116 22.842384 45.685100
4178   1 28.553116 22.842436 48.540352
4179   1 28.553116 22.842464 51.395635
4180   1 28.553116 22.842476 54.250932
4196   1 28.553116 25.697705 42.829786
4197   1 28.553116 25.697756 45.685034
4198   1 28.553116 25.697779 48.540318
4199   1 28.553116 25.697790 51.395615
4200   1 28.553116 25.697799 54.250924
12920  1 35.691430 15.704157 55.678599
12919  1 35.691441 15.704137 52.823336
12918  1 35.691467 15.704091 49.968088
12917  1 35.691512 15.704017 47.112859
12916  1 35.691578 15.703911 44.257653
4536   1 31.408531 17.131499 42.830063
4537   1 31.408491 17.131641 45.685234
4538   1 31.408465 17.131736 48.540446
4539   1 31.408451 17.131793 51.395689
4540   1 31.408442 17.131821 54.250958
4556   1 31.408548 19.986844 42.830045
4557   1 31.408493 19.986999 45.685189
4558   1 31.408462 19.987084 48.540406
4559   1 31.408448 19.987127 51.395666
4560   1 31.408439 19.987150 54.250944
4576   1 31.408551 22.842262 42.829946
4577   1 31.408488 22.842379 45.685117
4578   1 31.408459 22.842433 48.540363
4579   1 31.408445 22.842462 51.395641
4580   1 31.408439 22.842476 54.250932
4596   1 31.408536 25.697696 42.829834
4597   1 31.408482 25.697750 45.685057
4598   1 31.408456 25.697779 48.540329
4599   1 31.408442 25.697790 51.395623
4600   1 31.408436 25.697796 54.250926
12600  1 32.836095 27.125458 55.678579
12599  1 32.836101 27.125455 52.823276
12598  1 32.836112 27.125449 49.967979
12597  1 32.836141 27.125440 47.112699
12596  1 32.836195 27.125420 44.257453
4936   1 34.263945 17.131490 42.830077
4937   1 34.263865 17.131633 45.685249
4938   1 34.263814 17.131730 48.540457
4939   1 34.263785 17.131787 51.395698
4940   1 34.263768 17.131815 54.250961
4956   1 34.263982 19.986830 42.830083
4957   1 34.263871 19.986990 45.685217
4958   1 34.263814 19.987076 48.540426
4959   1 34.263782 19.987121 51.395678
4960   1 34.263765 19.987144 54.250949
4976   1 34.263991 22.842245 42.830020
4977   1 34.263868 22.842367 45.685166
4978   1 34.263808 22.842427 48.540389
4979   1 34.263777 22.842456 51.395655
4980   1 34.263762 22.842470 54.250941
4996   1 34.263971 25.697685 42.829946
4997   1 34.263854 25.697745 45.685117
4998   1 34.263799 25.697773 48.540363
4999   1 34.263771 25.697787 51.395641
5000   1 34.263759 25.697796 54.250932
12580  1 32.836095 24.270137 55.678582
12579  1 32.836101 24.270132 52.823282
12578  1 32.836118 24.270117 49.967993
12577  1 32.836146 24.270086 47.112727
12576  1 32.836209 24.270023 44.257507
5336   1 37.119345 17.131496 42.830083
5337   1 37.119237 17.131633 45.685263
5338   1 37.119162 17.131724 48.540472
5339   1 37.119120 17.131781 51.395706
5340   1 37.119097 17.131813 54.250966
5356   1 37.119394 19.986839 42.830108
5357   1 37.119248 19.986984 45.685251
5358   1 37.119162 19.987070 48.540452
5359   1 37.119117 19.987116 51.395692
5360   1 37.119094 19.987139 54.250958
5376   1 37.119402 22.842250 42.830083
5377   1 37.119242 22.842362 45.685217
5378   1 37.119157 22.842419 48.540426
5379   1 37.119111 22.842453 51.395678
5380   1 37.119088 22.842467 54.250949
5396   1 37.119388 25.697685 42.830045
5397   1 37.119234 25.697739 45.685189
5398   1 37.119148 25.697770 48.540406
5399   1 37.119105 25.697785 51.395666
5400   1 37.119082 25.697793 54.250944
10916  1 21.414657 15.703911 44.257653
10917  1 21.414723 15.704017 47.112859
10918  1 21.414766 15.704091 49.968088
10919  1 21.414791 15.704137 52.823336
10920  1 21.414803 15.704157 55.678599
10936  1 21.414623 18.559237 44.257667
10937  1 21.414714 18.559357 47.112844
10938  1 21.414766 18.559428 49.968070
10939  1 21.414794 18.559468 52.823325
10940  1 21.414806 18.559486 55.678594
10956  1 21.414612 21.414612 44.257638
10957  1 21.414714 21.414714 47.112810
10958  1 21.414771 21.414771 49.968045
10959  1 21.414797 21.414797 52.823311
10960  1 21.414811 21.414811 55.678591
10976  1 21.414623 24.270015 44.257587
10977  1 21.414726 24.270077 47.112776
10978  1 21.414777 24.270112 49.968022
10979  1 21.414803 24.270129 52.823299
10980  1 21.414814 24.270134 55.678585
10996  1 21.414634 27.125418 44.257553
10997  1 21.414732 27.125438 47.112756
10998  1 21.414783 27.125449 49.968010
10999  1 21.414806 27.125455 52.823291
11000  1 21.414817 27.125455 55.678585
11316  1 24.270040 15.703914 44.257644
11317  1 24.270080 15.704023 47.112850
11318  1 24.270106 15.704097 49.968079
11319  1 24.270123 15.704143 52.823331
11320  1 24.270129 15.704163 55.678597
11336  1 24.270020 18.559243 44.257644
11337  1 24.270075 18.559366 47.112824
11338  1 24.270106 18.559434 49.968056
11339  1 24.270123 18.559474 52.823316
11340  1 24.270132 18.559488 55.678591
11356  1 24.270015 21.414623 44.257587
11357  1 24.270077 21.414726 47.112776
11358  1 24.270112 21.414777 49.968022
11359  1 24.270129 21.414803 52.823299
11360  1 24.270134 21.414814 55.678585
11376  1 24.270023 24.270023 44.257507
11377  1 24.270086 24.270086 47.112727
11378  1 24.270117 24.270117 49.967993
11379  1 24.270132 24.270132 52.823282
11380  1 24.270137 24.270137 55.678582
11396  1 24.270037 27.125420 44.257453
11397  1 24.270092 27.125440 47.112699
11398  1 24.270120 27.125449 49.967979
11399  1 24.270134 27.125455 52.823276
11400  1 24.270140 27.125458 55.678579
11716  1 27.125423 15.703920 44.257638
11717  1 27.125438 15.704025 47.112844
11718  1 27.125446 15.704100 49.968073
11719  1 27.125452 15.704145 52.823328
11720  1 27.125455 15.704165 55.678597
11736  1 27.125418 18.559251 44.257627
11737  1 27.125438 18.559371 47.112813
11738  1 27.125446 18.559440 49.968048
11739  1 27.125452 18.559477 52.823311
11740  1 27.125455 18.559491 55.678591
11756  1 27.125418 21.414634 44.257553
11757  1 27.125438 21.414732 47.112756
11758  1 27.125449 21.414783 49.968010
11759  1 27.125455 21.414806 52.823291
11760  1 27.125455 21.414817 55.678585
11776  1 27.125420 24.270037 44.257453
11777  1 27.125440 24.270092 47.112699
11778  1 27.125449 24.270120 49.967979
11779  1 27.125455 24.270134 52.823276
11780  1 27.125458 24.270140 55.678579
11796  1 27.125426 27.125426 44.257384
11797  1 27.125443 27.125443 47.112665
11798  1 27.125452 27.125452 49.967962
11799  1 27.125455 27.125455 52.823268
11800  1 27.125458 27.125458 55.678577
12116  1 29.980809 15.703920 44.257638
12117  1 29.980795 15.704025 47.112844
12118  1 29.980786 15.704100 49.968073
12119  1 29.980781 15.704145 52.823328
12120  1 29.980778 15.704165 55.678597
12136  1 29.980815 18.559251 44.257627
12137  1 29.980795 18.559371 47.112813
12138  1 29.980786 18.559440 49.968048
12139  1 29.980781 18.559477 52.823311
12140  1 29.980778 18.559491 55.678591
12156  1 29.980815 21.414634 44.257553
12157  1 29.980795 21.414732 47.112756
12158  1 29.980783 21.414783 49.968010
12159  1 29.980778 21.414806 52.823291
12160  1 29.980778 21.414817 55.678585
12176  1 29.980812 24.270037 44.257453
12177  1 29.980792 24.270092 47.112699
12178  1 29.980783 24.270120 49.967979
12179  1 29.980778 24.270134 52.823276
12180  1 29.980775 24.270140 55.678579
12196  1 29.980806 27.125426 44.257384
12197  1 29.980789 27.125443 47.112665
12198  1 29.980781 27.125452 49.967962
12199  1 29.980778 27.125455 52.823268
12200  1 29.980775 27.125458 55.678577
12516  1 32.836192 15.703914 44.257644
12517  1 32.836152 15.704023 47.112850
12518  1 32.836126 15.704097 49.968079
12519  1 32.836112 15.704143 52.823331
12520  1 32.836104 15.704163 55.678597
12536  1 32.836212 18.559243 44.257644
12537  1 32.836158 18.559366 47.112824
12538  1 32.836126 18.559434 49.968056
12539  1 32.836109 18.559474 52.823316
12540  1 32.836101 18.559488 55.678591
12556  1 32.836218 21.414623 44.257587
12557  1 32.836155 21.414726 47.112776
12558  1 32.836121 21.414777 49.968022
12559  1 32.836106 21.414803 52.823299
12560  1 32.836098 21.414814 55.678585
3001   1 19.987158 28.553116  0.000000
3002   1 19.987150 28.553116  2.855292
3003   1 19.987130 28.553116  5.710572
3004   1 19.987087 28.553116  8.565832
3005   1 19.987004 28.553116 11.421052
3021   1 19.987156 31.408439  0.000000
3022   1 19.987150 31.408439  2.855289
3023   1 19.987127 31.408448  5.710569
3024   1 19.987084 31.408462  8.565826
3025   1 19.986999 31.408493 11.421044
3041   1 19.987153 34.263759  0.000000
3042   1 19.987144 34.263765  2.855283
3043   1 19.987121 34.263782  5.710558
3044   1 19.987076 34.263814  8.565806
3045   1 19.986990 34.263871 11.421015
3061   1 19.987147 37.119085  0.000000
3062   1 19.987139 37.119094  2.855275
3063   1 19.987116 37.119117  5.710540
3064   1 19.987070 37.119162  8.565781
3065   1 19.986984 37.119248 11.420984
3081   1 19.987141 39.974411  0.000000
3082   1 19.987136 39.974423  2.855269
3083   1 19.987113 39.974451  5.710526
3084   1 19.987070 39.974508  8.565764
3085   1 19.986996 39.974603 11.420970
3401   1 22.842479 28.553116  0.000000
3402   1 22.842476 28.553116  2.855303
3403   1 22.842464 28.553116  5.710598
3404   1 22.842436 28.553116  8.565881
3405   1 22.842384 28.553116 11.421132
3421   1 22.842479 31.408436  0.000000
3422   1 22.842476 31.408439  2.855300
3423   1 22.842462 31.408445  5.710592
3424   1 22.842433 31.408459  8.565869
3425   1 22.842379 31.408488 11.421115
3441   1 22.842476 34.263757  0.000000
3442   1 22.842470 34.263762  2.855292
3443   1 22.842456 34.263777  5.710578
3444   1 22.842427 34.263808  8.565843
3445   1 22.842367 34.263868 11.421069
3461   1 22.842473 37.119080  0.000000
3462   1 22.842467 37.119088  2.855283
3463   1 22.842453 37.119111  5.710558
3464   1 22.842419 37.119157  8.565806
3465   1 22.842362 37.119242 11.421015
3481   1 22.842467 39.974406  0.000000
3482   1 22.842464 39.974417  2.855272
3483   1 22.842447 39.974445  5.710535
3484   1 22.842419 39.974503  8.565775
3485   1 22.842367 39.974600 11.420984
3801   1 25.697799 28.553116  0.000000
3802   1 25.697799 28.553116  2.855309
3803   1 25.697790 28.553116  5.710618
3804   1 25.697779 28.553116  8.565915
3805   1 25.697756 28.553116 11.421201
3821   1 25.697799 31.408434  0.000000
3822   1 25.697796 31.408436  2.855306
3823   1 25.697790 31.408442  5.710612
3824   1 25.697779 31.408456  8.565903
3825   1 25.697750 31.408482 11.421175
3841   1 25.697796 34.263754  0.000000
3842   1 25.697796 34.263759  2.855300
3843   1 25.697787 34.263771  5.710592
3844   1 25.697773 34.263799  8.565869
3845   1 25.697745 34.263854 11.421115
3861   1 25.697796 37.119077  0.000000
3862   1 25.697793 37.119082  2.855289
3863   1 25.697785 37.119105  5.710569
3864   1 25.697770 37.119148  8.565826
3865   1 25.697739 37.119234 11.421044
3881   1 25.697793 39.974403  0.000000
3882   1 25.697790 39.974411  2.855277
3883   1 25.697782 39.974443  5.710543
3884   1 25.697767 39.974497  8.565786
3885   1 25.697742 39.974594 11.420998
4201   1 28.553116 28.553116  0.000000
4202   1 28.553116 28.553116  2.855312
4203   1 28.553116 28.553116  5.710623
4204   1 28.553116 28.553116  8.565929
4205   1 28.553116 28.553116 11.421226
4221   1 28.553116 31.408434  0.000000
4222   1 28.553116 31.408436  2.855309
4223   1 28.553116 31.408442  5.710618
4224   1 28.553116 31.408454  8.565915
4225   1 28.553116 31.408476 11.421201
4241   1 28.553116 34.263754  0.000000
4242   1 28.553116 34.263757  2.855303
4243   1 28.553116 34.263771  5.710598
4244   1 28.553116 34.263797  8.565881
4245   1 28.553116 34.263848 11.421132
4261   1 28.553116 37.119077  0.000000
4262   1 28.553116 37.119082  2.855292
4263   1 28.553116 37.119102  5.710572
4264   1 28.553116 37.119145  8.565832
4265   1 28.553116 37.119228 11.421052
4281   1 28.553116 39.974403  0.000000
4282   1 28.553116 39.974411  2.855277
4283   1 28.553116 39.974440  5.710546
4284   1 28.553116 39.974494  8.565792
4285   1 28.553116 39.974588 11.421004
4601   1 31.408434 28.553116  0.000000
4602   1 31.408436 28.553116  2.855309
4603   1 31.408442 28.553116  5.710618
4604   1 31.408454 28.553116  8.565915
4605   1 31.408476 28.553116 11.421201
4621   1 31.408434 31.408434  0.000000
4622   1 31.408436 31.408436  2.855306
4623   1 31.408442 31.408442  5.710612
4624   1 31.408456 31.408456  8.565903
4625   1 31.408482 31.408482 11.421175
4641   1 31.408436 34.263754  0.000000
4642   1 31.408439 34.263759  2.855300
4643   1 31.408445 34.263771  5.710592
4644   1 31.408459 34.263799  8.565869
4645   1 31.408488 34.263854 11.421115
4661   1 31.408439 37.119077  0.000000
4662   1 31.408439 37.119082  2.855289
4663   1 31.408448 37.119105  5.710569
4664   1 31.408462 37.119148  8.565826
4665   1 31.408493 37.119234 11.421044
4681   1 31.408439 39.974403  0.000000
4682   1 31.408442 39.974411  2.855277
4683   1 31.408451 39.974443  5.710543
4684   1 31.408465 39.974497  8.565786
4685   1 31.408491 39.974594 11.420998
5001   1 34.263754 28.553116  0.000000
5002   1 34.263757 28.553116  2.855303
5003   1 34.263771 28.553116  5.710598
5004   1 34.263797 28.553116  8.565881
5005   1 34.263848 28.553116 11.421132
5021   1 34.263754 31.408436  0.000000
5022   1 34.263759 31.408439  2.855300
5023   1 34.263771 31.408445  5.710592
5024   1 34.263799 31.408459  8.565869
5025   1 34.263854 31.408488 11.421115
5041   1 34.263757 34.263757  0.000000
5042   1 34.263762 34.263762  2.855292
5043   1 34.263777 34.263777  5.710578
5044   1 34.263808 34.263808  8.565843
5045   1 34.263868 34.263868 11.421069
5061   1 34.263759 37.119080  0.000000
5062   1 34.263765 37.119088  2.855283
5063   1 34.263782 37.119111  5.710558
5064   1 34.263814 37.119157  8.565806
5065   1 34.263871 37.119242 11.421015
5081   1 34.263765 39.974406  0.000000
5082   1 34.263768 39.974417  2.855272
5083   1 34.263785 39.974445  5.710535
5084   1 34.263814 39.974503  8.565775
5085   1 34.263865 39.974600 11.420984
5401   1 37.119077 28.553116  0.000000
5402   1 37.119082 28.553116  2.855292
5403   1 37.119102 28.553116  5.710572
5404   1 37.119145 28.553116  8.565832
5405   1 37.119228 28.553116 11.421052
5421   1 37.119077 31.408439  0.000000
5422   1 37.119082 31.408439  2.855289
5423   1 37.119105 31.408448  5.710569
5424   1 37.119148 31.408462  8.565826
5425   1 37.119234 31.408493 11.421044
5441   1 37.119080 34.263759  0.000000
5442   1 37.119088 34.263765  2.855283
5443   1 37.119111 34.263782  5.710558
5444   1 37.119157 34.263814  8.565806
5445   1 37.119242 34.263871 11.421015
5461   1 37.119085 37.119085  0.000000
5462   1 37.119094 37.119094  2.855275
5463   1 37.119117 37.119117  5.710540
5464   1 37.119162 37.119162  8.565781
5465   1 37.119248 37.119248 11.420984
5481   1 37.119091 39.974411  0.000000
5482   1 37.119097 39.974423  2.855269
5483   1 37.119120 39.974451  5.710526
5484   1 37.119162 39.974508  8.565764
5485   1 37.119237 39.974603 11.420970
11001  1 21.414817 29.980778  1.427647
11002  1 21.414806 29.980778  4.282942
11003  1 21.414783 29.980783  7.138222
11004  1 21.414732 29.980795  9.993479
11005  1 21.414634 29.980815 12.848680
11021  1 21.414814 32.836098  1.427647
11022  1 21.414803 32.836106  4.282936
11023  1 21.414777 32.836121  7.138211
11024  1 21.414726 32.836155  9.993456
11025  1 21.414623 32.836218 12.848645
11041  1 21.414811 35.691421  1.427642
11042  1 21.414797 35.691435  4.282922
11043  1 21.414771 35.691464  7.138188
11044  1 21.414714 35.691518  9.993422
11045  1 21.414612 35.691621 12.848597
11061  1 21.414806 38.546747  1.427639
11062  1 21.414794 38.546767  4.282907
11063  1 21.414766 38.546804  7.138162
11064  1 21.414714 38.546875  9.993388
11065  1 21.414623 38.546998 12.848565
11081  1 21.414803 41.402076  1.427633
11082  1 21.414791 41.402096  4.282896
11083  1 21.414766 41.402141  7.138145
11084  1 21.414723 41.402216  9.993374
11085  1 21.414657 41.402321 12.848580
11401  1 24.270140 29.980775  1.427653
11402  1 24.270134 29.980778  4.282959
11403  1 24.270120 29.980783  7.138253
11404  1 24.270092 29.980792  9.993536
11405  1 24.270037 29.980812 12.848780
11421  1 24.270137 32.836095  1.427650
11422  1 24.270132 32.836101  4.282950
11423  1 24.270117 32.836118  7.138239
11424  1 24.270086 32.836146  9.993505
11425  1 24.270023 32.836209 12.848728
11441  1 24.270134 35.691418  1.427647
11442  1 24.270129 35.691430  4.282936
11443  1 24.270112 35.691455  7.138211
11444  1 24.270077 35.691507  9.993456
11445  1 24.270015 35.691609 12.848645
11461  1 24.270132 38.546744  1.427642
11462  1 24.270123 38.546761  4.282916
11463  1 24.270106 38.546798  7.138179
11464  1 24.270075 38.546867  9.993408
11465  1 24.270020 38.546990 12.848588
11481  1 24.270129 41.402070  1.427636
11482  1 24.270123 41.402090  4.282902
11483  1 24.270106 41.402136  7.138153
11484  1 24.270080 41.402210  9.993382
11485  1 24.270040 41.402318 12.848588
11801  1 27.125458 29.980775  1.427656
11802  1 27.125455 29.980778  4.282967
11803  1 27.125452 29.980781  7.138273
11804  1 27.125443 29.980789  9.993571
11805  1 27.125426 29.980806 12.848848
11821  1 27.125458 32.836095  1.427653
11822  1 27.125455 32.836101  4.282959
11823  1 27.125449 32.836112  7.138253
11824  1 27.125440 32.836141  9.993536
11825  1 27.125420 32.836195 12.848780
11841  1 27.125455 35.691415  1.427647
11842  1 27.125455 35.691427  4.282942
11843  1 27.125449 35.691452  7.138222
11844  1 27.125438 35.691501  9.993479
11845  1 27.125418 35.691598 12.848680
11861  1 27.125455 38.546741  1.427642
11862  1 27.125452 38.546755  4.282922
11863  1 27.125446 38.546793  7.138188
11864  1 27.125438 38.546861  9.993422
11865  1 27.125418 38.546981 12.848605
11881  1 27.125455 41.402067  1.427636
11882  1 27.125452 41.402087  4.282905
11883  1 27.125446 41.402133  7.138159
11884  1 27.125438 41.402207  9.993388
11885  1 27.125423 41.402313 12.848597
12201  1 29.980775 29.980775  1.427656
12202  1 29.980778 29.980778  4.282967
12203  1 29.980781 29.980781  7.138273
12204  1 29.980789 29.980789  9.993571
12205  1 29.980806 29.980806 12.848848
12221  1 29.980775 32.836095  1.427653
12222  1 29.980778 32.836101  4.282959
12223  1 29.980783 32.836112  7.138253
12224  1 29.980792 32.836141  9.993536
12225  1 29.980812 32.836195 12.848780
12241  1 29.980778 35.691415  1.427647
12242  1 29.980778 35.691427  4.282942
12243  1 29.980783 35.691452  7.138222
12244  1 29.980795 35.691501  9.993479
12245  1 29.980815 35.691598 12.848680
12261  1 29.980778 38.546741  1.427642
12262  1 29.980781 38.546755  4.282922
12263  1 29.980786 38.546793  7.138188
12264  1 29.980795 38.546861  9.993422
12265  1 29.980815 38.546981 12.848605
12281  1 29.980778 41.402067  1.427636
12282  1 29.980781 41.402087  4.282905
12283  1 29.980786 41.402133  7.138159
12284  1 29.980795 41.402207  9.993388
12285  1 29.980809 41.402313 12.848597
12601  1 32.836095 29.980775  1.427653
12602  1 32.836101 29.980778  4.282959
12603  1 32.836112 29.980783  7.138253
12604  1 32.836141 29.980792  9.993536
12605  1 32.836195 29.980812 12.848780
12621  1 32.836095 32.836095  1.427650
12622  1 32.836101 32.836101  4.282950
12623  1 32.836118 32.836118  7.138239
12624  1 32.836146 32.836146  9.993505
12625  1 32.836209 32.836209 12.848728
12641  1 32.836098 35.691418  1.427647
12642  1 32.836106 35.691430  4.282936
12643  1 32.836121 35.691455  7.138211
12644  1 32.836155 35.691507  9.993456
12645  1 32.836218 35.691609 12.848645
12661  1 32.836101 38.546744  1.427642
12662  1 32.836109 38.546761  4.282916
12663  1 32.836126 38.546798  7.138179
12664  1 32.836158 38.546867  9.993408
12665  1 32.836212 38.546990 12.848588
12681  1 32.836104 41.402070  1.427636
12682  1 32.836112 41.402090  4.282902
12683  1 32.836126 41.402136  7.138153
12684  1 32.836152 41.402210  9.993382
12685  1 32.836192 41.402318 12.848588
13001  1 35.691415 29.980778  1.427647
13002  1 35.691427 29.980778  4.282942
13003  1 35.691452 29.980783  7.138222
13004  1 35.691501 29.980795  9.993479
13005  1 35.691598 29.980815 12.848680
13021  1 35.691418 32.836098  1.427647
13022  1 35.691430 32.836106  4.282936
13023  1 35.691455 32.836121  7.138211
13024  1 35.691507 32.836155  9.993456
13025  1 35.691609 32.836218 12.848645
13041  1 35.691421 35.691421  1.427642
13042  1 35.691435 35.691435  4.282922
13043  1 35.691464 35.691464  7.138188
13044  1 35.691518 35.691518  9.993422
13045  1 35.691621 35.691621 12.848597
13061  1 35.691427 38.546747  1.427639
13062  1 35.691438 38.546767  4.282907
13063  1 35.691467 38.546804  7.138162
13064  1 35.691521 38.546875  9.993388
13065  1 35.691609 38.546998 12.848565
13081  1 35.691430 41.402076  1.427633
13082  1 35.691441 41.402096  4.282896
13083  1 35.691467 41.402141  7.138145
13084  1 35.691512 41.402216  9.993374
13085  1 35.691578 41.402321 12.848580
3006   1 19.986853 28.553116 14.276204
3026   1 19.986844 31.408548 14.276187
3046   1 19.986830 34.263982 14.276150
3066   1 19.986839 37.119394 14.276124
3086   1 19.986887 39.974737 14.276150
3406   1 22.842273 28.553116 14.276318
3426   1 22.842262 31.408551 14.276287
3446   1 22.842245 34.263991 14.276213
3466   1 22.842250 37.119402 14.276150
3486   1 22.842287 39.974742 14.276156
3806   1 25.697705 28.553116 14.276447
3826   1 25.697696 31.408536 14.276398
3846   1 25.697685 34.263971 14.276287
3866   1 25.697685 37.119388 14.276187
3886   1 25.697702 39.974734 14.276170
4206   1 28.553116 28.553116 14.276501
4226   1 28.553116 31.408528 14.276447
4246   1 28.553116 34.263959 14.276318
4266   1 28.553116 37.119379 14.276204
4286   1 28.553116 39.974728 14.276175
4606   1 31.408528 28.553116 14.276447
4626   1 31.408536 31.408536 14.276398
4646   1 31.408551 34.263971 14.276287
4666   1 31.408548 37.119388 14.276187
4686   1 31.408531 39.974734 14.276170
5006   1 34.263959 28.553116 14.276318
5026   1 34.263971 31.408551 14.276287
5046   1 34.263991 34.263991 14.276213
5066   1 34.263982 37.119402 14.276150
5086   1 34.263945 39.974742 14.276156
5406   1 37.119379 28.553116 14.276204
5426   1 37.119388 31.408548 14.276187
5446   1 37.119402 34.263982 14.276150
5466   1 37.119394 37.119394 14.276124
5486   1 37.119345 39.974737 14.276150
13090  1 35.691795 41.402455 27.125375
3007   1 19.986593 28.553116 17.131253
3008   1 19.986279 28.553116 19.986279
3009   1 19.986088 28.553116 22.841456
3010   1 19.986399 28.553116 25.697162
13089  1 35.691815 41.402507 24.269886
3027   1 19.986579 31.408648 17.131230
3028   1 19.986245 31.408808 19.986245
3029   1 19.985996 31.409010 22.841405
3030   1 19.986131 31.409164 25.697068
13088  1 35.691818 41.402564 21.414415
3047   1 19.986562 34.264179 17.131190
3048   1 19.986199 34.264496 19.986199
3049   1 19.985894 34.264822 22.841411
3050   1 19.985996 34.264830 25.697222
13087  1 35.691758 41.402544 18.559046
3067   1 19.986610 37.119622 17.131207
3068   1 19.986370 37.119862 19.986370
3069   1 19.986199 37.120033 22.841736
3070   1 19.986245 37.119988 25.697425
13086  1 35.691664 41.402444 15.703788
3087   1 19.986744 39.974897 17.131336
3088   1 19.986610 39.975025 19.986610
3089   1 19.986562 39.975042 22.842053
3090   1 19.986579 39.975002 25.697585
13070  1 35.692172 38.547526 27.125289
3407   1 22.842019 28.553116 17.131350
3408   1 22.841456 28.553116 19.986088
3409   1 22.840731 28.553116 22.840731
3410   1 22.840109 28.553116 25.695752
13069  1 35.692212 38.547598 24.269626
3427   1 22.841999 31.408685 17.131299
3428   1 22.841405 31.409010 19.985996
3429   1 22.840460 31.409830 22.840460
3430   1 22.839244 31.411069 25.695163
13068  1 35.692166 38.547612 21.414066
3447   1 22.841976 34.264256 17.131187
3448   1 22.841411 34.264822 19.985894
3449   1 22.840920 34.265316 22.840920
3450   1 22.840460 34.265772 25.696403
13067  1 35.691966 38.547424 18.558812
3467   1 22.842053 37.119674 17.131190
3468   1 22.841736 37.120033 19.986199
3469   1 22.841411 37.120339 22.841411
3470   1 22.841405 37.120236 25.697222
13066  1 35.691758 38.547187 15.703689
3487   1 22.842176 39.974911 17.131322
3488   1 22.842053 39.975042 19.986562
3489   1 22.841976 39.975045 22.841976
3490   1 22.841999 39.974934 25.697548
13050  1 35.692652 35.692652 27.125141
3807   1 25.697573 28.553116 17.131590
3808   1 25.697162 28.553116 19.986399
3809   1 25.695752 28.553116 22.840109
3810   1 25.691574 28.553116 25.691574
13049  1 35.692783 35.692783 24.269127
3827   1 25.697550 31.408685 17.131487
3828   1 25.697068 31.409164 19.986131
3829   1 25.695163 31.411069 22.839244
3830   1 25.694775 31.411457 25.694775
13048  1 35.692517 35.692517 21.413715
3847   1 25.697548 34.264236 17.131299
3848   1 25.697222 34.264830 19.985996
3849   1 25.696403 34.265772 22.840460
3850   1 25.695163 34.266989 25.695163
13047  1 35.692166 35.692166 18.558620
3867   1 25.697585 37.119654 17.131230
3868   1 25.697425 37.119988 19.986245
3869   1 25.697222 37.120236 22.841405
3870   1 25.697068 37.120102 25.697068
13046  1 35.691818 35.691818 15.703669
3887   1 25.697648 39.974897 17.131336
3888   1 25.697585 39.975002 19.986579
3889   1 25.697548 39.974934 22.841999
3890   1 25.697550 39.974745 25.697550
13030  1 35.693009 32.837577 27.124944
4207   1 28.553116 28.553116 17.131727
4208   1 28.553116 28.553116 19.986722
4209   1 28.553116 28.553116 22.839672
4210   1 28.553116 28.553116 25.653841
13029  1 35.693345 32.837697 24.268536
4227   1 28.553116 31.408659 17.131590
4228   1 28.553116 31.409070 19.986399
4229   1 28.553116 31.410481 22.840109
4230   1 28.553116 31.414658 25.691574
13028  1 35.692783 32.837106 21.413449
4247   1 28.553116 34.264213 17.131350
4248   1 28.553116 34.264776 19.986088
4249   1 28.553116 34.265501 22.840731
4250   1 28.553116 34.266126 25.695752
13027  1 35.692212 32.836606 18.558635
4267   1 28.553116 37.119642 17.131253
4268   1 28.553116 37.119956 19.986279
4269   1 28.553116 37.120145 22.841456
4270   1 28.553116 37.119836 25.697162
13026  1 35.691815 32.836346 15.703729
4287   1 28.553116 39.974888 17.131344
4288   1 28.553116 39.974979 19.986593
4289   1 28.553116 39.974882 22.842019
4290   1 28.553116 39.974643 25.697573
13010  1 35.692672 29.981557 27.124675
4607   1 31.408659 28.553116 17.131590
4608   1 31.409070 28.553116 19.986399
4609   1 31.410481 28.553116 22.840109
4610   1 31.414658 28.553116 25.691574
13009  1 35.693009 29.981289 24.268655
4627   1 31.408685 31.408685 17.131487
4628   1 31.409164 31.409164 19.986131
4629   1 31.411069 31.411069 22.839244
4630   1 31.411457 31.411457 25.694775
13008  1 35.692652 29.981092 21.413581
4647   1 31.408685 34.264236 17.131299
4648   1 31.409010 34.264830 19.985996
4649   1 31.409830 34.265772 22.840460
4650   1 31.411069 34.266989 25.695163
13007  1 35.692172 29.980943 18.558706
4667   1 31.408648 37.119654 17.131230
4668   1 31.408808 37.119988 19.986245
4669   1 31.409010 37.120236 22.841405
4670   1 31.409164 37.120102 25.697068
13006  1 35.691795 29.980858 15.703777
4687   1 31.408585 39.974897 17.131336
4688   1 31.408648 39.975002 19.986579
4689   1 31.408685 39.974934 22.841999
4690   1 31.408685 39.974745 25.697550
12690  1 32.836323 41.402295 27.125378
5007   1 34.264213 28.553116 17.131350
5008   1 34.264776 28.553116 19.986088
5009   1 34.265501 28.553116 22.840731
5010   1 34.266126 28.553116 25.695752
12689  1 32.836349 41.402393 24.269886
5027   1 34.264236 31.408685 17.131299
5028   1 34.264830 31.409010 19.985996
5029   1 34.265772 31.409830 22.840460
5030   1 34.266989 31.411069 25.695163
12688  1 32.836346 41.402507 21.414417
5047   1 34.264256 34.264256 17.131187
5048   1 34.264822 34.264822 19.985894
5049   1 34.265316 34.265316 22.840920
5050   1 34.265772 34.265772 25.696403
12687  1 32.836306 41.402524 18.559049
5067   1 34.264179 37.119674 17.131190
5068   1 34.264496 37.120033 19.986199
5069   1 34.264822 37.120339 22.841411
5070   1 34.264830 37.120236 25.697222
12686  1 32.836246 41.402438 15.703794
5087   1 34.264056 39.974911 17.131322
5088   1 34.264179 39.975042 19.986562
5089   1 34.264256 39.975045 22.841976
5090   1 34.264236 39.974934 25.697548
12670  1 32.836658 38.547366 27.125263
5407   1 37.119642 28.553116 17.131253
5408   1 37.119956 28.553116 19.986279
5409   1 37.120145 28.553116 22.841456
5410   1 37.119836 28.553116 25.697162
12669  1 32.836712 38.547558 24.269521
5427   1 37.119654 31.408648 17.131230
5428   1 37.119988 31.408808 19.986245
5429   1 37.120236 31.409010 22.841405
5430   1 37.120102 31.409164 25.697068
12668  1 32.836606 38.547598 21.414023
5447   1 37.119674 34.264179 17.131190
5448   1 37.120033 34.264496 19.986199
5449   1 37.120339 34.264822 22.841411
5450   1 37.120236 34.264830 25.697222
12667  1 32.836443 38.547421 18.558815
5467   1 37.119622 37.119622 17.131207
5468   1 37.119862 37.119862 19.986370
5469   1 37.120033 37.120033 22.841736
5470   1 37.119988 37.119988 25.697425
12666  1 32.836306 38.547184 15.703709
5487   1 37.119491 39.974897 17.131336
5488   1 37.119622 39.975025 19.986610
5489   1 37.119674 39.975042 22.842053
5490   1 37.119654 39.975002 25.697585
11006  1 21.414437 29.980858 15.703777
11007  1 21.414061 29.980943 18.558706
11008  1 21.413581 29.981092 21.413581
11009  1 21.413224 29.981289 24.268655
11010  1 21.413561 29.981557 27.124675
11026  1 21.414417 32.836346 15.703729
11027  1 21.414023 32.836606 18.558635
11028  1 21.413449 32.837106 21.413449
11029  1 21.412887 32.837697 24.268536
11030  1 21.413224 32.837577 27.124944
11046  1 21.414415 35.691818 15.703669
11047  1 21.414066 35.692166 18.558620
11048  1 21.413715 35.692517 21.413715
11049  1 21.413449 35.692783 24.269127
11050  1 21.413581 35.692652 27.125141
11066  1 21.414475 38.547187 15.703689
11067  1 21.414266 38.547424 18.558812
11068  1 21.414066 38.547612 21.414066
11069  1 21.414023 38.547598 24.269626
11070  1 21.414061 38.547526 27.125289
11086  1 21.414569 41.402444 15.703788
11087  1 21.414475 41.402544 18.559046
11088  1 21.414415 41.402564 21.414415
11089  1 21.414417 41.402507 24.269886
11090  1 21.414437 41.402455 27.125375
11406  1 24.269909 29.980855 15.703940
11407  1 24.269575 29.980969 18.558866
11408  1 24.268655 29.981289 21.413224
11409  1 24.267014 29.982597 24.267014
11410  1 24.264561 29.986029 27.120204
11426  1 24.269886 32.836349 15.703840
11427  1 24.269521 32.836712 18.558675
11428  1 24.268536 32.837697 21.412887
11429  1 24.267936 32.838296 24.267936
11430  1 24.267014 32.839219 27.123636
11446  1 24.269886 35.691815 15.703729
11447  1 24.269626 35.692212 18.558635
11448  1 24.269127 35.692783 21.413449
11449  1 24.268536 35.693345 24.268536
11450  1 24.268655 35.693009 27.124944
11466  1 24.269926 38.547184 15.703709
11467  1 24.269789 38.547421 18.558815
11468  1 24.269626 38.547598 21.414023
11469  1 24.269521 38.547558 24.269521
11470  1 24.269575 38.547366 27.125263
11486  1 24.269986 41.402438 15.703794
11487  1 24.269926 41.402524 18.559049
11488  1 24.269886 41.402507 21.414417
11489  1 24.269886 41.402393 24.269886
11490  1 24.269909 41.402295 27.125378
11806  1 27.125386 29.980846 15.704080
11807  1 27.125263 29.980969 18.559160
11808  1 27.124675 29.981557 21.413561
11809  1 27.120204 29.986029 24.264561
11810  1 27.119396 29.986837 27.119396
11826  1 27.125378 32.836323 15.703940
11827  1 27.125263 32.836658 18.558866
11828  1 27.124944 32.837577 21.413224
11829  1 27.123636 32.839219 24.267014
11830  1 27.120204 32.841671 27.120204
11846  1 27.125375 35.691795 15.703777
11847  1 27.125289 35.692172 18.558706
11848  1 27.125141 35.692652 21.413581
11849  1 27.124944 35.693009 24.268655
11850  1 27.124675 35.692672 27.124675
11866  1 27.125389 38.547169 15.703729
11867  1 27.125343 38.547392 18.558840
11868  1 27.125289 38.547526 21.414061
11869  1 27.125263 38.547366 24.269575
11870  1 27.125263 38.547072 27.125263
11886  1 27.125406 41.402430 15.703803
11887  1 27.125389 41.402504 18.559063
11888  1 27.125375 41.402455 21.414437
11889  1 27.125378 41.402295 24.269909
11890  1 27.125386 41.402153 27.125386
12206  1 29.980846 29.980846 15.704080
12207  1 29.980969 29.980969 18.559160
12208  1 29.981557 29.981557 21.413561
12209  1 29.986029 29.986029 24.264561
12210  1 29.986837 29.986837 27.119396
12226  1 29.980855 32.836323 15.703940
12227  1 29.980969 32.836658 18.558866
12228  1 29.981289 32.837577 21.413224
12229  1 29.982597 32.839219 24.267014
12230  1 29.986029 32.841671 27.120204
12246  1 29.980858 35.691795 15.703777
12247  1 29.980943 35.692172 18.558706
12248  1 29.981092 35.692652 21.413581
12249  1 29.981289 35.693009 24.268655
12250  1 29.981557 35.692672 27.124675
12266  1 29.980846 38.547169 15.703729
12267  1 29.980889 38.547392 18.558840
12268  1 29.980943 38.547526 21.414061
12269  1 29.980969 38.547366 24.269575
12270  1 29.980969 38.547072 27.125263
12286  1 29.980826 41.402430 15.703803
12287  1 29.980846 41.402504 18.559063
12288  1 29.980858 41.402455 21.414437
12289  1 29.980855 41.402295 24.269909
12290  1 29.980846 41.402153 27.125386
12606  1 32.836323 29.980855 15.703940
12607  1 32.836658 29.980969 18.558866
12608  1 32.837577 29.981289 21.413224
12609  1 32.839219 29.982597 24.267014
12610  1 32.841671 29.986029 27.120204
12626  1 32.836349 32.836349 15.703840
12627  1 32.836712 32.836712 18.558675
12628  1 32.837697 32.837697 21.412887
12629  1 32.838296 32.838296 24.267936
12630  1 32.839219 32.839219 27.123636
12646  1 32.836346 35.691815 15.703729
12647  1 32.836606 35.692212 18.558635
12648  1 32.837106 35.692783 21.413449
12649  1 32.837697 35.693345 24.268536
12650  1 32.837577 35.693009 27.124944
3011   1 19.986722 28.553116 28.553116
3012   1 19.986399 28.553116 31.409070
3013   1 19.986088 28.553116 34.264776
3014   1 19.986279 28.553116 37.119956
3015   1 19.986593 28.553116 39.974979
3031   1 19.986399 31.409070 28.553116
3032   1 19.986131 31.409164 31.409164
3033   1 19.985996 31.409010 34.264830
3034   1 19.986245 31.408808 37.119988
3035   1 19.986579 31.408648 39.975002
3051   1 19.986088 34.264776 28.553116
3052   1 19.985996 34.264830 31.409010
3053   1 19.985894 34.264822 34.264822
3054   1 19.986199 34.264496 37.120033
3055   1 19.986562 34.264179 39.975042
3071   1 19.986279 37.119956 28.553116
3072   1 19.986245 37.119988 31.408808
3073   1 19.986199 37.120033 34.264496
3074   1 19.986370 37.119862 37.119862
3075   1 19.986610 37.119622 39.975025
3091   1 19.986593 39.974979 28.553116
3092   1 19.986579 39.975002 31.408648
3093   1 19.986562 39.975042 34.264179
3094   1 19.986610 39.975025 37.119622
3095   1 19.986744 39.974897 39.974897
3411   1 22.839672 28.553116 28.553116
3412   1 22.840109 28.553116 31.410481
3413   1 22.840731 28.553116 34.265501
3414   1 22.841456 28.553116 37.120145
3415   1 22.842019 28.553116 39.974882
3431   1 22.840109 31.410481 28.553116
3432   1 22.839244 31.411069 31.411069
3433   1 22.840460 31.409830 34.265772
3434   1 22.841405 31.409010 37.120236
3435   1 22.841999 31.408685 39.974934
3451   1 22.840731 34.265501 28.553116
3452   1 22.840460 34.265772 31.409830
3453   1 22.840920 34.265316 34.265316
3454   1 22.841411 34.264822 37.120339
3455   1 22.841976 34.264256 39.975045
3471   1 22.841456 37.120145 28.553116
3472   1 22.841405 37.120236 31.409010
3473   1 22.841411 37.120339 34.264822
3474   1 22.841736 37.120033 37.120033
3475   1 22.842053 37.119674 39.975042
3491   1 22.842019 39.974882 28.553116
3492   1 22.841999 39.974934 31.408685
3493   1 22.841976 39.975045 34.264256
3494   1 22.842053 39.975042 37.119674
3495   1 22.842176 39.974911 39.974911
3811   1 25.653841 28.553116 28.553116
3812   1 25.691574 28.553116 31.414658
3813   1 25.695752 28.553116 34.266126
3814   1 25.697162 28.553116 37.119836
3815   1 25.697573 28.553116 39.974643
3831   1 25.691574 31.414658 28.553116
3832   1 25.694775 31.411457 31.411457
3833   1 25.695163 31.411069 34.266989
3834   1 25.697068 31.409164 37.120102
3835   1 25.697550 31.408685 39.974745
3851   1 25.695752 34.266126 28.553116
3852   1 25.695163 34.266989 31.411069
3853   1 25.696403 34.265772 34.265772
3854   1 25.697222 34.264830 37.120236
3855   1 25.697548 34.264236 39.974934
3871   1 25.697162 37.119836 28.553116
3872   1 25.697068 37.120102 31.409164
3873   1 25.697222 37.120236 34.264830
3874   1 25.697425 37.119988 37.119988
3875   1 25.697585 37.119654 39.975002
3891   1 25.697573 39.974643 28.553116
3892   1 25.697550 39.974745 31.408685
3893   1 25.697548 39.974934 34.264236
3894   1 25.697585 39.975002 37.119654
3895   1 25.697648 39.974897 39.974897
4211   2 28.553116 28.553116 28.553116
4212   1 28.553116 28.553116 31.452391
4213   1 28.553116 28.553116 34.266563
4214   1 28.553116 28.553116 37.119511
4215   1 28.553116 28.553116 39.974505
4231   1 28.553116 31.452391 28.553116
4232   1 28.553116 31.414658 31.414658
4233   1 28.553116 31.410481 34.266126
4234   1 28.553116 31.409070 37.119836
4235   1 28.553116 31.408659 39.974643
4251   1 28.553116 34.266563 28.553116
4252   1 28.553116 34.266126 31.410481
4253   1 28.553116 34.265501 34.265501
4254   1 28.553116 34.264776 37.120145
4255   1 28.553116 34.264213 39.974882
4271   1 28.553116 37.119511 28.553116
4272   1 28.553116 37.119836 31.409070
4273   1 28.553116 37.120145 34.264776
4274   1 28.553116 37.119956 37.119956
4275   1 28.553116 37.119642 39.974979
4291   1 28.553116 39.974505 28.553116
4292   1 28.553116 39.974643 31.408659
4293   1 28.553116 39.974882 34.264213
4294   1 28.553116 39.974979 37.119642
4295   1 28.553116 39.974888 39.974888
4611   1 31.452391 28.553116 28.553116
4612   1 31.414658 28.553116 31.414658
4613   1 31.410481 28.553116 34.266126
4614   1 31.409070 28.553116 37.119836
4615   1 31.408659 28.553116 39.974643
4631   1 31.414658 31.414658 28.553116
4632   1 31.411457 31.411457 31.411457
4633   1 31.411069 31.411069 34.266989
4634   1 31.409164 31.409164 37.120102
4635   1 31.408685 31.408685 39.974745
4651   1 31.410481 34.266126 28.553116
4652   1 31.411069 34.266989 31.411069
4653   1 31.409830 34.265772 34.265772
4654   1 31.409010 34.264830 37.120236
4655   1 31.408685 34.264236 39.974934
4671   1 31.409070 37.119836 28.553116
4672   1 31.409164 37.120102 31.409164
4673   1 31.409010 37.120236 34.264830
4674   1 31.408808 37.119988 37.119988
4675   1 31.408648 37.119654 39.975002
4691   1 31.408659 39.974643 28.553116
4692   1 31.408685 39.974745 31.408685
4693   1 31.408685 39.974934 34.264236
4694   1 31.408648 39.975002 37.119654
4695   1 31.408585 39.974897 39.974897
5011   1 34.266563 28.553116 28.553116
5012   1 34.266126 28.553116 31.410481
5013   1 34.265501 28.553116 34.265501
5014   1 34.264776 28.553116 37.120145
5015   1 34.264213 28.553116 39.974882
5031   1 34.266126 31.410481 28.553116
5032   1 34.266989 31.411069 31.411069
5033   1 34.265772 31.409830 34.265772
5034   1 34.264830 31.409010 37.120236
5035   1 34.264236 31.408685 39.974934
5051   1 34.265501 34.265501 28.553116
5052   1 34.265772 34.265772 31.409830
5053   1 34.265316 34.265316 34.265316
5054   1 34.264822 34.264822 37.120339
5055   1 34.264256 34.264256 39.975045
5071   1 34.264776 37.120145 28.553116
5072   1 34.264830 37.120236 31.409010
5073   1 34.264822 37.120339 34.264822
5074   1 34.264496 37.120033 37.120033
5075   1 34.264179 37.119674 39.975042
5091   1 34.264213 39.974882 28.553116
5092   1 34.264236 39.974934 31.408685
5093   1 34.264256 39.975045 34.264256
5094   1 34.264179 39.975042 37.119674
5095   1 34.264056 39.974911 39.974911
5411   1 37.119511 28.553116 28.553116
5412   1 37.119836 28.553116 31.409070
5413   1 37.120145 28.553116 34.264776
5414   1 37.119956 28.553116 37.119956
5415   1 37.119642 28.553116 39.974979
5431   1 37.119836 31.409070 28.553116
5432   1 37.120102 31.409164 31.409164
5433   1 37.120236 31.409010 34.264830
5434   1 37.119988 31.408808 37.119988
5435   1 37.119654 31.408648 39.975002
5451   1 37.120145 34.264776 28.553116
5452   1 37.120236 34.264830 31.409010
5453   1 37.120339 34.264822 34.264822
5454   1 37.120033 34.264496 37.120033
5455   1 37.119674 34.264179 39.975042
5471   1 37.119956 37.119956 28.553116
5472   1 37.119988 37.119988 31.408808
5473   1 37.120033 37.120033 34.264496
5474   1 37.119862 37.119862 37.119862
5475   1 37.119622 37.119622 39.975025
5491   1 37.119642 39.974979 28.553116
5492   1 37.119654 39.975002 31.408648
5493   1 37.119674 39.975042 34.264179
5494   1 37.119622 39.975025 37.119622
5495   1 37.119491 39.974897 39.974897
11011  1 21.413561 29.981557 29.981557
11012  1 21.413224 29.981289 32.837577
11013  1 21.413581 29.981092 35.692652
11014  1 21.414061 29.980943 38.547526
11015  1 21.414437 29.980858 41.402455
11031  1 21.413224 32.837577 29.981289
11032  1 21.412887 32.837697 32.837697
11033  1 21.413449 32.837106 35.692783
11034  1 21.414023 32.836606 38.547598
11035  1 21.414417 32.836346 41.402507
11051  1 21.413581 35.692652 29.981092
11052  1 21.413449 35.692783 32.837106
11053  1 21.413715 35.692517 35.692517
11054  1 21.414066 35.692166 38.547612
11055  1 21.414415 35.691818 41.402564
11071  1 21.414061 38.547526 29.980943
11072  1 21.414023 38.547598 32.836606
11073  1 21.414066 38.547612 35.692166
11074  1 21.414266 38.547424 38.547424
11075  1 21.414475 38.547187 41.402544
11091  1 21.414437 41.402455 29.980858
11092  1 21.414417 41.402507 32.836346
11093  1 21.414415 41.402564 35.691818
11094  1 21.414475 41.402544 38.547187
11095  1 21.414569 41.402444 41.402444
11411  1 24.264561 29.986029 29.986029
11412  1 24.267014 29.982597 32.839219
11413  1 24.268655 29.981289 35.693009
11414  1 24.269575 29.980969 38.547366
11415  1 24.269909 29.980855 41.402295
11431  1 24.267014 32.839219 29.982597
11432  1 24.267936 32.838296 32.838296
11433  1 24.268536 32.837697 35.693345
11434  1 24.269521 32.836712 38.547558
11435  1 24.269886 32.836349 41.402393
11451  1 24.268655 35.693009 29.981289
11452  1 24.268536 35.693345 32.837697
11453  1 24.269127 35.692783 35.692783
11454  1 24.269626 35.692212 38.547598
11455  1 24.269886 35.691815 41.402507
11471  1 24.269575 38.547366 29.980969
11472  1 24.269521 38.547558 32.836712
11473  1 24.269626 38.547598 35.692212
11474  1 24.269789 38.547421 38.547421
11475  1 24.269926 38.547184 41.402524
11491  1 24.269909 41.402295 29.980855
11492  1 24.269886 41.402393 32.836349
11493  1 24.269886 41.402507 35.691815
11494  1 24.269926 41.402524 38.547184
11495  1 24.269986 41.402438 41.402438
11811  1 27.119396 29.986837 29.986837
11812  1 27.120204 29.986029 32.841671
11813  1 27.124675 29.981557 35.692672
11814  1 27.125263 29.980969 38.547072
11815  1 27.125386 29.980846 41.402153
11831  1 27.120204 32.841671 29.986029
11832  1 27.123636 32.839219 32.839219
11833  1 27.124944 32.837577 35.693009
11834  1 27.125263 32.836658 38.547366
11835  1 27.125378 32.836323 41.402295
11851  1 27.124675 35.692672 29.981557
11852  1 27.124944 35.693009 32.837577
11853  1 27.125141 35.692652 35.692652
11854  1 27.125289 35.692172 38.547526
11855  1 27.125375 35.691795 41.402455
11871  1 27.125263 38.547072 29.980969
11872  1 27.125263 38.547366 32.836658
11873  1 27.125289 38.547526 35.692172
11874  1 27.125343 38.547392 38.547392
11875  1 27.125389 38.547169 41.402504
11891  1 27.125386 41.402153 29.980846
11892  1 27.125378 41.402295 32.836323
11893  1 27.125375 41.402455 35.691795
11894  1 27.125389 41.402504 38.547169
11895  1 27.125406 41.402430 41.402430
12211  1 29.986837 29.986837 29.986837
12212  1 29.986029 29.986029 32.841671
12213  1 29.981557 29.981557 35.692672
12214  1 29.980969 29.980969 38.547072
12215  1 29.980846 29.980846 41.402153
12231  1 29.986029 32.841671 29.986029
12232  1 29.982597 32.839219 32.839219
12233  1 29.981289 32.837577 35.693009
12234  1 29.980969 32.836658 38.547366
12235  1 29.980855 32.836323 41.402295
12251  1 29.981557 35.692672 29.981557
12252  1 29.981289 35.693009 32.837577
12253  1 29.981092 35.692652 35.692652
12254  1 29.980943 35.692172 38.547526
12255  1 29.980858 35.691795 41.402455
12271  1 29.980969 38.547072 29.980969
12272  1 29.980969 38.547366 32.836658
12273  1 29.980943 38.547526 35.692172
12274  1 29.980889 38.547392 38.547392
12275  1 29.980846 38.547169 41.402504
12291  1 29.980846 41.402153 29.980846
12292  1 29.980855 41.402295 32.836323
12293  1 29.980858 41.402455 35.691795
12294  1 29.980846 41.402504 38.547169
12295  1 29.980826 41.402430 41.402430
12611  1 32.841671 29.986029 29.986029
12612  1 32.839219 29.982597 32.839219
12613  1 32.837577 29.981289 35.693009
12614  1 32.836658 29.980969 38.547366
12615  1 32.836323 29.980855 41.402295
12631  1 32.839219 32.839219 29.982597
12632  1 32.838296 32.838296 32.838296
12633  1 32.837697 32.837697 35.693345
12634  1 32.836712 32.836712 38.547558
12635  1 32.836349 32.836349 41.402393
12651  1 32.837577 35.693009 29.981289
12652  1 32.837697 35.693345 32.837697
12653  1 32.837106 35.692783 35.692783
12654  1 32.836606 35.692212 38.547598
12655  1 32.836346 35.691815 41.402507
12671  1 32.836658 38.547366 29.980969
12672  1 32.836712 38.547558 32.836712
12673  1 32.836606 38.547598 35.692212
12674  1 32.836443 38.547421 38.547421
12675  1 32.836306 38.547184 41.402524
12691  1 32.836323 41.402295 29.980855
12692  1 32.836349 41.402393 32.836349
12693  1 32.836346 41.402507 35.691815
12694  1 32.836306 41.402524 38.547184
12695  1 32.836246 41.402438 41.402438
13011  1 35.692672 29.981557 29.981557
13012  1 35.693009 29.981289 32.837577
13013  1 35.692652 29.981092 35.692652
13014  1 35.692172 29.980943 38.547526
13015  1 35.691795 29.980858 41.402455
13031  1 35.693009 32.837577 29.981289
13032  1 35.693345 32.837697 32.837697
13033  1 35.692783 32.837106 35.692783
13034  1 35.692212 32.836606 38.547598
13035  1 35.691815 32.836346 41.402507
13051  1 35.692652 35.692652 29.981092
13052  1 35.692783 35.692783 32.837106
13053  1 35.692517 35.692517 35.692517
13054  1 35.692166 35.692166 38.547612
13055  1 35.691818 35.691818 41.402564
13071  1 35.692172 38.547526 29.980943
13072  1 35.692212 38.547598 32.836606
13073  1 35.692166 38.547612 35.692166
13074  1 35.691966 38.547424 38.547424
13075  1 35.691758 38.547187 41.402544
13091  1 35.691795 41.402455 29.980858
13092  1 35.691815 41.402507 32.836346
13093  1 35.691818 41.402564 35.691818
13094  1 35.691758 41.402544 38.547187
13095  1 35.691664 41.402444 41.402444
3016   1 19.986853 28.553116 42.830031
3017   1 19.987004 28.553116 45.685180
3018   1 19.987087 28.553116 48.540400
3019   1 19.987130 28.553116 51.395661
3020   1 19.987150 28.553116 54.250944
3036   1 19.986844 31.408548 42.830045
3037   1 19.986999 31.408493 45.685189
3038   1 19.987084 31.408462 48.540406
3039   1 19.987127 31.408448 51.395666
3040   1 19.987150 31.408439 54.250944
3056   1 19.986830 34.263982 42.830083
3057   1 19.986990 34.263871 45.685217
3058   1 19.987076 34.263814 48.540426
3059   1 19.987121 34.263782 51.395678
3060   1 19.987144 34.263765 54.250949
3076   1 19.986839 37.119394 42.830108
3077   1 19.986984 37.119248 45.685251
3078   1 19.987070 37.119162 48.540452
3079   1 19.987116 37.119117 51.395692
3080   1 19.987139 37.119094 54.250958
3096   1 19.986887 39.974737 42.830083
3097   1 19.986996 39.974603 45.685263
3098   1 19.987070 39.974508 48.540472
3099   1 19.987113 39.974451 51.395706
3100   1 19.987136 39.974423 54.250966
3416   1 22.842273 28.553116 42.829917
3417   1 22.842384 28.553116 45.685100
3418   1 22.842436 28.553116 48.540352
3419   1 22.842464 28.553116 51.395635
3420   1 22.842476 28.553116 54.250932
3436   1 22.842262 31.408551 42.829946
3437   1 22.842379 31.408488 45.685117
3438   1 22.842433 31.408459 48.540363
3439   1 22.842462 31.408445 51.395641
3440   1 22.842476 31.408439 54.250932
3456   1 22.842245 34.263991 42.830020
3457   1 22.842367 34.263868 45.685166
3458   1 22.842427 34.263808 48.540389
3459   1 22.842456 34.263777 51.395655
3460   1 22.842470 34.263762 54.250941
3476   1 22.842250 37.119402 42.830083
3477   1 22.842362 37.119242 45.685217
3478   1 22.842419 37.119157 48.540426
3479   1 22.842453 37.119111 51.395678
3480   1 22.842467 37.119088 54.250949
3496   1 22.842287 39.974742 42.830077
3497   1 22.842367 39.974600 45.685249
3498   1 22.842419 39.974503 48.540457
3499   1 22.842447 39.974445 51.395698
3500   1 22.842464 39.974417 54.250961
3816   1 25.697705 28.553116 42.829786
3817   1 25.697756 28.553116 45.685034
3818   1 25.697779 28.553116 48.540318
3819   1 25.697790 28.553116 51.395615
3820   1 25.697799 28.553116 54.250924
3836   1 25.697696 31.408536 42.829834
3837   1 25.697750 31.408482 45.685057
3838   1 25.697779 31.408456 48.540329
3839   1 25.697790 31.408442 51.395623
3840   1 25.697796 31.408436 54.250926
3856   1 25.697685 34.263971 42.829946
3857   1 25.697745 34.263854 45.685117
3858   1 25.697773 34.263799 48.540363
3859   1 25.697787 34.263771 51.395641
3860   1 25.697796 34.263759 54.250932
3876   1 25.697685 37.119388 42.830045
3877   1 25.697739 37.119234 45.685189
3878   1 25.697770 37.119148 48.540406
3879   1 25.697785 37.119105 51.395666
3880   1 25.697793 37.119082 54.250944
3896   1 25.697702 39.974734 42.830063
3897   1 25.697742 39.974594 45.685234
3898   1 25.697767 39.974497 48.540446
3899   1 25.697782 39.974443 51.395689
3900   1 25.697790 39.974411 54.250958
4216   1 28.553116 28.553116 42.829731
4217   1 28.553116 28.553116 45.685006
4218   1 28.553116 28.553116 48.540303
4219   1 28.553116 28.553116 51.395609
4220   1 28.553116 28.553116 54.250921
4236   1 28.553116 31.408528 42.829786
4237   1 28.553116 31.408476 45.685034
4238   1 28.553116 31.408454 48.540318
4239   1 28.553116 31.408442 51.395615
4240   1 28.553116 31.408436 54.250924
4256   1 28.553116 34.263959 42.829917
4257   1 28.553116 34.263848 45.685100
4258   1 28.553116 34.263797 48.540352
4259   1 28.553116 34.263771 51.395635
4260   1 28.553116 34.263757 54.250932
4276   1 28.553116 37.119379 42.830031
4277   1 28.553116 37.119228 45.685180
4278   1 28.553116 37.119145 48.540400
4279   1 28.553116 37.119102 51.395661
4280   1 28.553116 37.119082 54.250944
4296   1 28.553116 39.974728 42.830057
4297   1 28.553116 39.974588 45.685231
4298   1 28.553116 39.974494 48.540443
4299   1 28.553116 39.974440 51.395689
4300   1 28.553116 39.974411 54.250955
4616   1 31.408528 28.553116 42.829786
4617   1 31.408476 28.553116 45.685034
4618   1 31.408454 28.553116 48.540318
4619   1 31.408442 28.553116 51.395615
4620   1 31.408436 28.553116 54.250924
4636   1 31.408536 31.408536 42.829834
4637   1 31.408482 31.408482 45.685057
4638   1 31.408456 31.408456 48.540329
4639   1 31.408442 31.408442 51.395623
4640   1 31.408436 31.408436 54.250926
4656   1 31.408551 34.263971 42.829946
4657   1 31.408488 34.263854 45.685117
4658   1 31.408459 34.263799 48.540363
4659   1 31.408445 34.263771 51.395641
4660   1 31.408439 34.263759 54.250932
4676   1 31.408548 37.119388 42.830045
4677   1 31.408493 37.119234 45.685189
4678   1 31.408462 37.119148 48.540406
4679   1 31.408448 37.119105 51.395666
4680   1 31.408439 37.119082 54.250944
4696   1 31.408531 39.974734 42.830063
4697   1 31.408491 39.974594 45.685234
4698   1 31.408465 39.974497 48.540446
4699   1 31.408451 39.974443 51.395689
4700   1 31.408442 39.974411 54.250958
5016   1 34.263959 28.553116 42.829917
5017   1 34.263848 28.553116 45.685100
5018   1 34.263797 28.553116 48.540352
5019   1 34.263771 28.553116 51.395635
5020   1 34.263757 28.553116 54.250932
5036   1 34.263971 31.408551 42.829946
5037   1 34.263854 31.408488 45.685117
5038   1 34.263799 31.408459 48.540363
5039   1 34.263771 31.408445 51.395641
5040   1 34.263759 31.408439 54.250932
5056   1 34.263991 34.263991 42.830020
5057   1 34.263868 34.263868 45.685166
5058   1 34.263808 34.263808 48.540389
5059   1 34.263777 34.263777 51.395655
5060   1 34.263762 34.263762 54.250941
5076   1 34.263982 37.119402 42.830083
5077   1 34.263871 37.119242 45.685217
5078   1 34.263814 37.119157 48.540426
5079   1 34.263782 37.119111 51.395678
5080   1 34.263765 37.119088 54.250949
5096   1 34.263945 39.974742 42.830077
5097   1 34.263865 39.974600 45.685249
5098   1 34.263814 39.974503 48.540457
5099   1 34.263785 39.974445 51.395698
5100   1 34.263768 39.974417 54.250961
5416   1 37.119379 28.553116 42.830031
5417   1 37.119228 28.553116 45.685180
5418   1 37.119145 28.553116 48.540400
5419   1 37.119102 28.553116 51.395661
5420   1 37.119082 28.553116 54.250944
5436   1 37.119388 31.408548 42.830045
5437   1 37.119234 31.408493 45.685189
5438   1 37.119148 31.408462 48.540406
5439   1 37.119105 31.408448 51.395666
5440   1 37.119082 31.408439 54.250944
5456   1 37.119402 34.263982 42.830083
5457   1 37.119242 34.263871 45.685217
5458   1 37.119157 34.263814 48.540426
5459   1 37.119111 34.263782 51.395678
5460   1 37.119088 34.263765 54.250949
5476   1 37.119394 37.119394 42.830108
5477   1 37.119248 37.119248 45.685251
5478   1 37.119162 37.119162 48.540452
5479   1 37.119117 37.119117 51.395692
5480   1 37.119094 37.119094 54.250958
5496   1 37.119345 39.974737 42.830083
5497   1 37.119237 39.974603 45.685263
5498   1 37.119162 39.974508 48.540472
5499   1 37.119120 39.974451 51.395706
5500   1 37.119097 39.974423 54.250966
11016  1 21.414634 29.980815 44.257553
11017  1 21.414732 29.980795 47.112756
11018  1 21.414783 29.980783 49.968010
11019  1 21.414806 29.980778 52.823291
11020  1 21.414817 29.980778 55.678585
11036  1 21.414623 32.836218 44.257587
11037  1 21.414726 32.836155 47.112776
11038  1 21.414777 32.836121 49.968022
11039  1 21.414803 32.836106 52.823299
11040  1 21.414814 32.836098 55.678585
11056  1 21.414612 35.691621 44.257638
11057  1 21.414714 35.691518 47.112810
11058  1 21.414771 35.691464 49.968045
11059  1 21.414797 35.691435 52.823311
11060  1 21.414811 35.691421 55.678591
11076  1 21.414623 38.546998 44.257667
11077  1 21.414714 38.546875 47.112844
11078  1 21.414766 38.546804 49.968070
11079  1 21.414794 38.546767 52.823325
11080  1 21.414806 38.546747 55.678594
11096  1 21.414657 41.402321 44.257653
11097  1 21.414723 41.402216 47.112859
11098  1 21.414766 41.402141 49.968088
11099  1 21.414791 41.402096 52.823336
11100  1 21.414803 41.402076 55.678599
11416  1 24.270037 29.980812 44.257453
11417  1 24.270092 29.980792 47.112699
11418  1 24.270120 29.980783 49.967979
11419  1 24.270134 29.980778 52.823276
11420  1 24.270140 29.980775 55.678579
11436  1 24.270023 32.836209 44.257507
11437  1 24.270086 32.836146 47.112727
11438  1 24.270117 32.836118 49.967993
11439  1 24.270132 32.836101 52.823282
11440  1 24.270137 32.836095 55.678582
11456  1 24.270015 35.691609 44.257587
11457  1 24.270077 35.691507 47.112776
11458  1 24.270112 35.691455 49.968022
11459  1 24.270129 35.691430 52.823299
11460  1 24.270134 35.691418 55.678585
11476  1 24.270020 38.546990 44.257644
11477  1 24.270075 38.546867 47.112824
11478  1 24.270106 38.546798 49.968056
11479  1 24.270123 38.546761 52.823316
11480  1 24.270132 38.546744 55.678591
11496  1 24.270040 41.402318 44.257644
11497  1 24.270080 41.402210 47.112850
11498  1 24.270106 41.402136 49.968079
11499  1 24.270123 41.402090 52.823331
11500  1 24.270129 41.402070 55.678597
11816  1 27.125426 29.980806 44.257384
11817  1 27.125443 29.980789 47.112665
11818  1 27.125452 29.980781 49.967962
11819  1 27.125455 29.980778 52.823268
11820  1 27.125458 29.980775 55.678577
11836  1 27.125420 32.836195 44.257453
11837  1 27.125440 32.836141 47.112699
11838  1 27.125449 32.836112 49.967979
11839  1 27.125455 32.836101 52.823276
11840  1 27.125458 32.836095 55.678579
11856  1 27.125418 35.691598 44.257553
11857  1 27.125438 35.691501 47.112756
11858  1 27.125449 35.691452 49.968010
11859  1 27.125455 35.691427 52.823291
11860  1 27.125455 35.691415 55.678585
11876  1 27.125418 38.546981 44.257627
11877  1 27.125438 38.546861 47.112813
11878  1 27.125446 38.546793 49.968048
11879  1 27.125452 38.546755 52.823311
11880  1 27.125455 38.546741 55.678591
11896  1 27.125423 41.402313 44.257638
11897  1 27.125438 41.402207 47.112844
11898  1 27.125446 41.402133 49.968073
11899  1 27.125452 41.402087 52.823328
11900  1 27.125455 41.402067 55.678597
12216  1 29.980806 29.980806 44.257384
12217  1 29.980789 29.980789 47.112665
12218  1 29.980781 29.980781 49.967962
12219  1 29.980778 29.980778 52.823268
12220  1 29.980775 29.980775 55.678577
12236  1 29.980812 32.836195 44.257453
12237  1 29.980792 32.836141 47.112699
12238  1 29.980783 32.836112 49.967979
12239  1 29.980778 32.836101 52.823276
12240  1 29.980775 32.836095 55.678579
12256  1 29.980815 35.691598 44.257553
12257  1 29.980795 35.691501 47.112756
12258  1 29.980783 35.691452 49.968010
12259  1 29.980778 35.691427 52.823291
12260  1 29.980778 35.691415 55.678585
12276  1 29.980815 38.546981 44.257627
12277  1 29.980795 38.546861 47.112813
12278  1 29.980786 38.546793 49.968048
12279  1 29.980781 38.546755 52.823311
12280  1 29.980778 38.546741 55.678591
12296  1 29.980809 41.402313 44.257638
12297  1 29.980795 41.402207 47.112844
12298  1 29.980786 41.402133 49.968073
12299  1 29.980781 41.402087 52.823328
12300  1 29.980778 41.402067 55.678597
12616  1 32.836195 29.980812 44.257453
12617  1 32.836141 29.980792 47.112699
12618  1 32.836112 29.980783 49.967979
12619  1 32.836101 29.980778 52.823276
12620  1 32.836095 29.980775 55.678579
12636  1 32.836209 32.836209 44.257507
12637  1 32.836146 32.836146 47.112727
12638  1 32.836118 32.836118 49.967993
12639  1 32.836101 32.836101 52.823282
12640  1 32.836095 32.836095 55.678582
12656  1 32.836218 35.691609 44.257587
12657  1 32.836155 35.691507 47.112776
12658  1 32.836121 35.691455 49.968022
12659  1 32.836106 35.691430 52.823299
12660  1 32.836098 35.691418 55.678585
12676  1 32.836212 38.546990 44.257644
12677  1 32.836158 38.546867 47.112824
12678  1 32.836126 38.546798 49.968056
12679  1 32.836109 38.546761 52.823316
12680  1 32.836101 38.546744 55.678591
12696  1 32.836192 41.402318 44.257644
12697  1 32.836152 41.402210 47.112850
12698  1 32.836126 41.402136 49.968079
12699  1 32.836112 41.402090 52.823331
12700  1 32.836104 41.402070 55.678597
13016  1 35.691598 29.980815 44.257553
13017  1 35.691501 29.980795 47.112756
13018  1 35.691452 29.980783 49.968010
13019  1 35.691427 29.980778 52.823291
13020  1 35.691415 29.980778 55.678585
13036  1 35.691609 32.836218 44.257587
13037  1 35.691507 32.836155 47.112776
13038  1 35.691455 32.836121 49.968022
13039  1 35.691430 32.836106 52.823299
13040  1 35.691418 32.836098 55.678585
13056  1 35.691621 35.691621 44.257638
13057  1 35.691518 35.691518 47.112810
13058  1 35.691464 35.691464 49.968045
13059  1 35.691435 35.691435 52.823311
13060  1 35.691421 35.691421 55.678591
13076  1 35.691609 38.546998 44.257667
13077  1 35.691521 38.546875 47.112844
13078  1 35.691467 38.546804 49.968070
13079  1 35.691438 38.546767 52.823325
13080  1 35.691427 38.546747 55.678594
13096  1 35.691578 41.402321 44.257653
13097  1 35.691512 41.402216 47.112859
13098  1 35.691467 41.402141 49.968088
13099  1 35.691441 41.402096 52.823336
13100  1 35.691430 41.402076 55.678599
3101   1 19.987139 42.829737  0.000000
3102   1 19.987133 42.829749  2.855263
3103   1 19.987113 42.829780  5.710518
3104   1 19.987079 42.829837  8.565761
3105   1 19.987024 42.829917 11.420990
3121   1 19.987139 45.685057  0.000000
3122   1 19.987133 45.685066  2.855260
3123   1 19.987119 45.685097  5.710520
3124   1 19.987093 45.685143  8.565775
3125   1 19.987061 45.685197 11.421035
3141   1 19.987139 48.540366  0.000000
3142   1 19.987136 48.540375  2.855266
3143   1 19.987124 48.540397  5.710532
3144   1 19.987110 48.540429  8.565806
3145   1 19.987093 48.540457 11.421089
3161   1 19.987141 51.395663  0.000000
3162   1 19.987139 51.395669  2.855272
3163   1 19.987133 51.395683  5.710549
3164   1 19.987124 51.395701  8.565835
3165   1 19.987119 51.395712 11.421138
3181   1 19.987141 54.250952  0.000000
3182   1 19.987141 54.250955  2.855277
3183   1 19.987139 54.250961  5.710563
3184   1 19.987136 54.250966  8.565858
3185   1 19.987133 54.250972 11.421167
3501   1 22.842464 42.829731  0.000000
3502   1 22.842462 42.829743  2.855266
3503   1 22.842447 42.829777  5.710520
3504   1 22.842424 42.829834  8.565764
3505   1 22.842387 42.829917 11.420992
3521   1 22.842464 45.685054  0.000000
3522   1 22.842462 45.685063  2.855263
3523   1 22.842450 45.685094  5.710520
3524   1 22.842433 45.685143  8.565778
3525   1 22.842410 45.685197 11.421038
3541   1 22.842464 48.540366  0.000000
3542   1 22.842462 48.540375  2.855266
3543   1 22.842456 48.540397  5.710532
3544   1 22.842444 48.540429  8.565806
3545   1 22.842433 48.540457 11.421092
3561   1 22.842464 51.395663  0.000000
3562   1 22.842464 51.395669  2.855272
3563   1 22.842462 51.395683  5.710549
3564   1 22.842456 51.395701  8.565835
3565   1 22.842450 51.395712 11.421138
3581   1 22.842467 54.250952  0.000000
3582   1 22.842464 54.250955  2.855277
3583   1 22.842464 54.250961  5.710563
3584   1 22.842462 54.250966  8.565861
3585   1 22.842462 54.250969 11.421169
3901   1 25.697790 42.829729  0.000000
3902   1 25.697790 42.829740  2.855266
3903   1 25.697782 42.829774  5.710526
3904   1 25.697770 42.829831  8.565769
3905   1 25.697753 42.829914 11.420998
3921   1 25.697790 45.685052  0.000000
3922   1 25.697787 45.685063  2.855263
3923   1 25.697785 45.685092  5.710523
3924   1 25.697776 45.685140  8.565778
3925   1 25.697765 45.685194 11.421038
3941   1 25.697790 48.540363  0.000000
3942   1 25.697790 48.540372  2.855266
3943   1 25.697785 48.540395  5.710532
3944   1 25.697782 48.540426  8.565806
3945   1 25.697776 48.540455 11.421092
3961   1 25.697790 51.395663  0.000000
3962   1 25.697790 51.395669  2.855272
3963   1 25.697787 51.395683  5.710549
3964   1 25.697785 51.395701  8.565838
3965   1 25.697785 51.395709 11.421141
3981   1 25.697790 54.250952  0.000000
3982   1 25.697790 54.250955  2.855277
3983   1 25.697790 54.250961  5.710563
3984   1 25.697790 54.250966  8.565861
3985   1 25.697787 54.250969 11.421172
4301   1 28.553116 42.829729  0.000000
4302   1 28.553116 42.829740  2.855269
4303   1 28.553116 42.829771  5.710526
4304   1 28.553116 42.829828  8.565772
4305   1 28.553116 42.829911 11.421001
4321   1 28.553116 45.685052  0.000000
4322   1 28.553116 45.685060  2.855263
4323   1 28.553116 45.685092  5.710523
4324   1 28.553116 45.685140  8.565778
4325   1 28.553116 45.685194 11.421041
4341   1 28.553116 48.540363  0.000000
4342   1 28.553116 48.540372  2.855266
4343   1 28.553116 48.540395  5.710532
4344   1 28.553116 48.540426  8.565806
4345   1 28.553116 48.540455 11.421092
4361   1 28.553116 51.395663  0.000000
4362   1 28.553116 51.395669  2.855272
4363   1 28.553116 51.395683  5.710549
4364   1 28.553116 51.395701  8.565838
4365   1 28.553116 51.395709 11.421141
4381   1 28.553116 54.250952  0.000000
4382   1 28.553116 54.250955  2.855277
4383   1 28.553116 54.250961  5.710563
4384   1 28.553116 54.250966  8.565861
4385   1 28.553116 54.250969 11.421172
4701   1 31.408442 42.829729  0.000000
4702   1 31.408445 42.829740  2.855266
4703   1 31.408451 42.829774  5.710526
4704   1 31.408462 42.829831  8.565769
4705   1 31.408482 42.829914 11.420998
4721   1 31.408442 45.685052  0.000000
4722   1 31.408445 45.685063  2.855263
4723   1 31.408448 45.685092  5.710523
4724   1 31.408456 45.685140  8.565778
4725   1 31.408468 45.685194 11.421038
4741   1 31.408442 48.540363  0.000000
4742   1 31.408445 48.540372  2.855266
4743   1 31.408448 48.540395  5.710532
4744   1 31.408451 48.540426  8.565806
4745   1 31.408456 48.540455 11.421092
4761   1 31.408442 51.395663  0.000000
4762   1 31.408442 51.395669  2.855272
4763   1 31.408445 51.395683  5.710549
4764   1 31.408448 51.395701  8.565838
4765   1 31.408448 51.395709 11.421141
4781   1 31.408442 54.250952  0.000000
4782   1 31.408442 54.250955  2.855277
4783   1 31.408442 54.250961  5.710563
4784   1 31.408445 54.250966  8.565861
4785   1 31.408445 54.250969 11.421172
5101   1 34.263768 42.829731  0.000000
5102   1 34.263771 42.829743  2.855266
5103   1 34.263785 42.829777  5.710520
5104   1 34.263808 42.829834  8.565764
5105   1 34.263845 42.829917 11.420992
5121   1 34.263768 45.685054  0.000000
5122   1 34.263771 45.685063  2.855263
5123   1 34.263782 45.685094  5.710520
5124   1 34.263799 45.685143  8.565778
5125   1 34.263822 45.685197 11.421038
5141   1 34.263768 48.540366  0.000000
5142   1 34.263771 48.540375  2.855266
5143   1 34.263777 48.540397  5.710532
5144   1 34.263788 48.540429  8.565806
5145   1 34.263799 48.540457 11.421092
5161   1 34.263768 51.395663  0.000000
5162   1 34.263768 51.395669  2.855272
5163   1 34.263774 51.395683  5.710549
5164   1 34.263777 51.395701  8.565835
5165   1 34.263782 51.395712 11.421138
5181   1 34.263768 54.250952  0.000000
5182   1 34.263768 54.250955  2.855277
5183   1 34.263768 54.250961  5.710563
5184   1 34.263771 54.250966  8.565861
5185   1 34.263771 54.250969 11.421169
5501   1 37.119094 42.829737  0.000000
5502   1 37.119100 42.829749  2.855263
5503   1 37.119120 42.829780  5.710518
5504   1 37.119154 42.829837  8.565761
5505   1 37.119208 42.829917 11.420990
5521   1 37.119094 45.685057  0.000000
5522   1 37.119100 45.685066  2.855260
5523   1 37.119114 45.685097  5.710520
5524   1 37.119140 45.685143  8.565775
5525   1 37.119174 45.685197 11.421035
5541   1 37.119094 48.540366  0.000000
5542   1 37.119097 48.540375  2.855266
5543   1 37.119108 48.540397  5.710532
5544   1 37.119122 48.540429  8.565806
5545   1 37.119140 48.540457 11.421089
5561   1 37.119094 51.395663  0.000000
5562   1 37.119094 51.395669  2.855272
5563   1 37.119100 51.395683  5.710549
5564   1 37.119108 51.395701  8.565835
5565   1 37.119114 51.395712 11.421138
5581   1 37.119091 54.250952  0.000000
5582   1 37.119091 54.250955  2.855277
5583   1 37.119094 54.250961  5.710563
5584   1 37.119097 54.250966  8.565858
5585   1 37.119100 54.250972 11.421167
11101  1 21.414800 44.257399  1.427630
11102  1 21.414791 44.257419  4.282890
11103  1 21.414771 44.257464  7.138142
11104  1 21.414740 44.257524  9.993388
11105  1 21.414700 44.257596 12.848637
11121  1 21.414800 47.112713  1.427633
11122  1 21.414794 47.112733  4.282893
11123  1 21.414780 47.112767  7.138156
11124  1 21.414760 47.112807  9.993425
11125  1 21.414740 47.112844 12.848708
11141  1 21.414800 49.968019  1.427633
11142  1 21.414797 49.968030  4.282905
11143  1 21.414789 49.968053  7.138179
11144  1 21.414780 49.968076  9.993465
11145  1 21.414771 49.968090 12.848771
11161  1 21.414803 52.823311  1.427639
11162  1 21.414800 52.823316  4.282916
11163  1 21.414797 52.823328  7.138202
11164  1 21.414794 52.823339  9.993499
11165  1 21.414791 52.823342 12.848814
11181  1 21.414803 55.678594  1.427639
11182  1 21.414803 55.678597  4.282922
11183  1 21.414800 55.678599  7.138213
11184  1 21.414800 55.678602  9.993519
11185  1 21.414800 55.678602 12.848834
11501  1 24.270126 44.257396  1.427633
11502  1 24.270120 44.257416  4.282893
11503  1 24.270109 44.257461  7.138148
11504  1 24.270089 44.257524  9.993391
11505  1 24.270066 44.257593 12.848640
11521  1 24.270126 47.112713  1.427633
11522  1 24.270123 47.112730  4.282896
11523  1 24.270115 47.112765  7.138156
11524  1 24.270103 47.112807  9.993425
11525  1 24.270089 47.112842 12.848711
11541  1 24.270126 49.968019  1.427633
11542  1 24.270126 49.968030  4.282905
11543  1 24.270120 49.968053  7.138179
11544  1 24.270115 49.968076  9.993468
11545  1 24.270109 49.968088 12.848774
11561  1 24.270129 52.823311  1.427639
11562  1 24.270126 52.823316  4.282916
11563  1 24.270126 52.823328  7.138202
11564  1 24.270123 52.823339  9.993502
11565  1 24.270120 52.823339 12.848817
11581  1 24.270129 55.678594  1.427639
11582  1 24.270129 55.678597  4.282922
11583  1 24.270126 55.678599  7.138216
11584  1 24.270126 55.678602  9.993519
11585  1 24.270126 55.678599 12.848837
11901  1 27.125455 44.257393  1.427633
11902  1 27.125452 44.257416  4.282896
11903  1 27.125446 44.257459  7.138148
11904  1 27.125440 44.257521  9.993394
11905  1 27.125432 44.257590 12.848642
11921  1 27.125452 47.112710  1.427633
11922  1 27.125452 47.112730  4.282896
11923  1 27.125449 47.112765  7.138159
11924  1 27.125446 47.112807  9.993425
11925  1 27.125440 47.112839 12.848711
11941  1 27.125455 49.968016  1.427633
11942  1 27.125452 49.968030  4.282905
11943  1 27.125452 49.968053  7.138179
11944  1 27.125449 49.968076  9.993468
11945  1 27.125446 49.968085 12.848774
11961  1 27.125455 52.823311  1.427639
11962  1 27.125452 52.823316  4.282916
11963  1 27.125452 52.823328  7.138202
11964  1 27.125452 52.823336  9.993502
11965  1 27.125452 52.823339 12.848817
11981  1 27.125455 55.678594  1.427639
11982  1 27.125455 55.678597  4.282922
11983  1 27.125455 55.678599  7.138216
11984  1 27.125452 55.678599  9.993522
11985  1 27.125455 55.678599 12.848839
12301  1 29.980781 44.257393  1.427633
12302  1 29.980781 44.257416  4.282896
12303  1 29.980786 44.257459  7.138148
12304  1 29.980792 44.257521  9.993394
12305  1 29.980801 44.257590 12.848642
12321  1 29.980781 47.112710  1.427633
12322  1 29.980781 47.112730  4.282896
12323  1 29.980783 47.112765  7.138159
12324  1 29.980786 47.112807  9.993425
12325  1 29.980792 47.112839 12.848711
12341  1 29.980781 49.968016  1.427633
12342  1 29.980781 49.968030  4.282905
12343  1 29.980781 49.968053  7.138179
12344  1 29.980783 49.968076  9.993468
12345  1 29.980786 49.968085 12.848774
12361  1 29.980781 52.823311  1.427639
12362  1 29.980781 52.823316  4.282916
12363  1 29.980781 52.823328  7.138202
12364  1 29.980781 52.823336  9.993502
12365  1 29.980781 52.823339 12.848817
12381  1 29.980778 55.678594  1.427639
12382  1 29.980781 55.678597  4.282922
12383  1 29.980781 55.678599  7.138216
12384  1 29.980781 55.678599  9.993522
12385  1 29.980781 55.678599 12.848839
12701  1 32.836106 44.257396  1.427633
12702  1 32.836112 44.257416  4.282893
12703  1 32.836124 44.257461  7.138148
12704  1 32.836144 44.257524  9.993391
12705  1 32.836166 44.257593 12.848640
12721  1 32.836106 47.112713  1.427633
12722  1 32.836109 47.112730  4.282896
12723  1 32.836118 47.112765  7.138156
12724  1 32.836129 47.112807  9.993425
12725  1 32.836144 47.112842 12.848711
12741  1 32.836106 49.968019  1.427633
12742  1 32.836109 49.968030  4.282905
12743  1 32.836112 49.968053  7.138179
12744  1 32.836118 49.968076  9.993468
12745  1 32.836124 49.968088 12.848774
12761  1 32.836104 52.823311  1.427639
12762  1 32.836106 52.823316  4.282916
12763  1 32.836109 52.823328  7.138202
12764  1 32.836109 52.823339  9.993502
12765  1 32.836112 52.823339 12.848817
12781  1 32.836104 55.678594  1.427639
12782  1 32.836104 55.678597  4.282922
12783  1 32.836106 55.678599  7.138216
12784  1 32.836106 55.678602  9.993519
12785  1 32.836106 55.678599 12.848837
13101  1 35.691432 44.257399  1.427630
13102  1 35.691441 44.257419  4.282890
13103  1 35.691464 44.257464  7.138142
13104  1 35.691492 44.257524  9.993388
13105  1 35.691535 44.257596 12.848637
13121  1 35.691432 47.112713  1.427633
13122  1 35.691441 47.112733  4.282893
13123  1 35.691452 47.112767  7.138156
13124  1 35.691472 47.112807  9.993425
13125  1 35.691492 47.112844 12.848708
13141  1 35.691432 49.968019  1.427633
13142  1 35.691435 49.968030  4.282905
13143  1 35.691444 49.968053  7.138179
13144  1 35.691452 49.968076  9.993465
13145  1 35.691464 49.968090 12.848771
13161  1 35.691430 52.823311  1.427639
13162  1 35.691432 52.823316  4.282916
13163  1 35.691435 52.823328  7.138202
13164  1 35.691441 52.823339  9.993499
13165  1 35.691441 52.823342 12.848814
13181  1 35.691430 55.678594  1.427639
13182  1 35.691430 55.678597  4.282922
13183  1 35.691432 55.678599  7.138213
13184  1 35.691432 55.678602  9.993519
13185  1 35.691432 55.678602 12.848834
3106   1 19.986959 42.830008 14.276227
3126   1 19.987024 45.685243 14.276315
3146   1 19.987079 48.540475 14.276395
3166   1 19.987113 51.395715 14.276452
3186   1 19.987133 54.250969 14.276487
3506   1 22.842339 42.830008 14.276224
3526   1 22.842387 45.685240 14.276315
3546   1 22.842424 48.540469 14.276398
3566   1 22.842447 51.395712 14.276455
3586   1 22.842462 54.250969 14.276490
3906   1 25.697727 42.830003 14.276230
3926   1 25.697753 45.685234 14.276321
3946   1 25.697770 48.540463 14.276401
3966   1 25.697782 51.395706 14.276461
3986   1 25.697790 54.250966 14.276492
4306   1 28.553116 42.830000 14.276233
4326   1 28.553116 45.685231 14.276321
4346   1 28.553116 48.540460 14.276404
4366   1 28.553116 51.395706 14.276461
4386   1 28.553116 54.250966 14.276495
4706   1 31.408505 42.830003 14.276230
4726   1 31.408482 45.685234 14.276321
4746   1 31.408462 48.540463 14.276401
4766   1 31.408451 51.395706 14.276461
4786   1 31.408445 54.250966 14.276492
5106   1 34.263894 42.830008 14.276224
5126   1 34.263845 45.685240 14.276315
5146   1 34.263808 48.540469 14.276398
5166   1 34.263785 51.395712 14.276455
5186   1 34.263771 54.250969 14.276490
5506   1 37.119277 42.830008 14.276227
5526   1 37.119208 45.685243 14.276315
5546   1 37.119154 48.540475 14.276395
5566   1 37.119120 51.395715 14.276452
5586   1 37.119100 54.250969 14.276487
13190  1 35.691415 55.678585 27.125455
3107   1 19.986887 42.830083 17.131496
3108   1 19.986839 42.830108 19.986839
3109   1 19.986830 42.830083 22.842250
3110   1 19.986844 42.830045 25.697685
13189  1 35.691418 55.678585 24.270134
3127   1 19.986996 45.685263 17.131633
3128   1 19.986984 45.685251 19.986984
3129   1 19.986990 45.685217 22.842362
3130   1 19.986999 45.685189 25.697739
13188  1 35.691421 55.678591 21.414811
3147   1 19.987070 48.540472 17.131724
3148   1 19.987070 48.540452 19.987070
3149   1 19.987076 48.540426 22.842419
3150   1 19.987084 48.540406 25.697770
13187  1 35.691427 55.678594 18.559486
3167   1 19.987113 51.395706 17.131781
3168   1 19.987116 51.395692 19.987116
3169   1 19.987121 51.395678 22.842453
3170   1 19.987127 51.395666 25.697785
13186  1 35.691430 55.678599 15.704157
3187   1 19.987136 54.250966 17.131813
3188   1 19.987139 54.250958 19.987139
3189   1 19.987144 54.250949 22.842467
3190   1 19.987150 54.250944 25.697793
13170  1 35.691427 52.823291 27.125455
3507   1 22.842287 42.830077 17.131490
3508   1 22.842250 42.830083 19.986830
3509   1 22.842245 42.830020 22.842245
3510   1 22.842262 42.829946 25.697685
13169  1 35.691430 52.823299 24.270129
3527   1 22.842367 45.685249 17.131633
3528   1 22.842362 45.685217 19.986990
3529   1 22.842367 45.685166 22.842367
3530   1 22.842379 45.685117 25.697745
13168  1 35.691435 52.823311 21.414797
3547   1 22.842419 48.540457 17.131730
3548   1 22.842419 48.540426 19.987076
3549   1 22.842427 48.540389 22.842427
3550   1 22.842433 48.540363 25.697773
13167  1 35.691438 52.823325 18.559468
3567   1 22.842447 51.395698 17.131787
3568   1 22.842453 51.395678 19.987121
3569   1 22.842456 51.395655 22.842456
3570   1 22.842462 51.395641 25.697787
13166  1 35.691441 52.823336 15.704137
3587   1 22.842464 54.250961 17.131815
3588   1 22.842467 54.250949 19.987144
3589   1 22.842470 54.250941 22.842470
3590   1 22.842476 54.250932 25.697796
13150  1 35.691452 49.968010 27.125449
3907   1 25.697702 42.830063 17.131499
3908   1 25.697685 42.830045 19.986844
3909   1 25.697685 42.829946 22.842262
3910   1 25.697696 42.829834 25.697696
13149  1 35.691455 49.968022 24.270112
3927   1 25.697742 45.685234 17.131641
3928   1 25.697739 45.685189 19.986999
3929   1 25.697745 45.685117 22.842379
3930   1 25.697750 45.685057 25.697750
13148  1 35.691464 49.968045 21.414771
3947   1 25.697767 48.540446 17.131736
3948   1 25.697770 48.540406 19.987084
3949   1 25.697773 48.540363 22.842433
3950   1 25.697779 48.540329 25.697779
13147  1 35.691467 49.968070 18.559428
3967   1 25.697782 51.395689 17.131793
3968   1 25.697785 51.395666 19.987127
3969   1 25.697787 51.395641 22.842462
3970   1 25.697790 51.395623 25.697790
13146  1 35.691467 49.968088 15.704091
3987   1 25.697790 54.250958 17.131821
3988   1 25.697793 54.250944 19.987150
3989   1 25.697796 54.250932 22.842476
3990   1 25.697796 54.250926 25.697796
13130  1 35.691501 47.112756 27.125438
4307   1 28.553116 42.830057 17.131504
4308   1 28.553116 42.830031 19.986853
4309   1 28.553116 42.829917 22.842273
4310   1 28.553116 42.829786 25.697705
13129  1 35.691507 47.112776 24.270077
4327   1 28.553116 45.685231 17.131644
4328   1 28.553116 45.685180 19.987004
4329   1 28.553116 45.685100 22.842384
4330   1 28.553116 45.685034 25.697756
13128  1 35.691518 47.112810 21.414714
4347   1 28.553116 48.540443 17.131738
4348   1 28.553116 48.540400 19.987087
4349   1 28.553116 48.540352 22.842436
4350   1 28.553116 48.540318 25.697779
13127  1 35.691521 47.112844 18.559357
4367   1 28.553116 51.395689 17.131793
4368   1 28.553116 51.395661 19.987130
4369   1 28.553116 51.395635 22.842464
4370   1 28.553116 51.395615 25.697790
13126  1 35.691512 47.112859 15.704017
4387   1 28.553116 54.250955 17.131821
4388   1 28.553116 54.250944 19.987150
4389   1 28.553116 54.250932 22.842476
4390   1 28.553116 54.250924 25.697799
13110  1 35.691598 44.257553 27.125418
4707   1 31.408531 42.830063 17.131499
4708   1 31.408548 42.830045 19.986844
4709   1 31.408551 42.829946 22.842262
4710   1 31.408536 42.829834 25.697696
13109  1 35.691609 44.257587 24.270015
4727   1 31.408491 45.685234 17.131641
4728   1 31.408493 45.685189 19.986999
4729   1 31.408488 45.685117 22.842379
4730   1 31.408482 45.685057 25.697750
13108  1 35.691621 44.257638 21.414612
4747   1 31.408465 48.540446 17.131736
4748   1 31.408462 48.540406 19.987084
4749   1 31.408459 48.540363 22.842433
4750   1 31.408456 48.540329 25.697779
13107  1 35.691609 44.257667 18.559237
4767   1 31.408451 51.395689 17.131793
4768   1 31.408448 51.395666 19.987127
4769   1 31.408445 51.395641 22.842462
4770   1 31.408442 51.395623 25.697790
13106  1 35.691578 44.257653 15.703911
4787   1 31.408442 54.250958 17.131821
4788   1 31.408439 54.250944 19.987150
4789   1 31.408439 54.250932 22.842476
4790   1 31.408436 54.250926 25.697796
12790  1 32.836095 55.678579 27.125458
5107   1 34.263945 42.830077 17.131490
5108   1 34.263982 42.830083 19.986830
5109   1 34.263991 42.830020 22.842245
5110   1 34.263971 42.829946 25.697685
12789  1 32.836095 55.678582 24.270137
5127   1 34.263865 45.685249 17.131633
5128   1 34.263871 45.685217 19.986990
5129   1 34.263868 45.685166 22.842367
5130   1 34.263854 45.685117 25.697745
12788  1 32.836098 55.678585 21.414814
5147   1 34.263814 48.540457 17.131730
5148   1 34.263814 48.540426 19.987076
5149   1 34.263808 48.540389 22.842427
5150   1 34.263799 48.540363 25.697773
12787  1 32.836101 55.678591 18.559488
5167   1 34.263785 51.395698 17.131787
5168   1 34.263782 51.395678 19.987121
5169   1 34.263777 51.395655 22.842456
5170   1 34.263771 51.395641 25.697787
12786  1 32.836104 55.678597 15.704163
5187   1 34.263768 54.250961 17.131815
5188   1 34.263765 54.250949 19.987144
5189   1 34.263762 54.250941 22.842470
5190   1 34.263759 54.250932 25.697796
12770  1 32.836101 52.823276 27.125455
5507   1 37.119345 42.830083 17.131496
5508   1 37.119394 42.830108 19.986839
5509   1 37.119402 42.830083 22.842250
5510   1 37.119388 42.830045 25.697685
12769  1 32.836101 52.823282 24.270132
5527   1 37.119237 45.685263 17.131633
5528   1 37.119248 45.685251 19.986984
5529   1 37.119242 45.685217 22.842362
5530   1 37.119234 45.685189 25.697739
12768  1 32.836106 52.823299 21.414803
5547   1 37.119162 48.540472 17.131724
5548   1 37.119162 48.540452 19.987070
5549   1 37.119157 48.540426 22.842419
5550   1 37.119148 48.540406 25.697770
12767  1 32.836109 52.823316 18.559474
5567   1 37.119120 51.395706 17.131781
5568   1 37.119117 51.395692 19.987116
5569   1 37.119111 51.395678 22.842453
5570   1 37.119105 51.395666 25.697785
12766  1 32.836112 52.823331 15.704143
5587   1 37.119097 54.250966 17.131813
5588   1 37.119094 54.250958 19.987139
5589   1 37.119088 54.250949 22.842467
5590   1 37.119082 54.250944 25.697793
11106  1 21.414657 44.257653 15.703911
11107  1 21.414623 44.257667 18.559237
11108  1 21.414612 44.257638 21.414612
11109  1 21.414623 44.257587 24.270015
11110  1 21.414634 44.257553 27.125418
11126  1 21.414723 47.112859 15.704017
11127  1 21.414714 47.112844 18.559357
11128  1 21.414714 47.112810 21.414714
11129  1 21.414726 47.112776 24.270077
11130  1 21.414732 47.112756 27.125438
11146  1 21.414766 49.968088 15.704091
11147  1 21.414766 49.968070 18.559428
11148  1 21.414771 49.968045 21.414771
11149  1 21.414777 49.968022 24.270112
11150  1 21.414783 49.968010 27.125449
11166  1 21.414791 52.823336 15.704137
11167  1 21.414794 52.823325 18.559468
11168  1 21.414797 52.823311 21.414797
11169  1 21.414803 52.823299 24.270129
11170  1 21.414806 52.823291 27.125455
11186  1 21.414803 55.678599 15.704157
11187  1 21.414806 55.678594 18.559486
11188  1 21.414811 55.678591 21.414811
11189  1 21.414814 55.678585 24.270134
11190  1 21.414817 55.678585 27.125455
11506  1 24.270040 44.257644 15.703914
11507  1 24.270020 44.257644 18.559243
11508  1 24.270015 44.257587 21.414623
11509  1 24.270023 44.257507 24.270023
11510  1 24.270037 44.257453 27.125420
11526  1 24.270080 47.112850 15.704023
11527  1 24.270075 47.112824 18.559366
11528  1 24.270077 47.112776 21.414726
11529  1 24.270086 47.112727 24.270086
11530  1 24.270092 47.112699 27.125440
11546  1 24.270106 49.968079 15.704097
11547  1 24.270106 49.968056 18.559434
11548  1 24.270112 49.968022 21.414777
11549  1 24.270117 49.967993 24.270117
11550  1 24.270120 49.967979 27.125449
11566  1 24.270123 52.823331 15.704143
11567  1 24.270123 52.823316 18.559474
11568  1 24.270129 52.823299 21.414803
11569  1 24.270132 52.823282 24.270132
11570  1 24.270134 52.823276 27.125455
11586  1 24.270129 55.678597 15.704163
11587  1 24.270132 55.678591 18.559488
11588  1 24.270134 55.678585 21.414814
11589  1 24.270137 55.678582 24.270137
11590  1 24.270140 55.678579 27.125458
11906  1 27.125423 44.257638 15.703920
11907  1 27.125418 44.257627 18.559251
11908  1 27.125418 44.257553 21.414634
11909  1 27.125420 44.257453 24.270037
11910  1 27.125426 44.257384 27.125426
11926  1 27.125438 47.112844 15.704025
11927  1 27.125438 47.112813 18.559371
11928  1 27.125438 47.112756 21.414732
11929  1 27.125440 47.112699 24.270092
11930  1 27.125443 47.112665 27.125443
11946  1 27.125446 49.968073 15.704100
11947  1 27.125446 49.968048 18.559440
11948  1 27.125449 49.968010 21.414783
11949  1 27.125449 49.967979 24.270120
11950  1 27.125452 49.967962 27.125452
11966  1 27.125452 52.823328 15.704145
11967  1 27.125452 52.823311 18.559477
11968  1 27.125455 52.823291 21.414806
11969  1 27.125455 52.823276 24.270134
11970  1 27.125455 52.823268 27.125455
11986  1 27.125455 55.678597 15.704165
11987  1 27.125455 55.678591 18.559491
11988  1 27.125455 55.678585 21.414817
11989  1 27.125458 55.678579 24.270140
11990  1 27.125458 55.678577 27.125458
12306  1 29.980809 44.257638 15.703920
12307  1 29.980815 44.257627 18.559251
12308  1 29.980815 44.257553 21.414634
12309  1 29.980812 44.257453 24.270037
12310  1 29.980806 44.257384 27.125426
12326  1 29.980795 47.112844 15.704025
12327  1 29.980795 47.112813 18.559371
12328  1 29.980795 47.112756 21.414732
12329  1 29.980792 47.112699 24.270092
12330  1 29.980789 47.112665 27.125443
12346  1 29.980786 49.968073 15.704100
12347  1 29.980786 49.968048 18.559440
12348  1 29.980783 49.968010 21.414783
12349  1 29.980783 49.967979 24.270120
12350  1 29.980781 49.967962 27.125452
12366  1 29.980781 52.823328 15.704145
12367  1 29.980781 52.823311 18.559477
12368  1 29.980778 52.823291 21.414806
12369  1 29.980778 52.823276 24.270134
12370  1 29.980778 52.823268 27.125455
12386  1 29.980778 55.678597 15.704165
12387  1 29.980778 55.678591 18.559491
12388  1 29.980778 55.678585 21.414817
12389  1 29.980775 55.678579 24.270140
12390  1 29.980775 55.678577 27.125458
12706  1 32.836192 44.257644 15.703914
12707  1 32.836212 44.257644 18.559243
12708  1 32.836218 44.257587 21.414623
12709  1 32.836209 44.257507 24.270023
12710  1 32.836195 44.257453 27.125420
12726  1 32.836152 47.112850 15.704023
12727  1 32.836158 47.112824 18.559366
12728  1 32.836155 47.112776 21.414726
12729  1 32.836146 47.112727 24.270086
12730  1 32.836141 47.112699 27.125440
12746  1 32.836126 49.968079 15.704097
12747  1 32.836126 49.968056 18.559434
12748  1 32.836121 49.968022 21.414777
12749  1 32.836118 49.967993 24.270117
12750  1 32.836112 49.967979 27.125449
3111   1 19.986853 42.830031 28.553116
3112   1 19.986844 42.830045 31.408548
3113   1 19.986830 42.830083 34.263982
3114   1 19.986839 42.830108 37.119394
3115   1 19.986887 42.830083 39.974737
3131   1 19.987004 45.685180 28.553116
3132   1 19.986999 45.685189 31.408493
3133   1 19.986990 45.685217 34.263871
3134   1 19.986984 45.685251 37.119248
3135   1 19.986996 45.685263 39.974603
3151   1 19.987087 48.540400 28.553116
3152   1 19.987084 48.540406 31.408462
3153   1 19.987076 48.540426 34.263814
3154   1 19.987070 48.540452 37.119162
3155   1 19.987070 48.540472 39.974508
3171   1 19.987130 51.395661 28.553116
3172   1 19.987127 51.395666 31.408448
3173   1 19.987121 51.395678 34.263782
3174   1 19.987116 51.395692 37.119117
3175   1 19.987113 51.395706 39.974451
3191   1 19.987150 54.250944 28.553116
3192   1 19.987150 54.250944 31.408439
3193   1 19.987144 54.250949 34.263765
3194   1 19.987139 54.250958 37.119094
3195   1 19.987136 54.250966 39.974423
3511   1 22.842273 42.829917 28.553116
3512   1 22.842262 42.829946 31.408551
3513   1 22.842245 42.830020 34.263991
3514   1 22.842250 42.830083 37.119402
3515   1 22.842287 42.830077 39.974742
3531   1 22.842384 45.685100 28.553116
3532   1 22.842379 45.685117 31.408488
3533   1 22.842367 45.685166 34.263868
3534   1 22.842362 45.685217 37.119242
3535   1 22.842367 45.685249 39.974600
3551   1 22.842436 48.540352 28.553116
3552   1 22.842433 48.540363 31.408459
3553   1 22.842427 48.540389 34.263808
3554   1 22.842419 48.540426 37.119157
3555   1 22.842419 48.540457 39.974503
3571   1 22.842464 51.395635 28.553116
3572   1 22.842462 51.395641 31.408445
3573   1 22.842456 51.395655 34.263777
3574   1 22.842453 51.395678 37.119111
3575   1 22.842447 51.395698 39.974445
3591   1 22.842476 54.250932 28.553116
3592   1 22.842476 54.250932 31.408439
3593   1 22.842470 54.250941 34.263762
3594   1 22.842467 54.250949 37.119088
3595   1 22.842464 54.250961 39.974417
3911   1 25.697705 42.829786 28.553116
3912   1 25.697696 42.829834 31.408536
3913   1 25.697685 42.829946 34.263971
3914   1 25.697685 42.830045 37.119388
3915   1 25.697702 42.830063 39.974734
3931   1 25.697756 45.685034 28.553116
3932   1 25.697750 45.685057 31.408482
3933   1 25.697745 45.685117 34.263854
3934   1 25.697739 45.685189 37.119234
3935   1 25.697742 45.685234 39.974594
3951   1 25.697779 48.540318 28.553116
3952   1 25.697779 48.540329 31.408456
3953   1 25.697773 48.540363 34.263799
3954   1 25.697770 48.540406 37.119148
3955   1 25.697767 48.540446 39.974497
3971   1 25.697790 51.395615 28.553116
3972   1 25.697790 51.395623 31.408442
3973   1 25.697787 51.395641 34.263771
3974   1 25.697785 51.395666 37.119105
3975   1 25.697782 51.395689 39.974443
3991   1 25.697799 54.250924 28.553116
3992   1 25.697796 54.250926 31.408436
3993   1 25.697796 54.250932 34.263759
3994   1 25.697793 54.250944 37.119082
3995   1 25.697790 54.250958 39.974411
4311   1 28.553116 42.829731 28.553116
4312   1 28.553116 42.829786 31.408528
4313   1 28.553116 42.829917 34.263959
4314   1 28.553116 42.830031 37.119379
4315   1 28.553116 42.830057 39.974728
4331   1 28.553116 45.685006 28.553116
4332   1 28.553116 45.685034 31.408476
4333   1 28.553116 45.685100 34.263848
4334   1 28.553116 45.685180 37.119228
4335   1 28.553116 45.685231 39.974588
4351   1 28.553116 48.540303 28.553116
4352   1 28.553116 48.540318 31.408454
4353   1 28.553116 48.540352 34.263797
4354   1 28.553116 48.540400 37.119145
4355   1 28.553116 48.540443 39.974494
4371   1 28.553116 51.395609 28.553116
4372   1 28.553116 51.395615 31.408442
4373   1 28.553116 51.395635 34.263771
4374   1 28.553116 51.395661 37.119102
4375   1 28.553116 51.395689 39.974440
4391   1 28.553116 54.250921 28.553116
4392   1 28.553116 54.250924 31.408436
4393   1 28.553116 54.250932 34.263757
4394   1 28.553116 54.250944 37.119082
4395   1 28.553116 54.250955 39.974411
4711   1 31.408528 42.829786 28.553116
4712   1 31.408536 42.829834 31.408536
4713   1 31.408551 42.829946 34.263971
4714   1 31.408548 42.830045 37.119388
4715   1 31.408531 42.830063 39.974734
4731   1 31.408476 45.685034 28.553116
4732   1 31.408482 45.685057 31.408482
4733   1 31.408488 45.685117 34.263854
4734   1 31.408493 45.685189 37.119234
4735   1 31.408491 45.685234 39.974594
4751   1 31.408454 48.540318 28.553116
4752   1 31.408456 48.540329 31.408456
4753   1 31.408459 48.540363 34.263799
4754   1 31.408462 48.540406 37.119148
4755   1 31.408465 48.540446 39.974497
4771   1 31.408442 51.395615 28.553116
4772   1 31.408442 51.395623 31.408442
4773   1 31.408445 51.395641 34.263771
4774   1 31.408448 51.395666 37.119105
4775   1 31.408451 51.395689 39.974443
4791   1 31.408436 54.250924 28.553116
4792   1 31.408436 54.250926 31.408436
4793   1 31.408439 54.250932 34.263759
4794   1 31.408439 54.250944 37.119082
4795   1 31.408442 54.250958 39.974411
5111   1 34.263959 42.829917 28.553116
5112   1 34.263971 42.829946 31.408551
5113   1 34.263991 42.830020 34.263991
5114   1 34.263982 42.830083 37.119402
5115   1 34.263945 42.830077 39.974742
5131   1 34.263848 45.685100 28.553116
5132   1 34.263854 45.685117 31.408488
5133   1 34.263868 45.685166 34.263868
5134   1 34.263871 45.685217 37.119242
5135   1 34.263865 45.685249 39.974600
5151   1 34.263797 48.540352 28.553116
5152   1 34.263799 48.540363 31.408459
5153   1 34.263808 48.540389 34.263808
5154   1 34.263814 48.540426 37.119157
5155   1 34.263814 48.540457 39.974503
5171   1 34.263771 51.395635 28.553116
5172   1 34.263771 51.395641 31.408445
5173   1 34.263777 51.395655 34.263777
5174   1 34.263782 51.395678 37.119111
5175   1 34.263785 51.395698 39.974445
5191   1 34.263757 54.250932 28.553116
5192   1 34.263759 54.250932 31.408439
5193   1 34.263762 54.250941 34.263762
5194   1 34.263765 54.250949 37.119088
5195   1 34.263768 54.250961 39.974417
5511   1 37.119379 42.830031 28.553116
5512   1 37.119388 42.830045 31.408548
5513   1 37.119402 42.830083 34.263982
5514   1 37.119394 42.830108 37.119394
5515   1 37.119345 42.830083 39.974737
5531   1 37.119228 45.685180 28.553116
5532   1 37.119234 45.685189 31.408493
5533   1 37.119242 45.685217 34.263871
5534   1 37.119248 45.685251 37.119248
5535   1 37.119237 45.685263 39.974603
5551   1 37.119145 48.540400 28.553116
5552   1 37.119148 48.540406 31.408462
5553   1 37.119157 48.540426 34.263814
5554   1 37.119162 48.540452 37.119162
5555   1 37.119162 48.540472 39.974508
5571   1 37.119102 51.395661 28.553116
5572   1 37.119105 51.395666 31.408448
5573   1 37.119111 51.395678 34.263782
5574   1 37.119117 51.395692 37.119117
5575   1 37.119120 51.395706 39.974451
5591   1 37.119082 54.250944 28.553116
5592   1 37.119082 54.250944 31.408439
5593   1 37.119088 54.250949 34.263765
5594   1 37.119094 54.250958 37.119094
5595   1 37.119097 54.250966 39.974423
11111  1 21.414634 44.257553 29.980815
11112  1 21.414623 44.257587 32.836218
11113  1 21.414612 44.257638 35.691621
11114  1 21.414623 44.257667 38.546998
11115  1 21.414657 44.257653 41.402321
11131  1 21.414732 47.112756 29.980795
11132  1 21.414726 47.112776 32.836155
11133  1 21.414714 47.112810 35.691518
11134  1 21.414714 47.112844 38.546875
11135  1 21.414723 47.112859 41.402216
11151  1 21.414783 49.968010 29.980783
11152  1 21.414777 49.968022 32.836121
11153  1 21.414771 49.968045 35.691464
11154  1 21.414766 49.968070 38.546804
11155  1 21.414766 49.968088 41.402141
11171  1 21.414806 52.823291 29.980778
11172  1 21.414803 52.823299 32.836106
11173  1 21.414797 52.823311 35.691435
11174  1 21.414794 52.823325 38.546767
11175  1 21.414791 52.823336 41.402096
11191  1 21.414817 55.678585 29.980778
11192  1 21.414814 55.678585 32.836098
11193  1 21.414811 55.678591 35.691421
11194  1 21.414806 55.678594 38.546747
11195  1 21.414803 55.678599 41.402076
11511  1 24.270037 44.257453 29.980812
11512  1 24.270023 44.257507 32.836209
11513  1 24.270015 44.257587 35.691609
11514  1 24.270020 44.257644 38.546990
11515  1 24.270040 44.257644 41.402318
11531  1 24.270092 47.112699 29.980792
11532  1 24.270086 47.112727 32.836146
11533  1 24.270077 47.112776 35.691507
11534  1 24.270075 47.112824 38.546867
11535  1 24.270080 47.112850 41.402210
11551  1 24.270120 49.967979 29.980783
11552  1 24.270117 49.967993 32.836118
11553  1 24.270112 49.968022 35.691455
11554  1 24.270106 49.968056 38.546798
11555  1 24.270106 49.968079 41.402136
11571  1 24.270134 52.823276 29.980778
11572  1 24.270132 52.823282 32.836101
11573  1 24.270129 52.823299 35.691430
11574  1 24.270123 52.823316 38.546761
11575  1 24.270123 52.823331 41.402090
11591  1 24.270140 55.678579 29.980775
11592  1 24.270137 55.678582 32.836095
11593  1 24.270134 55.678585 35.691418
11594  1 24.270132 55.678591 38.546744
11595  1 24.270129 55.678597 41.402070
11911  1 27.125426 44.257384 29.980806
11912  1 27.125420 44.257453 32.836195
11913  1 27.125418 44.257553 35.691598
11914  1 27.125418 44.257627 38.546981
11915  1 27.125423 44.257638 41.402313
11931  1 27.125443 47.112665 29.980789
11932  1 27.125440 47.112699 32.836141
11933  1 27.125438 47.112756 35.691501
11934  1 27.125438 47.112813 38.546861
11935  1 27.125438 47.112844 41.402207
11951  1 27.125452 49.967962 29.980781
11952  1 27.125449 49.967979 32.836112
11953  1 27.125449 49.968010 35.691452
11954  1 27.125446 49.968048 38.546793
11955  1 27.125446 49.968073 41.402133
11971  1 27.125455 52.823268 29.980778
11972  1 27.125455 52.823276 32.836101
11973  1 27.125455 52.823291 35.691427
11974  1 27.125452 52.823311 38.546755
11975  1 27.125452 52.823328 41.402087
11991  1 27.125458 55.678577 29.980775
11992  1 27.125458 55.678579 32.836095
11993  1 27.125455 55.678585 35.691415
11994  1 27.125455 55.678591 38.546741
11995  1 27.125455 55.678597 41.402067
12311  1 29.980806 44.257384 29.980806
12312  1 29.980812 44.257453 32.836195
12313  1 29.980815 44.257553 35.691598
12314  1 29.980815 44.257627 38.546981
12315  1 29.980809 44.257638 41.402313
12331  1 29.980789 47.112665 29.980789
12332  1 29.980792 47.112699 32.836141
12333  1 29.980795 47.112756 35.691501
12334  1 29.980795 47.112813 38.546861
12335  1 29.980795 47.112844 41.402207
12351  1 29.980781 49.967962 29.980781
12352  1 29.980783 49.967979 32.836112
12353  1 29.980783 49.968010 35.691452
12354  1 29.980786 49.968048 38.546793
12355  1 29.980786 49.968073 41.402133
12371  1 29.980778 52.823268 29.980778
12372  1 29.980778 52.823276 32.836101
12373  1 29.980778 52.823291 35.691427
12374  1 29.980781 52.823311 38.546755
12375  1 29.980781 52.823328 41.402087
12391  1 29.980775 55.678577 29.980775
12392  1 29.980775 55.678579 32.836095
12393  1 29.980778 55.678585 35.691415
12394  1 29.980778 55.678591 38.546741
12395  1 29.980778 55.678597 41.402067
12711  1 32.836195 44.257453 29.980812
12712  1 32.836209 44.257507 32.836209
12713  1 32.836218 44.257587 35.691609
12714  1 32.836212 44.257644 38.546990
12715  1 32.836192 44.257644 41.402318
12731  1 32.836141 47.112699 29.980792
12732  1 32.836146 47.112727 32.836146
12733  1 32.836155 47.112776 35.691507
12734  1 32.836158 47.112824 38.546867
12735  1 32.836152 47.112850 41.402210
12751  1 32.836112 49.967979 29.980783
12752  1 32.836118 49.967993 32.836118
12753  1 32.836121 49.968022 35.691455
12754  1 32.836126 49.968056 38.546798
12755  1 32.836126 49.968079 41.402136
12771  1 32.836101 52.823276 29.980778
12772  1 32.836101 52.823282 32.836101
12773  1 32.836106 52.823299 35.691430
12774  1 32.836109 52.823316 38.546761
12775  1 32.836112 52.823331 41.402090
12791  1 32.836095 55.678579 29.980775
12792  1 32.836095 55.678582 32.836095
12793  1 32.836098 55.678585 35.691418
12794  1 32.836101 55.678591 38.546744
12795  1 32.836104 55.678597 41.402070
13111  1 35.691598 44.257553 29.980815
13112  1 35.691609 44.257587 32.836218
13113  1 35.691621 44.257638 35.691621
13114  1 35.691609 44.257667 38.546998
13115  1 35.691578 44.257653 41.402321
13131  1 35.691501 47.112756 29.980795
13132  1 35.691507 47.112776 32.836155
13133  1 35.691518 47.112810 35.691518
13134  1 35.691521 47.112844 38.546875
13135  1 35.691512 47.112859 41.402216
13151  1 35.691452 49.968010 29.980783
13152  1 35.691455 49.968022 32.836121
13153  1 35.691464 49.968045 35.691464
13154  1 35.691467 49.968070 38.546804
13155  1 35.691467 49.968088 41.402141
13171  1 35.691427 52.823291 29.980778
13172  1 35.691430 52.823299 32.836106
13173  1 35.691435 52.823311 35.691435
13174  1 35.691438 52.823325 38.546767
13175  1 35.691441 52.823336 41.402096
13191  1 35.691415 55.678585 29.980778
13192  1 35.691418 55.678585 32.836098
13193  1 35.691421 55.678591 35.691421
13194  1 35.691427 55.678594 38.546747
13195  1 35.691430 55.678599 41.402076
3116   1 19.986959 42.830008 42.830008
3117   1 19.987024 42.829917 45.685243
3118   1 19.987079 42.829837 48.540475
3119   1 19.987113 42.829780 51.395715
3120   1 19.987133 42.829749 54.250969
3136   1 19.987024 45.685243 42.829917
3137   1 19.987061 45.685197 45.685197
3138   1 19.987093 45.685143 48.540457
3139   1 19.987119 45.685097 51.395712
3140   1 19.987133 45.685066 54.250972
3156   1 19.987079 48.540475 42.829837
3157   1 19.987093 48.540457 45.685143
3158   1 19.987110 48.540429 48.540429
3159   1 19.987124 48.540397 51.395701
3160   1 19.987136 48.540375 54.250966
3176   1 19.987113 51.395715 42.829780
3177   1 19.987119 51.395712 45.685097
3178   1 19.987124 51.395701 48.540397
3179   1 19.987133 51.395683 51.395683
3180   1 19.987139 51.395669 54.250961
3196   1 19.987133 54.250969 42.829749
3197   1 19.987133 54.250972 45.685066
3198   1 19.987136 54.250966 48.540375
3199   1 19.987139 54.250961 51.395669
3200   1 19.987141 54.250955 54.250955
3516   1 22.842339 42.830008 42.830008
3517   1 22.842387 42.829917 45.685240
3518   1 22.842424 42.829834 48.540469
3519   1 22.842447 42.829777 51.395712
3520   1 22.842462 42.829743 54.250969
3536   1 22.842387 45.685240 42.829917
3537   1 22.842410 45.685197 45.685197
3538   1 22.842433 45.685143 48.540457
3539   1 22.842450 45.685094 51.395712
3540   1 22.842462 45.685063 54.250969
3556   1 22.842424 48.540469 42.829834
3557   1 22.842433 48.540457 45.685143
3558   1 22.842444 48.540429 48.540429
3559   1 22.842456 48.540397 51.395701
3560   1 22.842462 48.540375 54.250966
3576   1 22.842447 51.395712 42.829777
3577   1 22.842450 51.395712 45.685094
3578   1 22.842456 51.395701 48.540397
3579   1 22.842462 51.395683 51.395683
3580   1 22.842464 51.395669 54.250961
3596   1 22.842462 54.250969 42.829743
3597   1 22.842462 54.250969 45.685063
3598   1 22.842462 54.250966 48.540375
3599   1 22.842464 54.250961 51.395669
3600   1 22.842464 54.250955 54.250955
3916   1 25.697727 42.830003 42.830003
3917   1 25.697753 42.829914 45.685234
3918   1 25.697770 42.829831 48.540463
3919   1 25.697782 42.829774 51.395706
3920   1 25.697790 42.829740 54.250966
3936   1 25.697753 45.685234 42.829914
3937   1 25.697765 45.685194 45.685194
3938   1 25.697776 45.685140 48.540455
3939   1 25.697785 45.685092 51.395709
3940   1 25.697787 45.685063 54.250969
3956   1 25.697770 48.540463 42.829831
3957   1 25.697776 48.540455 45.685140
3958   1 25.697782 48.540426 48.540426
3959   1 25.697785 48.540395 51.395701
3960   1 25.697790 48.540372 54.250966
3976   1 25.697782 51.395706 42.829774
3977   1 25.697785 51.395709 45.685092
3978   1 25.697785 51.395701 48.540395
3979   1 25.697787 51.395683 51.395683
3980   1 25.697790 51.395669 54.250961
3996   1 25.697790 54.250966 42.829740
3997   1 25.697787 54.250969 45.685063
3998   1 25.697790 54.250966 48.540372
3999   1 25.697790 54.250961 51.395669
4000   1 25.697790 54.250955 54.250955
4316   1 28.553116 42.830000 42.830000
4317   1 28.553116 42.829911 45.685231
4318   1 28.553116 42.829828 48.540460
4319   1 28.553116 42.829771 51.395706
4320   1 28.553116 42.829740 54.250966
4336   1 28.553116 45.685231 42.829911
4337   1 28.553116 45.685194 45.685194
4338   1 28.553116 45.685140 48.540455
4339   1 28.553116 45.685092 51.395709
4340   1 28.553116 45.685060 54.250969
4356   1 28.553116 48.540460 42.829828
4357   1 28.553116 48.540455 45.685140
4358   1 28.553116 48.540426 48.540426
4359   1 28.553116 48.540395 51.395701
4360   1 28.553116 48.540372 54.250966
4376   1 28.553116 51.395706 42.829771
4377   1 28.553116 51.395709 45.685092
4378   1 28.553116 51.395701 48.540395
4379   1 28.553116 51.395683 51.395683
4380   1 28.553116 51.395669 54.250961
4396   1 28.553116 54.250966 42.829740
4397   1 28.553116 54.250969 45.685060
4398   1 28.553116 54.250966 48.540372
4399   1 28.553116 54.250961 51.395669
4400   1 28.553116 54.250955 54.250955
4716   1 31.408505 42.830003 42.830003
4717   1 31.408482 42.829914 45.685234
4718   1 31.408462 42.829831 48.540463
4719   1 31.408451 42.829774 51.395706
4720   1 31.408445 42.829740 54.250966
4736   1 31.408482 45.685234 42.829914
4737   1 31.408468 45.685194 45.685194
4738   1 31.408456 45.685140 48.540455
4739   1 31.408448 45.685092 51.395709
4740   1 31.408445 45.685063 54.250969
4756   1 31.408462 48.540463 42.829831
4757   1 31.408456 48.540455 45.685140
4758   1 31.408451 48.540426 48.540426
4759   1 31.408448 48.540395 51.395701
4760   1 31.408445 48.540372 54.250966
4776   1 31.408451 51.395706 42.829774
4777   1 31.408448 51.395709 45.685092
4778   1 31.408448 51.395701 48.540395
4779   1 31.408445 51.395683 51.395683
4780   1 31.408442 51.395669 54.250961
4796   1 31.408445 54.250966 42.829740
4797   1 31.408445 54.250969 45.685063
4798   1 31.408445 54.250966 48.540372
4799   1 31.408442 54.250961 51.395669
4800   1 31.408442 54.250955 54.250955
5116   1 34.263894 42.830008 42.830008
5117   1 34.263845 42.829917 45.685240
5118   1 34.263808 42.829834 48.540469
5119   1 34.263785 42.829777 51.395712
5120   1 34.263771 42.829743 54.250969
5136   1 34.263845 45.685240 42.829917
5137   1 34.263822 45.685197 45.685197
5138   1 34.263799 45.685143 48.540457
5139   1 34.263782 45.685094 51.395712
5140   1 34.263771 45.685063 54.250969
5156   1 34.263808 48.540469 42.829834
5157   1 34.263799 48.540457 45.685143
5158   1 34.263788 48.540429 48.540429
5159   1 34.263777 48.540397 51.395701
5160   1 34.263771 48.540375 54.250966
5176   1 34.263785 51.395712 42.829777
5177   1 34.263782 51.395712 45.685094
5178   1 34.263777 51.395701 48.540397
5179   1 34.263774 51.395683 51.395683
5180   1 34.263768 51.395669 54.250961
5196   1 34.263771 54.250969 42.829743
5197   1 34.263771 54.250969 45.685063
5198   1 34.263771 54.250966 48.540375
5199   1 34.263768 54.250961 51.395669
5200   1 34.263768 54.250955 54.250955
5516   1 37.119277 42.830008 42.830008
5517   1 37.119208 42.829917 45.685243
5518   1 37.119154 42.829837 48.540475
5519   1 37.119120 42.829780 51.395715
5520   1 37.119100 42.829749 54.250969
5536   1 37.119208 45.685243 42.829917
5537   1 37.119174 45.685197 45.685197
5538   1 37.119140 45.685143 48.540457
5539   1 37.119114 45.685097 51.395712
5540   1 37.119100 45.685066 54.250972
5556   1 37.119154 48.540475 42.829837
5557   1 37.119140 48.540457 45.685143
5558   1 37.119122 48.540429 48.540429
5559   1 37.119108 48.540397 51.395701
5560   1 37.119097 48.540375 54.250966
5576   1 37.119120 51.395715 42.829780
5577   1 37.119114 51.395712 45.685097
5578   1 37.119108 51.395701 48.540397
5579   1 37.119100 51.395683 51.395683
5580   1 37.119094 51.395669 54.250961
5596   1 37.119100 54.250969 42.829749
5597   1 37.119100 54.250972 45.685066
5598   1 37.119097 54.250966 48.540375
5599   1 37.119094 54.250961 51.395669
5600   1 37.119091 54.250955 54.250955
11116  1 21.414700 44.257596 44.257596
11117  1 21.414740 44.257524 47.112844
11118  1 21.414771 44.257464 49.968090
11119  1 21.414791 44.257419 52.823342
11120  1 21.414800 44.257399 55.678602
11136  1 21.414740 47.112844 44.257524
11137  1 21.414760 47.112807 47.112807
11138  1 21.414780 47.112767 49.968076
11139  1 21.414794 47.112733 52.823339
11140  1 21.414800 47.112713 55.678602
11156  1 21.414771 49.968090 44.257464
11157  1 21.414780 49.968076 47.112767
11158  1 21.414789 49.968053 49.968053
11159  1 21.414797 49.968030 52.823328
11160  1 21.414800 49.968019 55.678599
11176  1 21.414791 52.823342 44.257419
11177  1 21.414794 52.823339 47.112733
11178  1 21.414797 52.823328 49.968030
11179  1 21.414800 52.823316 52.823316
11180  1 21.414803 52.823311 55.678597
11196  1 21.414800 55.678602 44.257399
11197  1 21.414800 55.678602 47.112713
11198  1 21.414800 55.678599 49.968019
11199  1 21.414803 55.678597 52.823311
11200  1 21.414803 55.678594 55.678594
11516  1 24.270066 44.257593 44.257593
11517  1 24.270089 44.257524 47.112842
11518  1 24.270109 44.257461 49.968088
11519  1 24.270120 44.257416 52.823339
11520  1 24.270126 44.257396 55.678599
11536  1 24.270089 47.112842 44.257524
11537  1 24.270103 47.112807 47.112807
11538  1 24.270115 47.112765 49.968076
11539  1 24.270123 47.112730 52.823339
11540  1 24.270126 47.112713 55.678602
11556  1 24.270109 49.968088 44.257461
11557  1 24.270115 49.968076 47.112765
11558  1 24.270120 49.968053 49.968053
11559  1 24.270126 49.968030 52.823328
11560  1 24.270126 49.968019 55.678599
11576  1 24.270120 52.823339 44.257416
11577  1 24.270123 52.823339 47.112730
11578  1 24.270126 52.823328 49.968030
11579  1 24.270126 52.823316 52.823316
11580  1 24.270129 52.823311 55.678597
11596  1 24.270126 55.678599 44.257396
11597  1 24.270126 55.678602 47.112713
11598  1 24.270126 55.678599 49.968019
11599  1 24.270129 55.678597 52.823311
11600  1 24.270129 55.678594 55.678594
11916  1 27.125432 44.257590 44.257590
11917  1 27.125440 44.257521 47.112839
11918  1 27.125446 44.257459 49.968085
11919  1 27.125452 44.257416 52.823339
11920  1 27.125455 44.257393 55.678599
11936  1 27.125440 47.112839 44.257521
11937  1 27.125446 47.112807 47.112807
11938  1 27.125449 47.112765 49.968076
11939  1 27.125452 47.112730 52.823336
11940  1 27.125452 47.112710 55.678599
11956  1 27.125446 49.968085 44.257459
11957  1 27.125449 49.968076 47.112765
11958  1 27.125452 49.968053 49.968053
11959  1 27.125452 49.968030 52.823328
11960  1 27.125455 49.968016 55.678599
11976  1 27.125452 52.823339 44.257416
11977  1 27.125452 52.823336 47.112730
11978  1 27.125452 52.823328 49.968030
11979  1 27.125452 52.823316 52.823316
11980  1 27.125455 52.823311 55.678597
11996  1 27.125455 55.678599 44.257393
11997  1 27.125452 55.678599 47.112710
11998  1 27.125455 55.678599 49.968016
11999  1 27.125455 55.678597 52.823311
12000  1 27.125455 55.678594 55.678594
12316  1 29.980801 44.257590 44.257590
12317  1 29.980792 44.257521 47.112839
12318  1 29.980786 44.257459 49.968085
12319  1 29.980781 44.257416 52.823339
12320  1 29.980781 44.257393 55.678599
12336  1 29.980792 47.112839 44.257521
12337  1 29.980786 47.112807 47.112807
12338  1 29.980783 47.112765 49.968076
12339  1 29.980781 47.112730 52.823336
12340  1 29.980781 47.112710 55.678599
12356  1 29.980786 49.968085 44.257459
12357  1 29.980783 49.968076 47.112765
12358  1 29.980781 49.968053 49.968053
12359  1 29.980781 49.968030 52.823328
12360  1 29.980781 49.968016 55.678599
12376  1 29.980781 52.823339 44.257416
12377  1 29.980781 52.823336 47.112730
12378  1 29.980781 52.823328 49.968030
12379  1 29.980781 52.823316 52.823316
12380  1 29.980781 52.823311 55.678597
12396  1 29.980781 55.678599 44.257393
12397  1 29.980781 55.678599 47.112710
12398  1 29.980781 55.678599 49.968016
12399  1 29.980781 55.678597 52.823311
12400  1 29.980778 55.678594 55.678594
12716  1 32.836166 44.257593 44.257593
12717  1 32.836144 44.257524 47.112842
12718  1 32.836124 44.257461 49.968088
12719  1 32.836112 44.257416 52.823339
12720  1 32.836106 44.257396 55.678599
12736  1 32.836144 47.112842 44.257524
12737  1 32.836129 47.112807 47.112807
12738  1 32.836118 47.112765 49.968076
12739  1 32.836109 47.112730 52.823339
12740  1 32.836106 47.112713 55.678602
12756  1 32.836124 49.968088 44.257461
12757  1 32.836118 49.968076 47.112765
12758  1 32.836112 49.968053 49.968053
12759  1 32.836109 49.968030 52.823328
12760  1 32.836106 49.968019 55.678599
12776  1 32.836112 52.823339 44.257416
12777  1 32.836109 52.823339 47.112730
12778  1 32.836109 52.823328 49.968030
12779  1 32.836106 52.823316 52.823316
12780  1 32.836104 52.823311 55.678597
12796  1 32.836106 55.678599 44.257396
12797  1 32.836106 55.678602 47.112713
12798  1 32.836106 55.678599 49.968019
12799  1 32.836104 55.678597 52.823311
12800  1 32.836104 55.678594 55.678594
13116  1 35.691535 44.257596 44.257596
13117  1 35.691492 44.257524 47.112844
13118  1 35.691464 44.257464 49.968090
13119  1 35.691441 44.257419 52.823342
13120  1 35.691432 44.257399 55.678602
13136  1 35.691492 47.112844 44.257524
13137  1 35.691472 47.112807 47.112807
13138  1 35.691452 47.112767 49.968076
13139  1 35.691441 47.112733 52.823339
13140  1 35.691432 47.112713 55.678602
13156  1 35.691464 49.968090 44.257464
13157  1 35.691452 49.968076 47.112767
13158  1 35.691444 49.968053 49.968053
13159  1 35.691435 49.968030 52.823328
13160  1 35.691432 49.968019 55.678599
13176  1 35.691441 52.823342 44.257419
13177  1 35.691441 52.823339 47.112733
13178  1 35.691435 52.823328 49.968030
13179  1 35.691432 52.823316 52.823316
13180  1 35.691430 52.823311 55.678597
13196  1 35.691432 55.678602 44.257399
13197  1 35.691432 55.678602 47.112713
13198  1 35.691432 55.678599 49.968019
13199  1 35.691430 55.678597 52.823311
13200  1 35.691430 55.678594 55.678594
5601   1 39.974411  0.000000  0.000000
5602   1 39.974414  0.000000  2.855280
5603   1 39.974417  0.000000  5.710569
5604   1 39.974420  0.000000  8.565866
5605   1 39.974420  0.000000 11.421175
5621   1 39.974414  2.855280  0.000000
5622   1 39.974414  2.855280  2.855280
5623   1 39.974417  2.855272  5.710563
5624   1 39.974423  2.855266  8.565858
5625   1 39.974425  2.855260 11.421164
5641   1 39.974417  5.710569  0.000000
5642   1 39.974417  5.710563  2.855272
5643   1 39.974425  5.710549  5.710549
5644   1 39.974437  5.710535  8.565838
5645   1 39.974445  5.710520 11.421138
5661   1 39.974420  8.565866  0.000000
5662   1 39.974423  8.565858  2.855266
5663   1 39.974437  8.565838  5.710535
5664   1 39.974454  8.565806  8.565806
5665   1 39.974477  8.565778 11.421095
5681   1 39.974420 11.421175  0.000000
5682   1 39.974425 11.421164  2.855260
5683   1 39.974445 11.421138  5.710520
5684   1 39.974477 11.421095  8.565778
5685   1 39.974517 11.421044 11.421044
6001   1 42.829731  0.000000  0.000000
6002   1 42.829731  0.000000  2.855283
6003   1 42.829734  0.000000  5.710569
6004   1 42.829740  0.000000  8.565866
6005   1 42.829743  0.000000 11.421172
6021   1 42.829731  2.855283  0.000000
6022   1 42.829734  2.855280  2.855280
6023   1 42.829737  2.855275  5.710566
6024   1 42.829743  2.855269  8.565861
6025   1 42.829749  2.855263 11.421164
6041   1 42.829734  5.710569  0.000000
6042   1 42.829737  5.710566  2.855275
6043   1 42.829746  5.710552  5.710552
6044   1 42.829757  5.710538  8.565841
6045   1 42.829769  5.710523 11.421141
6061   1 42.829740  8.565866  0.000000
6062   1 42.829743  8.565861  2.855269
6063   1 42.829757  8.565841  5.710538
6064   1 42.829780  8.565815  8.565815
6065   1 42.829803  8.565786 11.421104
6081   1 42.829743 11.421172  0.000000
6082   1 42.829749 11.421164  2.855263
6083   1 42.829769 11.421141  5.710523
6084   1 42.829803 11.421104  8.565786
6085   1 42.829843 11.421061 11.421061
6401   1 45.685043  0.000000  0.000000
6402   1 45.685046  0.000000  2.855283
6403   1 45.685049  0.000000  5.710572
6404   1 45.685054  0.000000  8.565869
6405   1 45.685057  0.000000 11.421175
6421   1 45.685046  2.855283  0.000000
6422   1 45.685049  2.855280  2.855280
6423   1 45.685052  2.855277  5.710569
6424   1 45.685060  2.855272  8.565863
6425   1 45.685066  2.855266 11.421169
6441   1 45.685049  5.710572  0.000000
6442   1 45.685052  5.710569  2.855277
6443   1 45.685060  5.710558  5.710558
6444   1 45.685072  5.710543  8.565846
6445   1 45.685083  5.710532 11.421149
6461   1 45.685054  8.565869  0.000000
6462   1 45.685060  8.565863  2.855272
6463   1 45.685072  8.565846  5.710543
6464   1 45.685092  8.565826  8.565826
6465   1 45.685112  8.565804 11.421121
6481   1 45.685057 11.421175  0.000000
6482   1 45.685066 11.421169  2.855266
6483   1 45.685083 11.421149  5.710532
6484   1 45.685112 11.421121  8.565804
6485   1 45.685146 11.421089 11.421089
6801   1 48.540352  0.000000  0.000000
6802   1 48.540352  0.000000  2.855286
6803   1 48.540358  0.000000  5.710575
6804   1 48.540360  0.000000  8.565872
6805   1 48.540363  0.000000 11.421178
6821   1 48.540352  2.855286  0.000000
6822   1 48.540355  2.855283  2.855283
6823   1 48.540358  2.855280  5.710572
6824   1 48.540366  2.855275  8.565869
6825   1 48.540369  2.855272 11.421175
6841   1 48.540358  5.710575  0.000000
6842   1 48.540358  5.710572  2.855280
6843   1 48.540366  5.710563  5.710563
6844   1 48.540375  5.710555  8.565858
6845   1 48.540386  5.710543 11.421161
6861   1 48.540360  8.565872  0.000000
6862   1 48.540366  8.565869  2.855275
6863   1 48.540375  8.565858  5.710555
6864   1 48.540392  8.565841  8.565841
6865   1 48.540406  8.565826 11.421141
6881   1 48.540363 11.421178  0.000000
6882   1 48.540369 11.421175  2.855272
6883   1 48.540386 11.421161  5.710543
6884   1 48.540406 11.421141  8.565826
6885   1 48.540429 11.421121 11.421121
7201   1 51.395649  0.000000  0.000000
7202   1 51.395652  0.000000  2.855286
7203   1 51.395655  0.000000  5.710578
7204   1 51.395658  0.000000  8.565878
7205   1 51.395661  0.000000 11.421184
7221   1 51.395652  2.855286  0.000000
7222   1 51.395652  2.855286  2.855286
7223   1 51.395658  2.855283  5.710578
7224   1 51.395661  2.855280  8.565875
7225   1 51.395666  2.855277 11.421181
7241   1 51.395655  5.710578  0.000000
7242   1 51.395658  5.710578  2.855283
7243   1 51.395661  5.710572  5.710572
7244   1 51.395669  5.710563  8.565866
7245   1 51.395675  5.710558 11.421172
7261   1 51.395658  8.565878  0.000000
7262   1 51.395661  8.565875  2.855280
7263   1 51.395669  8.565866  5.710563
7264   1 51.395678  8.565858  8.565858
7265   1 51.395689  8.565846 11.421161
7281   1 51.395661 11.421184  0.000000
7282   1 51.395666 11.421181  2.855277
7283   1 51.395675 11.421172  5.710558
7284   1 51.395689 11.421161  8.565846
7285   1 51.395701 11.421149 11.421149
7601   1 54.250944  0.000000  0.000000
7602   1 54.250944  0.000000  2.855289
7603   1 54.250946  0.000000  5.710580
7604   1 54.250946  0.000000  8.565881
7605   1 54.250949  0.000000 11.421187
7621   1 54.250944  2.855289  0.000000
7622   1 54.250944  2.855289  2.855289
7623   1 54.250946  2.855286  5.710580
7624   1 54.250949  2.855283  8.565878
7625   1 54.250952  2.855280 11.421187
7641   1 54.250946  5.710580  0.000000
7642   1 54.250946  5.710580  2.855286
7643   1 54.250949  5.710578  5.710578
7644   1 54.250952  5.710572  8.565875
7645   1 54.250955  5.710569 11.421181
7661   1 54.250946  8.565881  0.000000
7662   1 54.250949  8.565878  2.855283
7663   1 54.250952  8.565875  5.710572
7664   1 54.250958  8.565869  8.565869
7665   1 54.250964  8.565863 11.421175
7681   1 54.250949 11.421187  0.000000
7682   1 54.250952 11.421187  2.855280
7683   1 54.250955 11.421181  5.710569
7684   1 54.250964 11.421175  8.565863
7685   1 54.250966 11.421169 11.421169
13201  1 38.546753  1.427639  1.427639
13202  1 38.546753  1.427639  4.282922
13203  1 38.546755  1.427633  7.138213
13204  1 38.546758  1.427630  9.993516
13205  1 38.546758  1.427630 12.848831
13221  1 38.546753  4.282922  1.427639
13222  1 38.546758  4.282916  4.282916
13223  1 38.546761  4.282905  7.138202
13224  1 38.546770  4.282893  9.993499
13225  1 38.546773  4.282890 12.848811
13241  1 38.546755  7.138213  1.427633
13242  1 38.546761  7.138202  4.282905
13243  1 38.546773  7.138179  7.138179
13244  1 38.546787  7.138156  9.993468
13245  1 38.546798  7.138142 12.848768
13261  1 38.546758  9.993516  1.427630
13262  1 38.546770  9.993499  4.282893
13263  1 38.546787  9.993468  7.138156
13264  1 38.546813  9.993425  9.993425
13265  1 38.546841  9.993388 12.848711
13281  1 38.546758 12.848831  1.427630
13282  1 38.546773 12.848811  4.282890
13283  1 38.546798 12.848768  7.138142
13284  1 38.546841 12.848711  9.993388
13285  1 38.546892 12.848642 12.848642
13601  1 41.402073  1.427642  1.427642
13602  1 41.402076  1.427639  4.282922
13603  1 41.402078  1.427636  7.138213
13604  1 41.402081  1.427633  9.993516
13605  1 41.402084  1.427630 12.848828
13621  1 41.402076  4.282922  1.427639
13622  1 41.402078  4.282916  4.282916
13623  1 41.402087  4.282905  7.138202
13624  1 41.402093  4.282896  9.993499
13625  1 41.402098  4.282887 12.848811
13641  1 41.402078  7.138213  1.427636
13642  1 41.402087  7.138202  4.282905
13643  1 41.402098  7.138182  7.138182
13644  1 41.402116  7.138162  9.993471
13645  1 41.402130  7.138145 12.848774
13661  1 41.402081  9.993516  1.427633
13662  1 41.402093  9.993499  4.282896
13663  1 41.402116  9.993471  7.138162
13664  1 41.402144  9.993434  9.993434
13665  1 41.402176  9.993397 12.848720
13681  1 41.402084 12.848828  1.427630
13682  1 41.402098 12.848811  4.282887
13683  1 41.402130 12.848774  7.138145
13684  1 41.402176 12.848720  9.993397
13685  1 41.402230 12.848662 12.848662
14001  1 44.257390  1.427642  1.427642
14002  1 44.257393  1.427639  4.282925
14003  1 44.257396  1.427636  7.138216
14004  1 44.257401  1.427633  9.993516
14005  1 44.257404  1.427630 12.848828
14021  1 44.257393  4.282925  1.427639
14022  1 44.257396  4.282919  4.282919
14023  1 44.257404  4.282910  7.138205
14024  1 44.257413  4.282899  9.993505
14025  1 44.257419  4.282893 12.848814
14041  1 44.257396  7.138216  1.427636
14042  1 44.257404  7.138205  4.282910
14043  1 44.257419  7.138188  7.138188
14044  1 44.257436  7.138171  9.993479
14045  1 44.257450  7.138153 12.848782
14061  1 44.257401  9.993516  1.427633
14062  1 44.257413  9.993505  4.282899
14063  1 44.257436  9.993479  7.138171
14064  1 44.257464  9.993448  9.993448
14065  1 44.257490  9.993419 12.848742
14081  1 44.257404 12.848828  1.427630
14082  1 44.257419 12.848814  4.282893
14083  1 44.257450 12.848782  7.138153
14084  1 44.257490 12.848742  9.993419
14085  1 44.257536 12.848697 12.848697
14401  1 47.112699  1.427642  1.427642
14402  1 47.112702  1.427642  4.282927
14403  1 47.112707  1.427639  7.138219
14404  1 47.112713  1.427636  9.993522
14405  1 47.112716  1.427633 12.848831
14421  1 47.112702  4.282927  1.427642
14422  1 47.112707  4.282922  4.282922
14423  1 47.112713  4.282913  7.138211
14424  1 47.112722  4.282907  9.993511
14425  1 47.112730  4.282899 12.848819
14441  1 47.112707  7.138219  1.427639
14442  1 47.112713  7.138211  4.282913
14443  1 47.112727  7.138199  7.138199
14444  1 47.112742  7.138182  9.993491
14445  1 47.112753  7.138171 12.848799
14461  1 47.112713  9.993522  1.427636
14462  1 47.112722  9.993511  4.282907
14463  1 47.112742  9.993491  7.138182
14464  1 47.112765  9.993468  9.993468
14465  1 47.112784  9.993448 12.848771
14481  1 47.112716 12.848831  1.427633
14482  1 47.112730 12.848819  4.282899
14483  1 47.112753 12.848799  7.138171
14484  1 47.112784 12.848771  9.993448
14485  1 47.112816 12.848742 12.848742
14801  1 49.968002  1.427642  1.427642
14802  1 49.968005  1.427642  4.282930
14803  1 49.968010  1.427639  7.138225
14804  1 49.968013  1.427639  9.993525
14805  1 49.968016  1.427636 12.848837
14821  1 49.968005  4.282930  1.427642
14822  1 49.968008  4.282927  4.282927
14823  1 49.968016  4.282922  7.138219
14824  1 49.968022  4.282913  9.993519
14825  1 49.968028  4.282910 12.848828
14841  1 49.968010  7.138225  1.427639
14842  1 49.968016  7.138219  4.282922
14843  1 49.968025  7.138208  7.138208
14844  1 49.968036  7.138199  9.993505
14845  1 49.968045  7.138188 12.848814
14861  1 49.968013  9.993525  1.427639
14862  1 49.968022  9.993519  4.282913
14863  1 49.968036  9.993505  7.138199
14864  1 49.968050  9.993491  9.993491
14865  1 49.968065  9.993479 12.848799
14881  1 49.968016 12.848837  1.427636
14882  1 49.968028 12.848828  4.282910
14883  1 49.968045 12.848814  7.138188
14884  1 49.968065 12.848799  9.993479
14885  1 49.968079 12.848782 12.848782
15201  1 52.823299  1.427644  1.427644
15202  1 52.823299  1.427642  4.282933
15203  1 52.823302  1.427642  7.138228
15204  1 52.823305  1.427642  9.993531
15205  1 52.823308  1.427639 12.848842
15221  1 52.823299  4.282933  1.427642
15222  1 52.823302  4.282930  4.282930
15223  1 52.823305  4.282927  7.138225
15224  1 52.823311  4.282922  9.993525
15225  1 52.823314  4.282919 12.848837
15241  1 52.823302  7.138228  1.427642
15242  1 52.823305  7.138225  4.282927
15243  1 52.823311  7.138219  7.138219
15244  1 52.823319  7.138211  9.993519
15245  1 52.823325  7.138205 12.848828
15261  1 52.823305  9.993531  1.427642
15262  1 52.823311  9.993525  4.282922
15263  1 52.823319  9.993519  7.138211
15264  1 52.823328  9.993511  9.993511
15265  1 52.823333  9.993505 12.848819
15281  1 52.823308 12.848842  1.427639
15282  1 52.823314 12.848837  4.282919
15283  1 52.823325 12.848828  7.138205
15284  1 52.823333 12.848819  9.993505
15285  1 52.823342 12.848814 12.848814
15601  1 55.678588  1.427644  1.427644
15602  1 55.678588  1.427644  4.282936
15603  1 55.678591  1.427642  7.138231
15604  1 55.678591  1.427642  9.993534
15605  1 55.678591  1.427642 12.848845
15621  1 55.678588  4.282936  1.427644
15622  1 55.678591  4.282933  4.282933
15623  1 55.678591  4.282930  7.138228
15624  1 55.678594  4.282927  9.993531
15625  1 55.678594  4.282925 12.848842
15641  1 55.678591  7.138231  1.427642
15642  1 55.678591  7.138228  4.282930
15643  1 55.678594  7.138225  7.138225
15644  1 55.678597  7.138219  9.993525
15645  1 55.678597  7.138216 12.848837
15661  1 55.678591  9.993534  1.427642
15662  1 55.678594  9.993531  4.282927
15663  1 55.678597  9.993525  7.138219
15664  1 55.678597  9.993522  9.993522
15665  1 55.678599  9.993516 12.848831
15681  1 55.678591 12.848845  1.427642
15682  1 55.678594 12.848842  4.282925
15683  1 55.678597 12.848837  7.138216
15684  1 55.678599 12.848831  9.993516
15685  1 55.678602 12.848828 12.848828
5701   1 39.974420 14.276492  0.000000
5702   1 39.974428 14.276481  2.855260
5703   1 39.974451 14.276452  5.710515
5704   1 39.974494 14.276398  8.565758
5705   1 39.974557 14.276327 11.420998
6101   1 42.829743 14.276490  0.000000
6102   1 42.829751 14.276481  2.855260
6103   1 42.829777 14.276455  5.710515
6104   1 42.829823 14.276412  8.565766
6105   1 42.829880 14.276353 11.421021
6501   1 45.685060 14.276490  0.000000
6502   1 45.685069 14.276484  2.855263
6503   1 45.685092 14.276464  5.710523
6504   1 45.685129 14.276430  8.565786
6505   1 45.685172 14.276392 11.421061
6901   1 48.540366 14.276492  0.000000
6902   1 48.540375 14.276490  2.855269
6903   1 48.540392 14.276475  5.710538
6904   1 48.540417 14.276452  8.565815
6905   1 48.540446 14.276430 11.421104
7301   1 51.395663 14.276498  0.000000
7302   1 51.395669 14.276495  2.855275
7303   1 51.395681 14.276487  5.710552
7304   1 51.395695 14.276475  8.565841
7305   1 51.395709 14.276464 11.421141
7701   1 54.250952 14.276501  0.000000
7702   1 54.250952 14.276498  2.855280
7703   1 54.250958 14.276495  5.710566
7704   1 54.250966 14.276490  8.565861
7705   1 54.250972 14.276484 11.421164
5606   1 39.974420  0.000000 14.276492
5626   1 39.974428  2.855260 14.276481
5646   1 39.974451  5.710515 14.276452
5666   1 39.974494  8.565758 14.276398
5686   1 39.974557 11.420998 14.276327
7706   1 54.250972 14.276481 14.276481
6006   1 42.829743  0.000000 14.276490
6026   1 42.829751  2.855260 14.276481
6046   1 42.829777  5.710515 14.276455
6066   1 42.829823  8.565766 14.276412
7306   1 51.395718 14.276455 14.276455
6086   1 42.829880 11.421021 14.276353
6406   1 45.685060  0.000000 14.276490
6426   1 45.685069  2.855263 14.276484
6446   1 45.685092  5.710523 14.276464
6906   1 48.540466 14.276412 14.276412
6466   1 45.685129  8.565786 14.276430
6486   1 45.685172 11.421061 14.276392
6806   1 48.540366  0.000000 14.276492
6826   1 48.540375  2.855269 14.276490
6506   1 45.685211 14.276353 14.276353
6846   1 48.540392  5.710538 14.276475
6866   1 48.540417  8.565815 14.276452
6886   1 48.540446 11.421104 14.276430
7206   1 51.395663  0.000000 14.276498
6106   1 42.829940 14.276293 14.276293
7226   1 51.395669  2.855275 14.276495
7246   1 51.395681  5.710552 14.276487
7266   1 51.395695  8.565841 14.276475
7286   1 51.395709 11.421141 14.276464
5706   1 39.974631 14.276247 14.276247
7606   1 54.250952  0.000000 14.276501
7626   1 54.250952  2.855280 14.276498
7646   1 54.250958  5.710566 14.276495
7666   1 54.250966  8.565861 14.276490
7686   1 54.250972 11.421164 14.276484
7710   1 54.250966 14.276492 25.697790
5607   1 39.974417  0.000000 17.131815
5608   1 39.974411  0.000000 19.987141
5609   1 39.974406  0.000000 22.842467
5610   1 39.974403  0.000000 25.697793
7709   1 54.250969 14.276490 22.842462
5627   1 39.974425  2.855263 17.131807
5628   1 39.974423  2.855269 19.987136
5629   1 39.974417  2.855272 22.842464
5630   1 39.974411  2.855277 25.697790
7708   1 54.250969 14.276487 19.987133
5647   1 39.974454  5.710518 17.131778
5648   1 39.974451  5.710526 19.987113
5649   1 39.974445  5.710535 22.842447
5650   1 39.974443  5.710543 25.697782
7707   1 54.250972 14.276481 17.131804
5667   1 39.974505  8.565755 17.131727
5668   1 39.974508  8.565764 19.987070
5669   1 39.974503  8.565775 22.842419
5670   1 39.974497  8.565786 25.697767
7310   1 51.395706 14.276461 25.697782
5687   1 39.974588 11.420972 17.131644
5688   1 39.974603 11.420970 19.986996
5689   1 39.974600 11.420984 22.842367
5690   1 39.974594 11.420998 25.697742
7309   1 51.395712 14.276455 22.842447
6007   1 42.829740  0.000000 17.131813
6008   1 42.829737  0.000000 19.987139
6009   1 42.829731  0.000000 22.842464
6010   1 42.829729  0.000000 25.697790
7308   1 51.395715 14.276452 19.987113
6027   1 42.829751  2.855260 17.131804
6028   1 42.829749  2.855263 19.987133
6029   1 42.829743  2.855266 22.842462
6030   1 42.829740  2.855266 25.697790
7307   1 51.395718 14.276452 17.131781
6047   1 42.829780  5.710515 17.131781
6048   1 42.829780  5.710518 19.987113
6049   1 42.829777  5.710520 22.842447
6050   1 42.829774  5.710526 25.697782
6910   1 48.540463 14.276401 25.697770
6067   1 42.829834  8.565758 17.131738
6068   1 42.829837  8.565761 19.987079
6069   1 42.829834  8.565764 22.842424
6070   1 42.829831  8.565769 25.697770
6909   1 48.540469 14.276398 22.842424
6087   1 42.829906 11.420998 17.131676
6088   1 42.829917 11.420990 19.987024
6089   1 42.829917 11.420992 22.842387
6090   1 42.829914 11.420998 25.697753
6908   1 48.540475 14.276395 19.987079
6407   1 45.685060  0.000000 17.131813
6408   1 45.685057  0.000000 19.987139
6409   1 45.685054  0.000000 22.842464
6410   1 45.685052  0.000000 25.697790
6907   1 48.540475 14.276398 17.131738
6427   1 45.685069  2.855260 17.131807
6428   1 45.685066  2.855260 19.987133
6429   1 45.685063  2.855263 22.842462
6430   1 45.685063  2.855263 25.697787
6510   1 45.685234 14.276321 25.697753
6447   1 45.685097  5.710520 17.131787
6448   1 45.685097  5.710520 19.987119
6449   1 45.685094  5.710520 22.842450
6450   1 45.685092  5.710523 25.697785
6509   1 45.685240 14.276315 22.842387
6467   1 45.685140  8.565778 17.131756
6468   1 45.685143  8.565775 19.987093
6469   1 45.685143  8.565778 22.842433
6470   1 45.685140  8.565778 25.697776
6508   1 45.685243 14.276315 19.987024
6487   1 45.685189 11.421044 17.131718
6488   1 45.685197 11.421035 19.987061
6489   1 45.685197 11.421038 22.842410
6490   1 45.685194 11.421038 25.697765
6507   1 45.685234 14.276327 17.131676
6807   1 48.540366  0.000000 17.131815
6808   1 48.540366  0.000000 19.987139
6809   1 48.540366  0.000000 22.842464
6810   1 48.540363  0.000000 25.697790
6110   1 42.830003 14.276230 25.697727
6827   1 48.540375  2.855266 17.131810
6828   1 48.540375  2.855266 19.987136
6829   1 48.540375  2.855266 22.842462
6830   1 48.540372  2.855266 25.697790
6109   1 42.830008 14.276224 22.842339
6847   1 48.540395  5.710535 17.131798
6848   1 48.540397  5.710532 19.987124
6849   1 48.540397  5.710532 22.842456
6850   1 48.540395  5.710532 25.697785
6108   1 42.830008 14.276227 19.986959
6867   1 48.540426  8.565806 17.131778
6868   1 48.540429  8.565806 19.987110
6869   1 48.540429  8.565806 22.842444
6870   1 48.540426  8.565806 25.697782
6107   1 42.829986 14.276247 17.131604
6887   1 48.540455 11.421095 17.131756
6888   1 48.540457 11.421089 19.987093
6889   1 48.540457 11.421092 22.842433
6890   1 48.540455 11.421092 25.697776
5710   1 39.974734 14.276170 25.697702
7207   1 51.395663  0.000000 17.131818
7208   1 51.395663  0.000000 19.987141
7209   1 51.395663  0.000000 22.842464
7210   1 51.395663  0.000000 25.697790
5709   1 39.974742 14.276156 22.842287
7227   1 51.395669  2.855272 17.131815
7228   1 51.395669  2.855272 19.987139
7229   1 51.395669  2.855272 22.842464
7230   1 51.395669  2.855272 25.697790
5708   1 39.974737 14.276150 19.986887
7247   1 51.395683  5.710549 17.131807
7248   1 51.395683  5.710549 19.987133
7249   1 51.395683  5.710549 22.842462
7250   1 51.395683  5.710549 25.697787
5707   1 39.974697 14.276178 17.131536
7267   1 51.395701  8.565838 17.131798
7268   1 51.395701  8.565835 19.987124
7269   1 51.395701  8.565835 22.842456
7270   1 51.395701  8.565838 25.697785
15690  1 55.678599 12.848839 27.125455
7287   1 51.395712 11.421138 17.131787
7288   1 51.395712 11.421138 19.987119
7289   1 51.395712 11.421138 22.842450
7290   1 51.395709 11.421141 25.697785
15689  1 55.678599 12.848837 24.270126
7607   1 54.250952  0.000000 17.131818
7608   1 54.250952  0.000000 19.987141
7609   1 54.250952  0.000000 22.842467
7610   1 54.250952  0.000000 25.697790
15688  1 55.678602 12.848834 21.414800
7627   1 54.250955  2.855280 17.131818
7628   1 54.250955  2.855277 19.987141
7629   1 54.250955  2.855277 22.842464
7630   1 54.250955  2.855277 25.697790
15687  1 55.678602 12.848831 18.559474
7647   1 54.250961  5.710563 17.131815
7648   1 54.250961  5.710563 19.987139
7649   1 54.250961  5.710563 22.842464
7650   1 54.250961  5.710563 25.697790
15686  1 55.678602 12.848828 15.704148
7667   1 54.250966  8.565858 17.131810
7668   1 54.250966  8.565858 19.987136
7669   1 54.250966  8.565861 22.842462
7670   1 54.250966  8.565861 25.697790
15670  1 55.678599  9.993522 27.125452
7687   1 54.250972 11.421164 17.131807
7688   1 54.250972 11.421167 19.987133
7689   1 54.250969 11.421169 22.842462
7690   1 54.250969 11.421172 25.697787
13206  1 38.546758  1.427633 15.704154
13207  1 38.546753  1.427636 18.559480
13208  1 38.546747  1.427639 21.414806
13209  1 38.546744  1.427642 24.270132
13210  1 38.546741  1.427642 27.125455
13226  1 38.546773  4.282890 15.704134
13227  1 38.546770  4.282899 18.559463
13228  1 38.546767  4.282907 21.414794
13229  1 38.546761  4.282916 24.270123
13230  1 38.546755  4.282922 27.125452
13246  1 38.546807  7.138139 15.704088
13247  1 38.546810  7.138148 18.559423
13248  1 38.546804  7.138162 21.414766
13249  1 38.546798  7.138179 24.270106
13250  1 38.546793  7.138188 27.125446
13266  1 38.546864  9.993368 15.704020
13267  1 38.546875  9.993371 18.559357
13268  1 38.546875  9.993388 21.414714
13269  1 38.546867  9.993408 24.270075
13270  1 38.546861  9.993422 27.125438
13286  1 38.546947 12.848582 15.703920
13287  1 38.546984 12.848557 18.559249
13288  1 38.546998 12.848565 21.414623
13289  1 38.546990 12.848588 24.270020
13290  1 38.546981 12.848605 27.125418
13606  1 41.402084  1.427630 15.704151
13607  1 41.402078  1.427633 18.559474
13608  1 41.402076  1.427633 21.414803
13609  1 41.402070  1.427636 24.270129
13610  1 41.402067  1.427636 27.125455
13626  1 41.402101  4.282887 15.704131
13627  1 41.402101  4.282890 18.559460
13628  1 41.402096  4.282896 21.414791
13629  1 41.402090  4.282902 24.270123
13630  1 41.402087  4.282905 27.125452
13646  1 41.402141  7.138136 15.704091
13647  1 41.402144  7.138139 18.559426
13648  1 41.402141  7.138145 21.414766
13649  1 41.402136  7.138153 24.270106
13650  1 41.402133  7.138159 27.125446
13666  1 41.402201  9.993374 15.704031
13667  1 41.402213  9.993368 18.559368
13668  1 41.402216  9.993374 21.414723
13669  1 41.402210  9.993382 24.270080
13670  1 41.402207  9.993388 27.125438
13686  1 41.402278 12.848611 15.703954
13687  1 41.402313 12.848582 18.559286
13688  1 41.402321 12.848580 21.414657
13689  1 41.402318 12.848588 24.270040
13690  1 41.402313 12.848597 27.125423
14006  1 44.257404  1.427630 15.704148
14007  1 44.257401  1.427630 18.559474
14008  1 44.257399  1.427630 21.414800
14009  1 44.257396  1.427633 24.270126
14010  1 44.257393  1.427633 27.125455
14026  1 44.257421  4.282887 15.704134
14027  1 44.257421  4.282890 18.559460
14028  1 44.257419  4.282890 21.414791
14029  1 44.257416  4.282893 24.270120
14030  1 44.257416  4.282896 27.125452
14046  1 44.257459  7.138145 15.704103
14047  1 44.257464  7.138142 18.559434
14048  1 44.257464  7.138142 21.414771
14049  1 44.257461  7.138148 24.270109
14050  1 44.257459  7.138148 27.125446
14066  1 44.257513  9.993397 15.704057
14067  1 44.257524  9.993388 18.559391
14068  1 44.257524  9.993388 21.414740
14069  1 44.257524  9.993391 24.270089
14070  1 44.257521  9.993394 27.125440
14086  1 44.257573 12.848662 15.704003
14087  1 44.257590 12.848642 18.559340
14088  1 44.257596 12.848637 21.414700
14089  1 44.257593 12.848640 24.270066
14090  1 44.257590 12.848642 27.125432
14406  1 47.112716  1.427633 15.704151
14407  1 47.112716  1.427630 18.559474
14408  1 47.112713  1.427633 21.414800
14409  1 47.112713  1.427633 24.270126
14410  1 47.112710  1.427633 27.125452
14426  1 47.112733  4.282896 15.704140
14427  1 47.112733  4.282893 18.559466
14428  1 47.112733  4.282893 21.414794
14429  1 47.112730  4.282896 24.270123
14430  1 47.112730  4.282896 27.125452
14446  1 47.112762  7.138162 15.704117
14447  1 47.112767  7.138156 18.559446
14448  1 47.112767  7.138156 21.414780
14449  1 47.112765  7.138156 24.270115
14450  1 47.112765  7.138159 27.125449
14466  1 47.112799  9.993434 15.704088
14467  1 47.112807  9.993425 18.559420
14468  1 47.112807  9.993425 21.414760
14469  1 47.112807  9.993425 24.270103
14470  1 47.112807  9.993425 27.125446
14486  1 47.112836 12.848720 15.704057
14487  1 47.112844 12.848711 18.559391
14488  1 47.112844 12.848708 21.414740
14489  1 47.112842 12.848711 24.270089
14490  1 47.112839 12.848711 27.125440
14806  1 49.968019  1.427636 15.704154
14807  1 49.968019  1.427633 18.559477
14808  1 49.968019  1.427633 21.414800
14809  1 49.968019  1.427633 24.270126
14810  1 49.968016  1.427633 27.125455
14826  1 49.968030  4.282905 15.704145
14827  1 49.968030  4.282905 18.559471
14828  1 49.968030  4.282905 21.414797
14829  1 49.968030  4.282905 24.270126
14830  1 49.968030  4.282905 27.125452
14846  1 49.968050  7.138182 15.704134
14847  1 49.968053  7.138179 18.559460
14848  1 49.968053  7.138179 21.414789
14849  1 49.968053  7.138179 24.270120
14850  1 49.968053  7.138179 27.125452
14866  1 49.968073  9.993471 15.704117
14867  1 49.968076  9.993468 18.559446
14868  1 49.968076  9.993465 21.414780
14869  1 49.968076  9.993468 24.270115
14870  1 49.968076  9.993468 27.125449
14886  1 49.968090 12.848774 15.704103
14887  1 49.968090 12.848768 18.559434
14888  1 49.968090 12.848771 21.414771
14889  1 49.968088 12.848774 24.270109
14890  1 49.968085 12.848774 27.125446
15206  1 52.823311  1.427639 15.704157
15207  1 52.823311  1.427639 18.559480
15208  1 52.823311  1.427639 21.414803
15209  1 52.823311  1.427639 24.270129
15210  1 52.823311  1.427639 27.125455
15226  1 52.823316  4.282916 15.704154
15227  1 52.823316  4.282916 18.559477
15228  1 52.823316  4.282916 21.414800
15229  1 52.823316  4.282916 24.270126
15230  1 52.823316  4.282916 27.125452
15246  1 52.823328  7.138202 15.704145
15247  1 52.823328  7.138202 18.559471
15248  1 52.823328  7.138202 21.414797
15249  1 52.823328  7.138202 24.270126
15250  1 52.823328  7.138202 27.125452
15266  1 52.823336  9.993499 15.704140
15267  1 52.823339  9.993499 18.559466
15268  1 52.823339  9.993499 21.414794
15269  1 52.823339  9.993502 24.270123
15270  1 52.823336  9.993502 27.125452
15286  1 52.823345 12.848811 15.704134
15287  1 52.823345 12.848811 18.559460
15288  1 52.823342 12.848814 21.414791
15289  1 52.823339 12.848817 24.270120
15290  1 52.823339 12.848817 27.125452
15606  1 55.678594  1.427642 15.704160
15607  1 55.678594  1.427639 18.559480
15608  1 55.678594  1.427639 21.414803
15609  1 55.678594  1.427639 24.270129
15610  1 55.678594  1.427639 27.125455
15626  1 55.678594  4.282922 15.704157
15627  1 55.678597  4.282922 18.559480
15628  1 55.678597  4.282922 21.414803
15629  1 55.678597  4.282922 24.270129
15630  1 55.678597  4.282922 27.125455
15646  1 55.678597  7.138213 15.704154
15647  1 55.678599  7.138213 18.559477
15648  1 55.678599  7.138213 21.414800
15649  1 55.678599  7.138216 24.270126
15650  1 55.678599  7.138216 27.125455
15666  1 55.678602  9.993516 15.704151
15667  1 55.678602  9.993516 18.559474
15668  1 55.678602  9.993519 21.414800
15669  1 55.678602  9.993519 24.270126
5611   1 39.974403  0.000000 28.553116
5612   1 39.974403  0.000000 31.408439
5613   1 39.974406  0.000000 34.263765
5614   1 39.974411  0.000000 37.119091
5615   1 39.974417  0.000000 39.974417
5631   1 39.974411  2.855277 28.553116
5632   1 39.974411  2.855277 31.408442
5633   1 39.974417  2.855272 34.263768
5634   1 39.974423  2.855269 37.119097
5635   1 39.974425  2.855263 39.974425
5651   1 39.974440  5.710546 28.553116
5652   1 39.974443  5.710543 31.408451
5653   1 39.974445  5.710535 34.263785
5654   1 39.974451  5.710526 37.119120
5655   1 39.974454  5.710518 39.974454
5671   1 39.974494  8.565792 28.553116
5672   1 39.974497  8.565786 31.408465
5673   1 39.974503  8.565775 34.263814
5674   1 39.974508  8.565764 37.119162
5675   1 39.974505  8.565755 39.974505
5691   1 39.974588 11.421004 28.553116
5692   1 39.974594 11.420998 31.408491
5693   1 39.974600 11.420984 34.263865
5694   1 39.974603 11.420970 37.119237
5695   1 39.974588 11.420972 39.974588
6011   1 42.829729  0.000000 28.553116
6012   1 42.829729  0.000000 31.408442
6013   1 42.829731  0.000000 34.263768
6014   1 42.829737  0.000000 37.119094
6015   1 42.829740  0.000000 39.974420
6031   1 42.829740  2.855269 28.553116
6032   1 42.829740  2.855266 31.408445
6033   1 42.829743  2.855266 34.263771
6034   1 42.829749  2.855263 37.119100
6035   1 42.829751  2.855260 39.974428
6051   1 42.829771  5.710526 28.553116
6052   1 42.829774  5.710526 31.408451
6053   1 42.829777  5.710520 34.263785
6054   1 42.829780  5.710518 37.119120
6055   1 42.829780  5.710515 39.974451
6071   1 42.829828  8.565772 28.553116
6072   1 42.829831  8.565769 31.408462
6073   1 42.829834  8.565764 34.263808
6074   1 42.829837  8.565761 37.119154
6075   1 42.829834  8.565758 39.974494
6091   1 42.829911 11.421001 28.553116
6092   1 42.829914 11.420998 31.408482
6093   1 42.829917 11.420992 34.263845
6094   1 42.829917 11.420990 37.119208
6095   1 42.829906 11.420998 39.974557
6411   1 45.685052  0.000000 28.553116
6412   1 45.685052  0.000000 31.408442
6413   1 45.685054  0.000000 34.263768
6414   1 45.685057  0.000000 37.119094
6415   1 45.685060  0.000000 39.974420
6431   1 45.685060  2.855263 28.553116
6432   1 45.685063  2.855263 31.408445
6433   1 45.685063  2.855263 34.263771
6434   1 45.685066  2.855260 37.119100
6435   1 45.685069  2.855260 39.974425
6451   1 45.685092  5.710523 28.553116
6452   1 45.685092  5.710523 31.408448
6453   1 45.685094  5.710520 34.263782
6454   1 45.685097  5.710520 37.119114
6455   1 45.685097  5.710520 39.974445
6471   1 45.685140  8.565778 28.553116
6472   1 45.685140  8.565778 31.408456
6473   1 45.685143  8.565778 34.263799
6474   1 45.685143  8.565775 37.119140
6475   1 45.685140  8.565778 39.974477
6491   1 45.685194 11.421041 28.553116
6492   1 45.685194 11.421038 31.408468
6493   1 45.685197 11.421038 34.263822
6494   1 45.685197 11.421035 37.119174
6495   1 45.685189 11.421044 39.974517
6811   1 48.540363  0.000000 28.553116
6812   1 48.540363  0.000000 31.408442
6813   1 48.540366  0.000000 34.263768
6814   1 48.540366  0.000000 37.119094
6815   1 48.540366  0.000000 39.974420
6831   1 48.540372  2.855266 28.553116
6832   1 48.540372  2.855266 31.408445
6833   1 48.540375  2.855266 34.263771
6834   1 48.540375  2.855266 37.119097
6835   1 48.540375  2.855266 39.974423
6851   1 48.540395  5.710532 28.553116
6852   1 48.540395  5.710532 31.408448
6853   1 48.540397  5.710532 34.263777
6854   1 48.540397  5.710532 37.119108
6855   1 48.540395  5.710535 39.974437
6871   1 48.540426  8.565806 28.553116
6872   1 48.540426  8.565806 31.408451
6873   1 48.540429  8.565806 34.263788
6874   1 48.540429  8.565806 37.119122
6875   1 48.540426  8.565806 39.974454
6891   1 48.540455 11.421092 28.553116
6892   1 48.540455 11.421092 31.408456
6893   1 48.540457 11.421092 34.263799
6894   1 48.540457 11.421089 37.119140
6895   1 48.540455 11.421095 39.974477
7211   1 51.395663  0.000000 28.553116
7212   1 51.395663  0.000000 31.408442
7213   1 51.395663  0.000000 34.263768
7214   1 51.395663  0.000000 37.119094
7215   1 51.395663  0.000000 39.974417
7231   1 51.395669  2.855272 28.553116
7232   1 51.395669  2.855272 31.408442
7233   1 51.395669  2.855272 34.263768
7234   1 51.395669  2.855272 37.119094
7235   1 51.395669  2.855272 39.974417
7251   1 51.395683  5.710549 28.553116
7252   1 51.395683  5.710549 31.408445
7253   1 51.395683  5.710549 34.263774
7254   1 51.395683  5.710549 37.119100
7255   1 51.395683  5.710549 39.974425
7271   1 51.395701  8.565838 28.553116
7272   1 51.395701  8.565838 31.408448
7273   1 51.395701  8.565835 34.263777
7274   1 51.395701  8.565835 37.119108
7275   1 51.395701  8.565838 39.974437
7291   1 51.395709 11.421141 28.553116
7292   1 51.395709 11.421141 31.408448
7293   1 51.395712 11.421138 34.263782
7294   1 51.395712 11.421138 37.119114
7295   1 51.395712 11.421138 39.974445
7611   1 54.250952  0.000000 28.553116
7612   1 54.250952  0.000000 31.408442
7613   1 54.250952  0.000000 34.263768
7614   1 54.250952  0.000000 37.119091
7615   1 54.250952  0.000000 39.974414
7631   1 54.250955  2.855277 28.553116
7632   1 54.250955  2.855277 31.408442
7633   1 54.250955  2.855277 34.263768
7634   1 54.250955  2.855277 37.119091
7635   1 54.250955  2.855280 39.974414
7651   1 54.250961  5.710563 28.553116
7652   1 54.250961  5.710563 31.408442
7653   1 54.250961  5.710563 34.263768
7654   1 54.250961  5.710563 37.119094
7655   1 54.250961  5.710563 39.974417
7671   1 54.250966  8.565861 28.553116
7672   1 54.250966  8.565861 31.408445
7673   1 54.250966  8.565861 34.263771
7674   1 54.250966  8.565858 37.119097
7675   1 54.250966  8.565858 39.974423
7691   1 54.250969 11.421172 28.553116
7692   1 54.250969 11.421172 31.408445
7693   1 54.250969 11.421169 34.263771
7694   1 54.250972 11.421167 37.119100
7695   1 54.250972 11.421164 39.974425
13211  1 38.546741  1.427642 29.980778
13212  1 38.546744  1.427642 32.836101
13213  1 38.546747  1.427639 35.691427
13214  1 38.546753  1.427636 38.546753
13215  1 38.546758  1.427633 41.402078
13231  1 38.546755  4.282922 29.980781
13232  1 38.546761  4.282916 32.836109
13233  1 38.546767  4.282907 35.691438
13234  1 38.546770  4.282899 38.546770
13235  1 38.546773  4.282890 41.402101
13251  1 38.546793  7.138188 29.980786
13252  1 38.546798  7.138179 32.836126
13253  1 38.546804  7.138162 35.691467
13254  1 38.546810  7.138148 38.546810
13255  1 38.546807  7.138139 41.402144
13271  1 38.546861  9.993422 29.980795
13272  1 38.546867  9.993408 32.836158
13273  1 38.546875  9.993388 35.691521
13274  1 38.546875  9.993371 38.546875
13275  1 38.546864  9.993368 41.402213
13291  1 38.546981 12.848605 29.980815
13292  1 38.546990 12.848588 32.836212
13293  1 38.546998 12.848565 35.691609
13294  1 38.546984 12.848557 38.546984
13295  1 38.546947 12.848582 41.402313
13611  1 41.402067  1.427636 29.980778
13612  1 41.402070  1.427636 32.836104
13613  1 41.402076  1.427633 35.691430
13614  1 41.402078  1.427633 38.546758
13615  1 41.402084  1.427630 41.402084
13631  1 41.402087  4.282905 29.980781
13632  1 41.402090  4.282902 32.836112
13633  1 41.402096  4.282896 35.691441
13634  1 41.402101  4.282890 38.546773
13635  1 41.402101  4.282887 41.402101
13651  1 41.402133  7.138159 29.980786
13652  1 41.402136  7.138153 32.836126
13653  1 41.402141  7.138145 35.691467
13654  1 41.402144  7.138139 38.546807
13655  1 41.402141  7.138136 41.402141
13671  1 41.402207  9.993388 29.980795
13672  1 41.402210  9.993382 32.836152
13673  1 41.402216  9.993374 35.691512
13674  1 41.402213  9.993368 38.546864
13675  1 41.402201  9.993374 41.402201
13691  1 41.402313 12.848597 29.980809
13692  1 41.402318 12.848588 32.836192
13693  1 41.402321 12.848580 35.691578
13694  1 41.402313 12.848582 38.546947
13695  1 41.402278 12.848611 41.402278
14011  1 44.257393  1.427633 29.980781
14012  1 44.257396  1.427633 32.836106
14013  1 44.257399  1.427630 35.691432
14014  1 44.257401  1.427630 38.546758
14015  1 44.257404  1.427630 41.402084
14031  1 44.257416  4.282896 29.980781
14032  1 44.257416  4.282893 32.836112
14033  1 44.257419  4.282890 35.691441
14034  1 44.257421  4.282890 38.546773
14035  1 44.257421  4.282887 41.402098
14051  1 44.257459  7.138148 29.980786
14052  1 44.257461  7.138148 32.836124
14053  1 44.257464  7.138142 35.691464
14054  1 44.257464  7.138142 38.546798
14055  1 44.257459  7.138145 41.402130
14071  1 44.257521  9.993394 29.980792
14072  1 44.257524  9.993391 32.836144
14073  1 44.257524  9.993388 35.691492
14074  1 44.257524  9.993388 38.546841
14075  1 44.257513  9.993397 41.402176
14091  1 44.257590 12.848642 29.980801
14092  1 44.257593 12.848640 32.836166
14093  1 44.257596 12.848637 35.691535
14094  1 44.257590 12.848642 38.546892
14095  1 44.257573 12.848662 41.402230
14411  1 47.112710  1.427633 29.980781
14412  1 47.112713  1.427633 32.836106
14413  1 47.112713  1.427633 35.691432
14414  1 47.112716  1.427630 38.546758
14415  1 47.112716  1.427633 41.402081
14431  1 47.112730  4.282896 29.980781
14432  1 47.112730  4.282896 32.836109
14433  1 47.112733  4.282893 35.691441
14434  1 47.112733  4.282893 38.546770
14435  1 47.112733  4.282896 41.402093
14451  1 47.112765  7.138159 29.980783
14452  1 47.112765  7.138156 32.836118
14453  1 47.112767  7.138156 35.691452
14454  1 47.112767  7.138156 38.546787
14455  1 47.112762  7.138162 41.402116
14471  1 47.112807  9.993425 29.980786
14472  1 47.112807  9.993425 32.836129
14473  1 47.112807  9.993425 35.691472
14474  1 47.112807  9.993425 38.546813
14475  1 47.112799  9.993434 41.402144
14491  1 47.112839 12.848711 29.980792
14492  1 47.112842 12.848711 32.836144
14493  1 47.112844 12.848708 35.691492
14494  1 47.112844 12.848711 38.546841
14495  1 47.112836 12.848720 41.402176
14811  1 49.968016  1.427633 29.980781
14812  1 49.968019  1.427633 32.836106
14813  1 49.968019  1.427633 35.691432
14814  1 49.968019  1.427633 38.546755
14815  1 49.968019  1.427636 41.402078
14831  1 49.968030  4.282905 29.980781
14832  1 49.968030  4.282905 32.836109
14833  1 49.968030  4.282905 35.691435
14834  1 49.968030  4.282905 38.546761
14835  1 49.968030  4.282905 41.402087
14851  1 49.968053  7.138179 29.980781
14852  1 49.968053  7.138179 32.836112
14853  1 49.968053  7.138179 35.691444
14854  1 49.968053  7.138179 38.546773
14855  1 49.968050  7.138182 41.402098
14871  1 49.968076  9.993468 29.980783
14872  1 49.968076  9.993468 32.836118
14873  1 49.968076  9.993465 35.691452
14874  1 49.968076  9.993468 38.546787
14875  1 49.968073  9.993471 41.402116
14891  1 49.968085 12.848774 29.980786
14892  1 49.968088 12.848774 32.836124
14893  1 49.968090 12.848771 35.691464
14894  1 49.968090 12.848768 38.546798
14895  1 49.968090 12.848774 41.402130
15211  1 52.823311  1.427639 29.980781
15212  1 52.823311  1.427639 32.836104
15213  1 52.823311  1.427639 35.691430
15214  1 52.823311  1.427639 38.546753
15215  1 52.823311  1.427639 41.402076
15231  1 52.823316  4.282916 29.980781
15232  1 52.823316  4.282916 32.836106
15233  1 52.823316  4.282916 35.691432
15234  1 52.823316  4.282916 38.546758
15235  1 52.823316  4.282916 41.402078
15251  1 52.823328  7.138202 29.980781
15252  1 52.823328  7.138202 32.836109
15253  1 52.823328  7.138202 35.691435
15254  1 52.823328  7.138202 38.546761
15255  1 52.823328  7.138202 41.402087
15271  1 52.823336  9.993502 29.980781
15272  1 52.823339  9.993502 32.836109
15273  1 52.823339  9.993499 35.691441
15274  1 52.823339  9.993499 38.546770
15275  1 52.823336  9.993499 41.402093
15291  1 52.823339 12.848817 29.980781
15292  1 52.823339 12.848817 32.836112
15293  1 52.823342 12.848814 35.691441
15294  1 52.823345 12.848811 38.546773
15295  1 52.823345 12.848811 41.402098
15611  1 55.678594  1.427639 29.980778
15612  1 55.678594  1.427639 32.836104
15613  1 55.678594  1.427639 35.691430
15614  1 55.678594  1.427639 38.546753
15615  1 55.678594  1.427642 41.402073
15631  1 55.678597  4.282922 29.980781
15632  1 55.678597  4.282922 32.836104
15633  1 55.678597  4.282922 35.691430
15634  1 55.678597  4.282922 38.546753
15635  1 55.678594  4.282922 41.402076
15651  1 55.678599  7.138216 29.980781
15652  1 55.678599  7.138216 32.836106
15653  1 55.678599  7.138213 35.691432
15654  1 55.678599  7.138213 38.546755
15655  1 55.678597  7.138213 41.402078
15671  1 55.678599  9.993522 29.980781
15672  1 55.678602  9.993519 32.836106
15673  1 55.678602  9.993519 35.691432
15674  1 55.678602  9.993516 38.546758
15675  1 55.678602  9.993516 41.402081
15691  1 55.678599 12.848839 29.980781
15692  1 55.678599 12.848837 32.836106
15693  1 55.678602 12.848834 35.691432
15694  1 55.678602 12.848831 38.546758
15695  1 55.678602 12.848828 41.402084
5711   1 39.974728 14.276175 28.553116
5712   1 39.974734 14.276170 31.408531
5713   1 39.974742 14.276156 34.263945
5714   1 39.974737 14.276150 37.119345
5715   1 39.974697 14.276178 39.974697
6111   1 42.830000 14.276233 28.553116
6112   1 42.830003 14.276230 31.408505
6113   1 42.830008 14.276224 34.263894
6114   1 42.830008 14.276227 37.119277
6115   1 42.829986 14.276247 39.974631
6511   1 45.685231 14.276321 28.553116
6512   1 45.685234 14.276321 31.408482
6513   1 45.685240 14.276315 34.263845
6514   1 45.685243 14.276315 37.119208
6515   1 45.685234 14.276327 39.974557
6911   1 48.540460 14.276404 28.553116
6912   1 48.540463 14.276401 31.408462
6913   1 48.540469 14.276398 34.263808
6914   1 48.540475 14.276395 37.119154
6915   1 48.540475 14.276398 39.974494
7311   1 51.395706 14.276461 28.553116
7312   1 51.395706 14.276461 31.408451
7313   1 51.395712 14.276455 34.263785
7314   1 51.395715 14.276452 37.119120
7315   1 51.395718 14.276452 39.974451
7711   1 54.250966 14.276495 28.553116
7712   1 54.250966 14.276492 31.408445
7713   1 54.250969 14.276490 34.263771
7714   1 54.250969 14.276487 37.119100
7715   1 54.250972 14.276481 39.974428
5616   1 39.974420  0.000000 42.829740
5617   1 39.974420  0.000000 45.685060
5618   1 39.974420  0.000000 48.540366
5619   1 39.974417  0.000000 51.395663
5620   1 39.974414  0.000000 54.250952
5636   1 39.974428  2.855260 42.829751
5637   1 39.974425  2.855260 45.685069
5638   1 39.974423  2.855266 48.540375
5639   1 39.974417  2.855272 51.395669
5640   1 39.974414  2.855280 54.250955
5656   1 39.974451  5.710515 42.829780
5657   1 39.974445  5.710520 45.685097
5658   1 39.974437  5.710535 48.540395
5659   1 39.974425  5.710549 51.395683
5660   1 39.974417  5.710563 54.250961
5676   1 39.974494  8.565758 42.829834
5677   1 39.974477  8.565778 45.685140
5678   1 39.974454  8.565806 48.540426
5679   1 39.974437  8.565838 51.395701
5680   1 39.974423  8.565858 54.250966
5696   1 39.974557 11.420998 42.829906
5697   1 39.974517 11.421044 45.685189
5698   1 39.974477 11.421095 48.540455
5699   1 39.974445 11.421138 51.395712
5700   1 39.974425 11.421164 54.250972
6016   1 42.829743  0.000000 42.829743
6017   1 42.829743  0.000000 45.685060
6018   1 42.829740  0.000000 48.540366
6019   1 42.829734  0.000000 51.395663
6020   1 42.829731  0.000000 54.250952
6036   1 42.829751  2.855260 42.829751
6037   1 42.829749  2.855263 45.685069
6038   1 42.829743  2.855269 48.540375
6039   1 42.829737  2.855275 51.395669
6040   1 42.829734  2.855280 54.250952
6056   1 42.829777  5.710515 42.829777
6057   1 42.829769  5.710523 45.685092
6058   1 42.829757  5.710538 48.540392
6059   1 42.829746  5.710552 51.395681
6060   1 42.829737  5.710566 54.250958
6076   1 42.829823  8.565766 42.829823
6077   1 42.829803  8.565786 45.685129
6078   1 42.829780  8.565815 48.540417
6079   1 42.829757  8.565841 51.395695
6080   1 42.829743  8.565861 54.250966
6096   1 42.829880 11.421021 42.829880
6097   1 42.829843 11.421061 45.685172
6098   1 42.829803 11.421104 48.540446
6099   1 42.829769 11.421141 51.395709
6100   1 42.829749 11.421164 54.250972
6416   1 45.685060  0.000000 42.829743
6417   1 45.685057  0.000000 45.685057
6418   1 45.685054  0.000000 48.540363
6419   1 45.685049  0.000000 51.395661
6420   1 45.685046  0.000000 54.250949
6436   1 45.685069  2.855263 42.829749
6437   1 45.685066  2.855266 45.685066
6438   1 45.685060  2.855272 48.540369
6439   1 45.685052  2.855277 51.395666
6440   1 45.685049  2.855280 54.250952
6456   1 45.685092  5.710523 42.829769
6457   1 45.685083  5.710532 45.685083
6458   1 45.685072  5.710543 48.540386
6459   1 45.685060  5.710558 51.395675
6460   1 45.685052  5.710569 54.250955
6476   1 45.685129  8.565786 42.829803
6477   1 45.685112  8.565804 45.685112
6478   1 45.685092  8.565826 48.540406
6479   1 45.685072  8.565846 51.395689
6480   1 45.685060  8.565863 54.250964
6496   1 45.685172 11.421061 42.829843
6497   1 45.685146 11.421089 45.685146
6498   1 45.685112 11.421121 48.540429
6499   1 45.685083 11.421149 51.395701
6500   1 45.685066 11.421169 54.250966
6816   1 48.540366  0.000000 42.829740
6817   1 48.540363  0.000000 45.685054
6818   1 48.540360  0.000000 48.540360
6819   1 48.540358  0.000000 51.395658
6820   1 48.540352  0.000000 54.250946
6836   1 48.540375  2.855269 42.829743
6837   1 48.540369  2.855272 45.685060
6838   1 48.540366  2.855275 48.540366
6839   1 48.540358  2.855280 51.395661
6840   1 48.540355  2.855283 54.250949
6856   1 48.540392  5.710538 42.829757
6857   1 48.540386  5.710543 45.685072
6858   1 48.540375  5.710555 48.540375
6859   1 48.540366  5.710563 51.395669
6860   1 48.540358  5.710572 54.250952
6876   1 48.540417  8.565815 42.829780
6877   1 48.540406  8.565826 45.685092
6878   1 48.540392  8.565841 48.540392
6879   1 48.540375  8.565858 51.395678
6880   1 48.540366  8.565869 54.250958
6896   1 48.540446 11.421104 42.829803
6897   1 48.540429 11.421121 45.685112
6898   1 48.540406 11.421141 48.540406
6899   1 48.540386 11.421161 51.395689
6900   1 48.540369 11.421175 54.250964
7216   1 51.395663  0.000000 42.829734
7217   1 51.395661  0.000000 45.685049
7218   1 51.395658  0.000000 48.540358
7219   1 51.395655  0.000000 51.395655
7220   1 51.395652  0.000000 54.250946
7236   1 51.395669  2.855275 42.829737
7237   1 51.395666  2.855277 45.685052
7238   1 51.395661  2.855280 48.540358
7239   1 51.395658  2.855283 51.395658
7240   1 51.395652  2.855286 54.250946
7256   1 51.395681  5.710552 42.829746
7257   1 51.395675  5.710558 45.685060
7258   1 51.395669  5.710563 48.540366
7259   1 51.395661  5.710572 51.395661
7260   1 51.395658  5.710578 54.250949
7276   1 51.395695  8.565841 42.829757
7277   1 51.395689  8.565846 45.685072
7278   1 51.395678  8.565858 48.540375
7279   1 51.395669  8.565866 51.395669
7280   1 51.395661  8.565875 54.250952
7296   1 51.395709 11.421141 42.829769
7297   1 51.395701 11.421149 45.685083
7298   1 51.395689 11.421161 48.540386
7299   1 51.395675 11.421172 51.395675
7300   1 51.395666 11.421181 54.250955
7616   1 54.250952  0.000000 42.829731
7617   1 54.250949  0.000000 45.685046
7618   1 54.250946  0.000000 48.540352
7619   1 54.250946  0.000000 51.395652
7620   1 54.250944  0.000000 54.250944
7636   1 54.250952  2.855280 42.829734
7637   1 54.250952  2.855280 45.685049
7638   1 54.250949  2.855283 48.540355
7639   1 54.250946  2.855286 51.395652
7640   1 54.250944  2.855289 54.250944
7656   1 54.250958  5.710566 42.829737
7657   1 54.250955  5.710569 45.685052
7658   1 54.250952  5.710572 48.540358
7659   1 54.250949  5.710578 51.395658
7660   1 54.250946  5.710580 54.250946
7676   1 54.250966  8.565861 42.829743
7677   1 54.250964  8.565863 45.685060
7678   1 54.250958  8.565869 48.540366
7679   1 54.250952  8.565875 51.395661
7680   1 54.250949  8.565878 54.250949
7696   1 54.250972 11.421164 42.829749
7697   1 54.250966 11.421169 45.685066
7698   1 54.250964 11.421175 48.540369
7699   1 54.250955 11.421181 51.395666
7700   1 54.250952 11.421187 54.250952
13216  1 38.546758  1.427630 44.257401
13217  1 38.546758  1.427630 47.112716
13218  1 38.546755  1.427633 49.968019
13219  1 38.546753  1.427639 52.823311
13220  1 38.546753  1.427639 55.678594
13236  1 38.546773  4.282890 44.257421
13237  1 38.546770  4.282893 47.112733
13238  1 38.546761  4.282905 49.968030
13239  1 38.546758  4.282916 52.823316
13240  1 38.546753  4.282922 55.678597
13256  1 38.546798  7.138142 44.257464
13257  1 38.546787  7.138156 47.112767
13258  1 38.546773  7.138179 49.968053
13259  1 38.546761  7.138202 52.823328
13260  1 38.546755  7.138213 55.678599
13276  1 38.546841  9.993388 44.257524
13277  1 38.546813  9.993425 47.112807
13278  1 38.546787  9.993468 49.968076
13279  1 38.546770  9.993499 52.823339
13280  1 38.546758  9.993516 55.678602
13296  1 38.546892 12.848642 44.257590
13297  1 38.546841 12.848711 47.112844
13298  1 38.546798 12.848768 49.968090
13299  1 38.546773 12.848811 52.823345
13300  1 38.546758 12.848831 55.678602
13616  1 41.402084  1.427630 44.257404
13617  1 41.402081  1.427633 47.112716
13618  1 41.402078  1.427636 49.968019
13619  1 41.402076  1.427639 52.823311
13620  1 41.402073  1.427642 55.678594
13636  1 41.402098  4.282887 44.257421
13637  1 41.402093  4.282896 47.112733
13638  1 41.402087  4.282905 49.968030
13639  1 41.402078  4.282916 52.823316
13640  1 41.402076  4.282922 55.678594
13656  1 41.402130  7.138145 44.257459
13657  1 41.402116  7.138162 47.112762
13658  1 41.402098  7.138182 49.968050
13659  1 41.402087  7.138202 52.823328
13660  1 41.402078  7.138213 55.678597
13676  1 41.402176  9.993397 44.257513
13677  1 41.402144  9.993434 47.112799
13678  1 41.402116  9.993471 49.968073
13679  1 41.402093  9.993499 52.823336
13680  1 41.402081  9.993516 55.678602
13696  1 41.402230 12.848662 44.257573
13697  1 41.402176 12.848720 47.112836
13698  1 41.402130 12.848774 49.968090
13699  1 41.402098 12.848811 52.823345
13700  1 41.402084 12.848828 55.678602
14016  1 44.257404  1.427630 44.257404
14017  1 44.257401  1.427633 47.112716
14018  1 44.257396  1.427636 49.968016
14019  1 44.257393  1.427639 52.823308
14020  1 44.257390  1.427642 55.678591
14036  1 44.257419  4.282893 44.257419
14037  1 44.257413  4.282899 47.112730
14038  1 44.257404  4.282910 49.968028
14039  1 44.257396  4.282919 52.823314
14040  1 44.257393  4.282925 55.678594
14056  1 44.257450  7.138153 44.257450
14057  1 44.257436  7.138171 47.112753
14058  1 44.257419  7.138188 49.968045
14059  1 44.257404  7.138205 52.823325
14060  1 44.257396  7.138216 55.678597
14076  1 44.257490  9.993419 44.257490
14077  1 44.257464  9.993448 47.112784
14078  1 44.257436  9.993479 49.968065
14079  1 44.257413  9.993505 52.823333
14080  1 44.257401  9.993516 55.678599
14096  1 44.257536 12.848697 44.257536
14097  1 44.257490 12.848742 47.112816
14098  1 44.257450 12.848782 49.968079
14099  1 44.257419 12.848814 52.823342
14100  1 44.257404 12.848828 55.678602
14416  1 47.112716  1.427633 44.257401
14417  1 47.112713  1.427636 47.112713
14418  1 47.112707  1.427639 49.968013
14419  1 47.112702  1.427642 52.823305
14420  1 47.112699  1.427642 55.678591
14436  1 47.112730  4.282899 44.257413
14437  1 47.112722  4.282907 47.112722
14438  1 47.112713  4.282913 49.968022
14439  1 47.112707  4.282922 52.823311
14440  1 47.112702  4.282927 55.678594
14456  1 47.112753  7.138171 44.257436
14457  1 47.112742  7.138182 47.112742
14458  1 47.112727  7.138199 49.968036
14459  1 47.112713  7.138211 52.823319
14460  1 47.112707  7.138219 55.678597
14476  1 47.112784  9.993448 44.257464
14477  1 47.112765  9.993468 47.112765
14478  1 47.112742  9.993491 49.968050
14479  1 47.112722  9.993511 52.823328
14480  1 47.112713  9.993522 55.678597
14496  1 47.112816 12.848742 44.257490
14497  1 47.112784 12.848771 47.112784
14498  1 47.112753 12.848799 49.968065
14499  1 47.112730 12.848819 52.823333
14500  1 47.112716 12.848831 55.678599
14816  1 49.968016  1.427636 44.257396
14817  1 49.968013  1.427639 47.112707
14818  1 49.968010  1.427639 49.968010
14819  1 49.968005  1.427642 52.823302
14820  1 49.968002  1.427642 55.678591
14836  1 49.968028  4.282910 44.257404
14837  1 49.968022  4.282913 47.112713
14838  1 49.968016  4.282922 49.968016
14839  1 49.968008  4.282927 52.823305
14840  1 49.968005  4.282930 55.678591
14856  1 49.968045  7.138188 44.257419
14857  1 49.968036  7.138199 47.112727
14858  1 49.968025  7.138208 49.968025
14859  1 49.968016  7.138219 52.823311
14860  1 49.968010  7.138225 55.678594
14876  1 49.968065  9.993479 44.257436
14877  1 49.968050  9.993491 47.112742
14878  1 49.968036  9.993505 49.968036
14879  1 49.968022  9.993519 52.823319
14880  1 49.968013  9.993525 55.678597
14896  1 49.968079 12.848782 44.257450
14897  1 49.968065 12.848799 47.112753
14898  1 49.968045 12.848814 49.968045
14899  1 49.968028 12.848828 52.823325
14900  1 49.968016 12.848837 55.678597
15216  1 52.823308  1.427639 44.257393
15217  1 52.823305  1.427642 47.112702
15218  1 52.823302  1.427642 49.968005
15219  1 52.823299  1.427642 52.823299
15220  1 52.823299  1.427644 55.678588
15236  1 52.823314  4.282919 44.257396
15237  1 52.823311  4.282922 47.112707
15238  1 52.823305  4.282927 49.968008
15239  1 52.823302  4.282930 52.823302
15240  1 52.823299  4.282933 55.678591
15256  1 52.823325  7.138205 44.257404
15257  1 52.823319  7.138211 47.112713
15258  1 52.823311  7.138219 49.968016
15259  1 52.823305  7.138225 52.823305
15260  1 52.823302  7.138228 55.678591
15276  1 52.823333  9.993505 44.257413
15277  1 52.823328  9.993511 47.112722
15278  1 52.823319  9.993519 49.968022
15279  1 52.823311  9.993525 52.823311
15280  1 52.823305  9.993531 55.678594
15296  1 52.823342 12.848814 44.257419
15297  1 52.823333 12.848819 47.112730
15298  1 52.823325 12.848828 49.968028
15299  1 52.823314 12.848837 52.823314
15300  1 52.823308 12.848842 55.678594
15616  1 55.678591  1.427642 44.257390
15617  1 55.678591  1.427642 47.112699
15618  1 55.678591  1.427642 49.968002
15619  1 55.678588  1.427644 52.823299
15620  1 55.678588  1.427644 55.678588
15636  1 55.678594  4.282925 44.257393
15637  1 55.678594  4.282927 47.112702
15638  1 55.678591  4.282930 49.968005
15639  1 55.678591  4.282933 52.823299
15640  1 55.678588  4.282936 55.678588
15656  1 55.678597  7.138216 44.257396
15657  1 55.678597  7.138219 47.112707
15658  1 55.678594  7.138225 49.968010
15659  1 55.678591  7.138228 52.823302
15660  1 55.678591  7.138231 55.678591
15676  1 55.678599  9.993516 44.257401
15677  1 55.678597  9.993522 47.112713
15678  1 55.678597  9.993525 49.968013
15679  1 55.678594  9.993531 52.823305
15680  1 55.678591  9.993534 55.678591
15696  1 55.678602 12.848828 44.257404
15697  1 55.678599 12.848831 47.112716
15698  1 55.678597 12.848837 49.968016
15699  1 55.678594 12.848842 52.823308
15700  1 55.678591 12.848845 55.678591
5716   1 39.974631 14.276247 42.829986
5717   1 39.974557 14.276327 45.685234
5718   1 39.974494 14.276398 48.540475
5719   1 39.974451 14.276452 51.395718
5720   1 39.974428 14.276481 54.250972
6116   1 42.829940 14.276293 42.829940
6117   1 42.829880 14.276353 45.685211
6118   1 42.829823 14.276412 48.540466
6119   1 42.829777 14.276455 51.395718
6120   1 42.829751 14.276481 54.250972
6516   1 45.685211 14.276353 42.829880
6517   1 45.685172 14.276392 45.685172
6518   1 45.685129 14.276430 48.540446
6519   1 45.685092 14.276464 51.395709
6520   1 45.685069 14.276484 54.250972
6916   1 48.540466 14.276412 42.829823
6917   1 48.540446 14.276430 45.685129
6918   1 48.540417 14.276452 48.540417
6919   1 48.540392 14.276475 51.395695
6920   1 48.540375 14.276490 54.250966
7316   1 51.395718 14.276455 42.829777
7317   1 51.395709 14.276464 45.685092
7318   1 51.395695 14.276475 48.540392
7319   1 51.395681 14.276487 51.395681
7320   1 51.395669 14.276495 54.250958
7716   1 54.250972 14.276481 42.829751
7717   1 54.250972 14.276484 45.685069
7718   1 54.250966 14.276490 48.540375
7719   1 54.250958 14.276495 51.395669
7720   1 54.250952 14.276498 54.250952
15785  1 55.678599 27.125455 12.848839
15784  1 55.678599 27.125452  9.993522
15783  1 55.678599 27.125455  7.138216
15782  1 55.678597 27.125455  4.282922
15781  1 55.678594 27.125455  1.427639
5721   1 39.974417 17.131815  0.000000
5722   1 39.974425 17.131807  2.855263
5723   1 39.974454 17.131778  5.710518
5724   1 39.974505 17.131727  8.565755
5725   1 39.974588 17.131644 11.420972
5741   1 39.974411 19.987141  0.000000
5742   1 39.974423 19.987136  2.855269
5743   1 39.974451 19.987113  5.710526
5744   1 39.974508 19.987070  8.565764
5745   1 39.974603 19.986996 11.420970
5761   1 39.974406 22.842467  0.000000
5762   1 39.974417 22.842464  2.855272
5763   1 39.974445 22.842447  5.710535
5764   1 39.974503 22.842419  8.565775
5765   1 39.974600 22.842367 11.420984
5781   1 39.974403 25.697793  0.000000
5782   1 39.974411 25.697790  2.855277
5783   1 39.974443 25.697782  5.710543
5784   1 39.974497 25.697767  8.565786
5785   1 39.974594 25.697742 11.420998
15765  1 55.678599 24.270126 12.848837
15764  1 55.678602 24.270126  9.993519
15763  1 55.678599 24.270126  7.138216
15762  1 55.678597 24.270129  4.282922
15761  1 55.678594 24.270129  1.427639
6121   1 42.829740 17.131813  0.000000
6122   1 42.829751 17.131804  2.855260
6123   1 42.829780 17.131781  5.710515
6124   1 42.829834 17.131738  8.565758
6125   1 42.829906 17.131676 11.420998
6141   1 42.829737 19.987139  0.000000
6142   1 42.829749 19.987133  2.855263
6143   1 42.829780 19.987113  5.710518
6144   1 42.829837 19.987079  8.565761
6145   1 42.829917 19.987024 11.420990
6161   1 42.829731 22.842464  0.000000
6162   1 42.829743 22.842462  2.855266
6163   1 42.829777 22.842447  5.710520
6164   1 42.829834 22.842424  8.565764
6165   1 42.829917 22.842387 11.420992
6181   1 42.829729 25.697790  0.000000
6182   1 42.829740 25.697790  2.855266
6183   1 42.829774 25.697782  5.710526
6184   1 42.829831 25.697770  8.565769
6185   1 42.829914 25.697753 11.420998
15745  1 55.678602 21.414800 12.848834
15744  1 55.678602 21.414800  9.993519
15743  1 55.678599 21.414800  7.138213
15742  1 55.678597 21.414803  4.282922
15741  1 55.678594 21.414803  1.427639
6521   1 45.685060 17.131813  0.000000
6522   1 45.685069 17.131807  2.855260
6523   1 45.685097 17.131787  5.710520
6524   1 45.685140 17.131756  8.565778
6525   1 45.685189 17.131718 11.421044
6541   1 45.685057 19.987139  0.000000
6542   1 45.685066 19.987133  2.855260
6543   1 45.685097 19.987119  5.710520
6544   1 45.685143 19.987093  8.565775
6545   1 45.685197 19.987061 11.421035
6561   1 45.685054 22.842464  0.000000
6562   1 45.685063 22.842462  2.855263
6563   1 45.685094 22.842450  5.710520
6564   1 45.685143 22.842433  8.565778
6565   1 45.685197 22.842410 11.421038
6581   1 45.685052 25.697790  0.000000
6582   1 45.685063 25.697787  2.855263
6583   1 45.685092 25.697785  5.710523
6584   1 45.685140 25.697776  8.565778
6585   1 45.685194 25.697765 11.421038
15725  1 55.678602 18.559474 12.848831
15724  1 55.678602 18.559474  9.993516
15723  1 55.678599 18.559477  7.138213
15722  1 55.678597 18.559480  4.282922
15721  1 55.678594 18.559480  1.427639
6921   1 48.540366 17.131815  0.000000
6922   1 48.540375 17.131810  2.855266
6923   1 48.540395 17.131798  5.710535
6924   1 48.540426 17.131778  8.565806
6925   1 48.540455 17.131756 11.421095
6941   1 48.540366 19.987139  0.000000
6942   1 48.540375 19.987136  2.855266
6943   1 48.540397 19.987124  5.710532
6944   1 48.540429 19.987110  8.565806
6945   1 48.540457 19.987093 11.421089
6961   1 48.540366 22.842464  0.000000
6962   1 48.540375 22.842462  2.855266
6963   1 48.540397 22.842456  5.710532
6964   1 48.540429 22.842444  8.565806
6965   1 48.540457 22.842433 11.421092
6981   1 48.540363 25.697790  0.000000
6982   1 48.540372 25.697790  2.855266
6983   1 48.540395 25.697785  5.710532
6984   1 48.540426 25.697782  8.565806
6985   1 48.540455 25.697776 11.421092
15705  1 55.678602 15.704148 12.848828
15704  1 55.678602 15.704151  9.993516
15703  1 55.678597 15.704154  7.138213
15702  1 55.678594 15.704157  4.282922
15701  1 55.678594 15.704160  1.427642
7321   1 51.395663 17.131818  0.000000
7322   1 51.395669 17.131815  2.855272
7323   1 51.395683 17.131807  5.710549
7324   1 51.395701 17.131798  8.565838
7325   1 51.395712 17.131787 11.421138
7341   1 51.395663 19.987141  0.000000
7342   1 51.395669 19.987139  2.855272
7343   1 51.395683 19.987133  5.710549
7344   1 51.395701 19.987124  8.565835
7345   1 51.395712 19.987119 11.421138
7361   1 51.395663 22.842464  0.000000
7362   1 51.395669 22.842464  2.855272
7363   1 51.395683 22.842462  5.710549
7364   1 51.395701 22.842456  8.565835
7365   1 51.395712 22.842450 11.421138
7381   1 51.395663 25.697790  0.000000
7382   1 51.395669 25.697790  2.855272
7383   1 51.395683 25.697787  5.710549
7384   1 51.395701 25.697785  8.565838
7385   1 51.395709 25.697785 11.421141
15385  1 52.823339 27.125452 12.848817
15384  1 52.823336 27.125452  9.993502
15383  1 52.823328 27.125452  7.138202
15382  1 52.823316 27.125452  4.282916
15381  1 52.823311 27.125455  1.427639
7721   1 54.250952 17.131818  0.000000
7722   1 54.250955 17.131818  2.855280
7723   1 54.250961 17.131815  5.710563
7724   1 54.250966 17.131810  8.565858
7725   1 54.250972 17.131807 11.421164
7741   1 54.250952 19.987141  0.000000
7742   1 54.250955 19.987141  2.855277
7743   1 54.250961 19.987139  5.710563
7744   1 54.250966 19.987136  8.565858
7745   1 54.250972 19.987133 11.421167
7761   1 54.250952 22.842467  0.000000
7762   1 54.250955 22.842464  2.855277
7763   1 54.250961 22.842464  5.710563
7764   1 54.250966 22.842462  8.565861
7765   1 54.250969 22.842462 11.421169
7781   1 54.250952 25.697790  0.000000
7782   1 54.250955 25.697790  2.855277
7783   1 54.250961 25.697790  5.710563
7784   1 54.250966 25.697790  8.565861
7785   1 54.250969 25.697787 11.421172
13301  1 38.546758 15.704154  1.427633
13302  1 38.546773 15.704134  4.282890
13303  1 38.546807 15.704088  7.138139
13304  1 38.546864 15.704020  9.993368
13305  1 38.546947 15.703920 12.848582
13321  1 38.546753 18.559480  1.427636
13322  1 38.546770 18.559463  4.282899
13323  1 38.546810 18.559423  7.138148
13324  1 38.546875 18.559357  9.993371
13325  1 38.546984 18.559249 12.848557
13341  1 38.546747 21.414806  1.427639
13342  1 38.546767 21.414794  4.282907
13343  1 38.546804 21.414766  7.138162
13344  1 38.546875 21.414714  9.993388
13345  1 38.546998 21.414623 12.848565
13361  1 38.546744 24.270132  1.427642
13362  1 38.546761 24.270123  4.282916
13363  1 38.546798 24.270106  7.138179
13364  1 38.546867 24.270075  9.993408
13365  1 38.546990 24.270020 12.848588
13381  1 38.546741 27.125455  1.427642
13382  1 38.546755 27.125452  4.282922
13383  1 38.546793 27.125446  7.138188
13384  1 38.546861 27.125438  9.993422
13385  1 38.546981 27.125418 12.848605
13701  1 41.402084 15.704151  1.427630
13702  1 41.402101 15.704131  4.282887
13703  1 41.402141 15.704091  7.138136
13704  1 41.402201 15.704031  9.993374
13705  1 41.402278 15.703954 12.848611
13721  1 41.402078 18.559474  1.427633
13722  1 41.402101 18.559460  4.282890
13723  1 41.402144 18.559426  7.138139
13724  1 41.402213 18.559368  9.993368
13725  1 41.402313 18.559286 12.848582
13741  1 41.402076 21.414803  1.427633
13742  1 41.402096 21.414791  4.282896
13743  1 41.402141 21.414766  7.138145
13744  1 41.402216 21.414723  9.993374
13745  1 41.402321 21.414657 12.848580
13761  1 41.402070 24.270129  1.427636
13762  1 41.402090 24.270123  4.282902
13763  1 41.402136 24.270106  7.138153
13764  1 41.402210 24.270080  9.993382
13765  1 41.402318 24.270040 12.848588
13781  1 41.402067 27.125455  1.427636
13782  1 41.402087 27.125452  4.282905
13783  1 41.402133 27.125446  7.138159
13784  1 41.402207 27.125438  9.993388
13785  1 41.402313 27.125423 12.848597
14101  1 44.257404 15.704148  1.427630
14102  1 44.257421 15.704134  4.282887
14103  1 44.257459 15.704103  7.138145
14104  1 44.257513 15.704057  9.993397
14105  1 44.257573 15.704003 12.848662
14121  1 44.257401 18.559474  1.427630
14122  1 44.257421 18.559460  4.282890
14123  1 44.257464 18.559434  7.138142
14124  1 44.257524 18.559391  9.993388
14125  1 44.257590 18.559340 12.848642
14141  1 44.257399 21.414800  1.427630
14142  1 44.257419 21.414791  4.282890
14143  1 44.257464 21.414771  7.138142
14144  1 44.257524 21.414740  9.993388
14145  1 44.257596 21.414700 12.848637
14161  1 44.257396 24.270126  1.427633
14162  1 44.257416 24.270120  4.282893
14163  1 44.257461 24.270109  7.138148
14164  1 44.257524 24.270089  9.993391
14165  1 44.257593 24.270066 12.848640
14181  1 44.257393 27.125455  1.427633
14182  1 44.257416 27.125452  4.282896
14183  1 44.257459 27.125446  7.138148
14184  1 44.257521 27.125440  9.993394
14185  1 44.257590 27.125432 12.848642
14501  1 47.112716 15.704151  1.427633
14502  1 47.112733 15.704140  4.282896
14503  1 47.112762 15.704117  7.138162
14504  1 47.112799 15.704088  9.993434
14505  1 47.112836 15.704057 12.848720
14521  1 47.112716 18.559474  1.427630
14522  1 47.112733 18.559466  4.282893
14523  1 47.112767 18.559446  7.138156
14524  1 47.112807 18.559420  9.993425
14525  1 47.112844 18.559391 12.848711
14541  1 47.112713 21.414800  1.427633
14542  1 47.112733 21.414794  4.282893
14543  1 47.112767 21.414780  7.138156
14544  1 47.112807 21.414760  9.993425
14545  1 47.112844 21.414740 12.848708
14561  1 47.112713 24.270126  1.427633
14562  1 47.112730 24.270123  4.282896
14563  1 47.112765 24.270115  7.138156
14564  1 47.112807 24.270103  9.993425
14565  1 47.112842 24.270089 12.848711
14581  1 47.112710 27.125452  1.427633
14582  1 47.112730 27.125452  4.282896
14583  1 47.112765 27.125449  7.138159
14584  1 47.112807 27.125446  9.993425
14585  1 47.112839 27.125440 12.848711
14901  1 49.968019 15.704154  1.427636
14902  1 49.968030 15.704145  4.282905
14903  1 49.968050 15.704134  7.138182
14904  1 49.968073 15.704117  9.993471
14905  1 49.968090 15.704103 12.848774
14921  1 49.968019 18.559477  1.427633
14922  1 49.968030 18.559471  4.282905
14923  1 49.968053 18.559460  7.138179
14924  1 49.968076 18.559446  9.993468
14925  1 49.968090 18.559434 12.848768
14941  1 49.968019 21.414800  1.427633
14942  1 49.968030 21.414797  4.282905
14943  1 49.968053 21.414789  7.138179
14944  1 49.968076 21.414780  9.993465
14945  1 49.968090 21.414771 12.848771
14961  1 49.968019 24.270126  1.427633
14962  1 49.968030 24.270126  4.282905
14963  1 49.968053 24.270120  7.138179
14964  1 49.968076 24.270115  9.993468
14965  1 49.968088 24.270109 12.848774
14981  1 49.968016 27.125455  1.427633
14982  1 49.968030 27.125452  4.282905
14983  1 49.968053 27.125452  7.138179
14984  1 49.968076 27.125449  9.993468
14985  1 49.968085 27.125446 12.848774
15301  1 52.823311 15.704157  1.427639
15302  1 52.823316 15.704154  4.282916
15303  1 52.823328 15.704145  7.138202
15304  1 52.823336 15.704140  9.993499
15305  1 52.823345 15.704134 12.848811
15321  1 52.823311 18.559480  1.427639
15322  1 52.823316 18.559477  4.282916
15323  1 52.823328 18.559471  7.138202
15324  1 52.823339 18.559466  9.993499
15325  1 52.823345 18.559460 12.848811
15341  1 52.823311 21.414803  1.427639
15342  1 52.823316 21.414800  4.282916
15343  1 52.823328 21.414797  7.138202
15344  1 52.823339 21.414794  9.993499
15345  1 52.823342 21.414791 12.848814
15361  1 52.823311 24.270129  1.427639
15362  1 52.823316 24.270126  4.282916
15363  1 52.823328 24.270126  7.138202
15364  1 52.823339 24.270123  9.993502
15365  1 52.823339 24.270120 12.848817
5726   1 39.974697 17.131536 14.276178
5746   1 39.974737 19.986887 14.276150
5766   1 39.974742 22.842287 14.276156
5786   1 39.974734 25.697702 14.276170
6126   1 42.829986 17.131604 14.276247
6146   1 42.830008 19.986959 14.276227
6166   1 42.830008 22.842339 14.276224
6186   1 42.830003 25.697727 14.276230
6526   1 45.685234 17.131676 14.276327
6546   1 45.685243 19.987024 14.276315
6566   1 45.685240 22.842387 14.276315
6586   1 45.685234 25.697753 14.276321
6926   1 48.540475 17.131738 14.276398
6946   1 48.540475 19.987079 14.276395
6966   1 48.540469 22.842424 14.276398
6986   1 48.540463 25.697770 14.276401
7326   1 51.395718 17.131781 14.276452
7346   1 51.395715 19.987113 14.276452
7366   1 51.395712 22.842447 14.276455
7386   1 51.395706 25.697782 14.276461
7726   1 54.250972 17.131804 14.276481
7746   1 54.250969 19.987133 14.276487
7766   1 54.250969 22.842462 14.276490
7786   1 54.250966 25.697790 14.276492
15790  1 55.678577 27.125458 27.125458
15789  1 55.678579 27.125458 24.270140
15788  1 55.678585 27.125455 21.414817
15787  1 55.678591 27.125455 18.559491
15786  1 55.678597 27.125455 15.704165
15370  1 52.823276 24.270134 27.125455
5727   1 39.974814 17.131419 17.131419
5728   1 39.974897 17.131336 19.986744
5729   1 39.974911 17.131322 22.842176
5730   1 39.974897 17.131336 25.697648
15369  1 52.823282 24.270132 24.270132
5747   1 39.974897 19.986744 17.131336
5748   1 39.975025 19.986610 19.986610
5749   1 39.975042 19.986562 22.842053
5750   1 39.975002 19.986579 25.697585
15368  1 52.823299 24.270129 21.414803
5767   1 39.974911 22.842176 17.131322
5768   1 39.975042 22.842053 19.986562
5769   1 39.975045 22.841976 22.841976
5770   1 39.974934 22.841999 25.697548
15367  1 52.823316 24.270123 18.559474
5787   1 39.974897 25.697648 17.131336
5788   1 39.975002 25.697585 19.986579
5789   1 39.974934 25.697548 22.841999
5790   1 39.974745 25.697550 25.697550
15770  1 55.678579 24.270140 27.125458
15769  1 55.678582 24.270137 24.270137
15768  1 55.678585 24.270134 21.414814
15767  1 55.678591 24.270132 18.559488
15766  1 55.678597 24.270129 15.704163
15366  1 52.823331 24.270123 15.704143
6127   1 42.830054 17.131536 17.131536
6128   1 42.830083 17.131496 19.986887
6129   1 42.830077 17.131490 22.842287
6130   1 42.830063 17.131499 25.697702
15350  1 52.823291 21.414806 27.125455
6147   1 42.830083 19.986887 17.131496
6148   1 42.830108 19.986839 19.986839
6149   1 42.830083 19.986830 22.842250
6150   1 42.830045 19.986844 25.697685
15349  1 52.823299 21.414803 24.270129
6167   1 42.830077 22.842287 17.131490
6168   1 42.830083 22.842250 19.986830
6169   1 42.830020 22.842245 22.842245
6170   1 42.829946 22.842262 25.697685
15348  1 52.823311 21.414797 21.414797
6187   1 42.830063 25.697702 17.131499
6188   1 42.830045 25.697685 19.986844
6189   1 42.829946 25.697685 22.842262
6190   1 42.829834 25.697696 25.697696
15750  1 55.678585 21.414817 27.125455
15749  1 55.678585 21.414814 24.270134
15748  1 55.678591 21.414811 21.414811
15747  1 55.678594 21.414806 18.559486
15746  1 55.678599 21.414803 15.704157
15347  1 52.823325 21.414794 18.559468
6527   1 45.685260 17.131644 17.131644
6528   1 45.685263 17.131633 19.986996
6529   1 45.685249 17.131633 22.842367
6530   1 45.685234 17.131641 25.697742
15346  1 52.823336 21.414791 15.704137
6547   1 45.685263 19.986996 17.131633
6548   1 45.685251 19.986984 19.986984
6549   1 45.685217 19.986990 22.842362
6550   1 45.685189 19.986999 25.697739
15330  1 52.823311 18.559477 27.125452
6567   1 45.685249 22.842367 17.131633
6568   1 45.685217 22.842362 19.986990
6569   1 45.685166 22.842367 22.842367
6570   1 45.685117 22.842379 25.697745
15329  1 52.823316 18.559474 24.270123
6587   1 45.685234 25.697742 17.131641
6588   1 45.685189 25.697739 19.986999
6589   1 45.685117 25.697745 22.842379
6590   1 45.685057 25.697750 25.697750
15730  1 55.678591 18.559491 27.125455
15729  1 55.678591 18.559488 24.270132
15728  1 55.678594 18.559486 21.414806
15727  1 55.678599 18.559480 18.559480
15726  1 55.678602 18.559474 15.704154
15328  1 52.823325 18.559468 21.414794
6927   1 48.540477 17.131727 17.131727
6928   1 48.540472 17.131724 19.987070
6929   1 48.540457 17.131730 22.842419
6930   1 48.540446 17.131736 25.697767
15327  1 52.823333 18.559463 18.559463
6947   1 48.540472 19.987070 17.131724
6948   1 48.540452 19.987070 19.987070
6949   1 48.540426 19.987076 22.842419
6950   1 48.540406 19.987084 25.697770
15326  1 52.823342 18.559460 15.704134
6967   1 48.540457 22.842419 17.131730
6968   1 48.540426 22.842419 19.987076
6969   1 48.540389 22.842427 22.842427
6970   1 48.540363 22.842433 25.697773
15310  1 52.823328 15.704145 27.125452
6987   1 48.540446 25.697767 17.131736
6988   1 48.540406 25.697770 19.987084
6989   1 48.540363 25.697773 22.842433
6990   1 48.540329 25.697779 25.697779
15710  1 55.678597 15.704165 27.125455
15709  1 55.678597 15.704163 24.270129
15708  1 55.678599 15.704157 21.414803
15707  1 55.678602 15.704154 18.559474
15706  1 55.678602 15.704151 15.704151
15309  1 52.823331 15.704143 24.270123
7327   1 51.395718 17.131778 17.131778
7328   1 51.395706 17.131781 19.987113
7329   1 51.395698 17.131787 22.842447
7330   1 51.395689 17.131793 25.697782
15308  1 52.823336 15.704137 21.414791
7347   1 51.395706 19.987113 17.131781
7348   1 51.395692 19.987116 19.987116
7349   1 51.395678 19.987121 22.842453
7350   1 51.395666 19.987127 25.697785
15307  1 52.823342 15.704134 18.559460
7367   1 51.395698 22.842447 17.131787
7368   1 51.395678 22.842453 19.987121
7369   1 51.395655 22.842456 22.842456
7370   1 51.395641 22.842462 25.697787
15306  1 52.823345 15.704131 15.704131
7387   1 51.395689 25.697782 17.131793
7388   1 51.395666 25.697785 19.987127
7389   1 51.395641 25.697787 22.842462
7390   1 51.395623 25.697790 25.697790
15390  1 52.823268 27.125455 27.125455
15389  1 52.823276 27.125455 24.270134
15388  1 52.823291 27.125455 21.414806
15387  1 52.823311 27.125452 18.559477
15386  1 52.823328 27.125452 15.704145
14990  1 49.967962 27.125452 27.125452
7727   1 54.250969 17.131807 17.131807
7728   1 54.250966 17.131813 19.987136
7729   1 54.250961 17.131815 22.842464
7730   1 54.250958 17.131821 25.697790
14989  1 49.967979 27.125449 24.270120
7747   1 54.250966 19.987136 17.131813
7748   1 54.250958 19.987139 19.987139
7749   1 54.250949 19.987144 22.842467
7750   1 54.250944 19.987150 25.697793
14988  1 49.968010 27.125449 21.414783
7767   1 54.250961 22.842464 17.131815
7768   1 54.250949 22.842467 19.987144
7769   1 54.250941 22.842470 22.842470
7770   1 54.250932 22.842476 25.697796
14987  1 49.968048 27.125446 18.559440
7787   1 54.250958 25.697790 17.131821
7788   1 54.250944 25.697793 19.987150
7789   1 54.250932 25.697796 22.842476
7790   1 54.250926 25.697796 25.697796
13306  1 38.547047 15.703808 15.703808
13307  1 38.547141 15.703717 18.559092
13308  1 38.547187 15.703689 21.414475
13309  1 38.547184 15.703709 24.269926
13310  1 38.547169 15.703729 27.125389
13326  1 38.547141 18.559092 15.703717
13327  1 38.547306 18.558926 18.558926
13328  1 38.547424 18.558812 21.414266
13329  1 38.547421 18.558815 24.269789
13330  1 38.547392 18.558840 27.125343
13346  1 38.547187 21.414475 15.703689
13347  1 38.547424 21.414266 18.558812
13348  1 38.547612 21.414066 21.414066
13349  1 38.547598 21.414023 24.269626
13350  1 38.547526 21.414061 27.125289
13366  1 38.547184 24.269926 15.703709
13367  1 38.547421 24.269789 18.558815
13368  1 38.547598 24.269626 21.414023
13369  1 38.547558 24.269521 24.269521
13370  1 38.547366 24.269575 27.125263
13386  1 38.547169 27.125389 15.703729
13387  1 38.547392 27.125343 18.558840
13388  1 38.547526 27.125289 21.414061
13389  1 38.547366 27.125263 24.269575
13390  1 38.547072 27.125263 27.125263
13706  1 41.402364 15.703871 15.703871
13707  1 41.402424 15.703808 18.559186
13708  1 41.402444 15.703788 21.414569
13709  1 41.402438 15.703794 24.269986
13710  1 41.402430 15.703803 27.125406
13726  1 41.402424 18.559186 15.703808
13727  1 41.402515 18.559092 18.559092
13728  1 41.402544 18.559046 21.414475
13729  1 41.402524 18.559049 24.269926
13730  1 41.402504 18.559063 27.125389
13746  1 41.402444 21.414569 15.703788
13747  1 41.402544 21.414475 18.559046
13748  1 41.402564 21.414415 21.414415
13749  1 41.402507 21.414417 24.269886
13750  1 41.402455 21.414437 27.125375
13766  1 41.402438 24.269986 15.703794
13767  1 41.402524 24.269926 18.559049
13768  1 41.402507 24.269886 21.414417
13769  1 41.402393 24.269886 24.269886
13770  1 41.402295 24.269909 27.125378
13786  1 41.402430 27.125406 15.703803
13787  1 41.402504 27.125389 18.559063
13788  1 41.402455 27.125375 21.414437
13789  1 41.402295 27.125378 24.269909
13790  1 41.402153 27.125386 27.125386
14106  1 44.257621 15.703954 15.703954
14107  1 44.257650 15.703920 18.559286
14108  1 44.257653 15.703911 21.414657
14109  1 44.257644 15.703914 24.270040
14110  1 44.257638 15.703920 27.125423
14126  1 44.257650 18.559286 15.703920
14127  1 44.257678 18.559249 18.559249
14128  1 44.257667 18.559237 21.414623
14129  1 44.257644 18.559243 24.270020
14130  1 44.257627 18.559251 27.125418
14146  1 44.257653 21.414657 15.703911
14147  1 44.257667 21.414623 18.559237
14148  1 44.257638 21.414612 21.414612
14149  1 44.257587 21.414623 24.270015
14150  1 44.257553 21.414634 27.125418
14166  1 44.257644 24.270040 15.703914
14167  1 44.257644 24.270020 18.559243
14168  1 44.257587 24.270015 21.414623
14169  1 44.257507 24.270023 24.270023
14170  1 44.257453 24.270037 27.125420
14186  1 44.257638 27.125423 15.703920
14187  1 44.257627 27.125418 18.559251
14188  1 44.257553 27.125418 21.414634
14189  1 44.257453 27.125420 24.270037
14190  1 44.257384 27.125426 27.125426
14506  1 47.112859 15.704031 15.704031
14507  1 47.112864 15.704020 18.559368
14508  1 47.112859 15.704017 21.414723
14509  1 47.112850 15.704023 24.270080
14510  1 47.112844 15.704025 27.125438
14526  1 47.112864 18.559368 15.704020
14527  1 47.112864 18.559357 18.559357
14528  1 47.112844 18.559357 21.414714
14529  1 47.112824 18.559366 24.270075
14530  1 47.112813 18.559371 27.125438
14546  1 47.112859 21.414723 15.704017
14547  1 47.112844 21.414714 18.559357
14548  1 47.112810 21.414714 21.414714
14549  1 47.112776 21.414726 24.270077
14550  1 47.112756 21.414732 27.125438
14566  1 47.112850 24.270080 15.704023
14567  1 47.112824 24.270075 18.559366
14568  1 47.112776 24.270077 21.414726
14569  1 47.112727 24.270086 24.270086
14570  1 47.112699 24.270092 27.125440
14586  1 47.112844 27.125438 15.704025
14587  1 47.112813 27.125438 18.559371
14588  1 47.112756 27.125438 21.414732
14589  1 47.112699 27.125440 24.270092
14590  1 47.112665 27.125443 27.125443
14906  1 49.968096 15.704091 15.704091
14907  1 49.968093 15.704088 18.559426
14908  1 49.968088 15.704091 21.414766
14909  1 49.968079 15.704097 24.270106
14910  1 49.968073 15.704100 27.125446
14926  1 49.968093 18.559426 15.704088
14927  1 49.968085 18.559423 18.559423
14928  1 49.968070 18.559428 21.414766
14929  1 49.968056 18.559434 24.270106
14930  1 49.968048 18.559440 27.125446
14946  1 49.968088 21.414766 15.704091
14947  1 49.968070 21.414766 18.559428
14948  1 49.968045 21.414771 21.414771
14949  1 49.968022 21.414777 24.270112
14950  1 49.968010 21.414783 27.125449
14966  1 49.968079 24.270106 15.704097
14967  1 49.968056 24.270106 18.559434
14968  1 49.968022 24.270112 21.414777
14969  1 49.967993 24.270117 24.270117
14970  1 49.967979 24.270120 27.125449
14986  1 49.968073 27.125446 15.704100
15795  1 55.678597 27.125455 41.402067
15794  1 55.678591 27.125455 38.546741
15793  1 55.678585 27.125455 35.691415
15792  1 55.678579 27.125458 32.836095
15791  1 55.678577 27.125458 29.980775
5731   1 39.974888 17.131344 28.553116
5732   1 39.974897 17.131336 31.408585
5733   1 39.974911 17.131322 34.264056
5734   1 39.974897 17.131336 37.119491
5735   1 39.974814 17.131419 39.974814
5751   1 39.974979 19.986593 28.553116
5752   1 39.975002 19.986579 31.408648
5753   1 39.975042 19.986562 34.264179
5754   1 39.975025 19.986610 37.119622
5755   1 39.974897 19.986744 39.974897
5771   1 39.974882 22.842019 28.553116
5772   1 39.974934 22.841999 31.408685
5773   1 39.975045 22.841976 34.264256
5774   1 39.975042 22.842053 37.119674
5775   1 39.974911 22.842176 39.974911
5791   1 39.974643 25.697573 28.553116
5792   1 39.974745 25.697550 31.408685
5793   1 39.974934 25.697548 34.264236
5794   1 39.975002 25.697585 37.119654
5795   1 39.974897 25.697648 39.974897
15775  1 55.678597 24.270129 41.402070
15774  1 55.678591 24.270132 38.546744
15773  1 55.678585 24.270134 35.691418
15772  1 55.678582 24.270137 32.836095
15771  1 55.678579 24.270140 29.980775
6131   1 42.830057 17.131504 28.553116
6132   1 42.830063 17.131499 31.408531
6133   1 42.830077 17.131490 34.263945
6134   1 42.830083 17.131496 37.119345
6135   1 42.830054 17.131536 39.974697
6151   1 42.830031 19.986853 28.553116
6152   1 42.830045 19.986844 31.408548
6153   1 42.830083 19.986830 34.263982
6154   1 42.830108 19.986839 37.119394
6155   1 42.830083 19.986887 39.974737
6171   1 42.829917 22.842273 28.553116
6172   1 42.829946 22.842262 31.408551
6173   1 42.830020 22.842245 34.263991
6174   1 42.830083 22.842250 37.119402
6175   1 42.830077 22.842287 39.974742
6191   1 42.829786 25.697705 28.553116
6192   1 42.829834 25.697696 31.408536
6193   1 42.829946 25.697685 34.263971
6194   1 42.830045 25.697685 37.119388
6195   1 42.830063 25.697702 39.974734
15755  1 55.678599 21.414803 41.402076
15754  1 55.678594 21.414806 38.546747
15753  1 55.678591 21.414811 35.691421
15752  1 55.678585 21.414814 32.836098
15751  1 55.678585 21.414817 29.980778
6531   1 45.685231 17.131644 28.553116
6532   1 45.685234 17.131641 31.408491
6533   1 45.685249 17.131633 34.263865
6534   1 45.685263 17.131633 37.119237
6535   1 45.685260 17.131644 39.974588
6551   1 45.685180 19.987004 28.553116
6552   1 45.685189 19.986999 31.408493
6553   1 45.685217 19.986990 34.263871
6554   1 45.685251 19.986984 37.119248
6555   1 45.685263 19.986996 39.974603
6571   1 45.685100 22.842384 28.553116
6572   1 45.685117 22.842379 31.408488
6573   1 45.685166 22.842367 34.263868
6574   1 45.685217 22.842362 37.119242
6575   1 45.685249 22.842367 39.974600
6591   1 45.685034 25.697756 28.553116
6592   1 45.685057 25.697750 31.408482
6593   1 45.685117 25.697745 34.263854
6594   1 45.685189 25.697739 37.119234
6595   1 45.685234 25.697742 39.974594
15735  1 55.678602 18.559474 41.402078
15734  1 55.678599 18.559480 38.546753
15733  1 55.678594 18.559486 35.691427
15732  1 55.678591 18.559488 32.836101
15731  1 55.678591 18.559491 29.980778
6931   1 48.540443 17.131738 28.553116
6932   1 48.540446 17.131736 31.408465
6933   1 48.540457 17.131730 34.263814
6934   1 48.540472 17.131724 37.119162
6935   1 48.540477 17.131727 39.974505
6951   1 48.540400 19.987087 28.553116
6952   1 48.540406 19.987084 31.408462
6953   1 48.540426 19.987076 34.263814
6954   1 48.540452 19.987070 37.119162
6955   1 48.540472 19.987070 39.974508
6971   1 48.540352 22.842436 28.553116
6972   1 48.540363 22.842433 31.408459
6973   1 48.540389 22.842427 34.263808
6974   1 48.540426 22.842419 37.119157
6975   1 48.540457 22.842419 39.974503
6991   1 48.540318 25.697779 28.553116
6992   1 48.540329 25.697779 31.408456
6993   1 48.540363 25.697773 34.263799
6994   1 48.540406 25.697770 37.119148
6995   1 48.540446 25.697767 39.974497
15715  1 55.678602 15.704151 41.402084
15714  1 55.678602 15.704154 38.546758
15713  1 55.678599 15.704157 35.691430
15712  1 55.678597 15.704163 32.836104
15711  1 55.678597 15.704165 29.980778
7331   1 51.395689 17.131793 28.553116
7332   1 51.395689 17.131793 31.408451
7333   1 51.395698 17.131787 34.263785
7334   1 51.395706 17.131781 37.119120
7335   1 51.395718 17.131778 39.974454
7351   1 51.395661 19.987130 28.553116
7352   1 51.395666 19.987127 31.408448
7353   1 51.395678 19.987121 34.263782
7354   1 51.395692 19.987116 37.119117
7355   1 51.395706 19.987113 39.974451
7371   1 51.395635 22.842464 28.553116
7372   1 51.395641 22.842462 31.408445
7373   1 51.395655 22.842456 34.263777
7374   1 51.395678 22.842453 37.119111
7375   1 51.395698 22.842447 39.974445
7391   1 51.395615 25.697790 28.553116
7392   1 51.395623 25.697790 31.408442
7393   1 51.395641 25.697787 34.263771
7394   1 51.395666 25.697785 37.119105
7395   1 51.395689 25.697782 39.974443
15395  1 52.823328 27.125452 41.402087
15394  1 52.823311 27.125452 38.546755
15393  1 52.823291 27.125455 35.691427
15392  1 52.823276 27.125455 32.836101
15391  1 52.823268 27.125455 29.980778
7731   1 54.250955 17.131821 28.553116
7732   1 54.250958 17.131821 31.408442
7733   1 54.250961 17.131815 34.263768
7734   1 54.250966 17.131813 37.119097
7735   1 54.250969 17.131807 39.974425
7751   1 54.250944 19.987150 28.553116
7752   1 54.250944 19.987150 31.408439
7753   1 54.250949 19.987144 34.263765
7754   1 54.250958 19.987139 37.119094
7755   1 54.250966 19.987136 39.974423
7771   1 54.250932 22.842476 28.553116
7772   1 54.250932 22.842476 31.408439
7773   1 54.250941 22.842470 34.263762
7774   1 54.250949 22.842467 37.119088
7775   1 54.250961 22.842464 39.974417
7791   1 54.250924 25.697799 28.553116
7792   1 54.250926 25.697796 31.408436
7793   1 54.250932 25.697796 34.263759
7794   1 54.250944 25.697793 37.119082
7795   1 54.250958 25.697790 39.974411
13311  1 38.547169 15.703729 29.980846
13312  1 38.547184 15.703709 32.836306
13313  1 38.547187 15.703689 35.691758
13314  1 38.547141 15.703717 38.547141
13315  1 38.547047 15.703808 41.402424
13331  1 38.547392 18.558840 29.980889
13332  1 38.547421 18.558815 32.836443
13333  1 38.547424 18.558812 35.691966
13334  1 38.547306 18.558926 38.547306
13335  1 38.547141 18.559092 41.402515
13351  1 38.547526 21.414061 29.980943
13352  1 38.547598 21.414023 32.836606
13353  1 38.547612 21.414066 35.692166
13354  1 38.547424 21.414266 38.547424
13355  1 38.547187 21.414475 41.402544
13371  1 38.547366 24.269575 29.980969
13372  1 38.547558 24.269521 32.836712
13373  1 38.547598 24.269626 35.692212
13374  1 38.547421 24.269789 38.547421
13375  1 38.547184 24.269926 41.402524
13391  1 38.547072 27.125263 29.980969
13392  1 38.547366 27.125263 32.836658
13393  1 38.547526 27.125289 35.692172
13394  1 38.547392 27.125343 38.547392
13395  1 38.547169 27.125389 41.402504
13711  1 41.402430 15.703803 29.980826
13712  1 41.402438 15.703794 32.836246
13713  1 41.402444 15.703788 35.691664
13714  1 41.402424 15.703808 38.547047
13715  1 41.402364 15.703871 41.402364
13731  1 41.402504 18.559063 29.980846
13732  1 41.402524 18.559049 32.836306
13733  1 41.402544 18.559046 35.691758
13734  1 41.402515 18.559092 38.547141
13735  1 41.402424 18.559186 41.402424
13751  1 41.402455 21.414437 29.980858
13752  1 41.402507 21.414417 32.836346
13753  1 41.402564 21.414415 35.691818
13754  1 41.402544 21.414475 38.547187
13755  1 41.402444 21.414569 41.402444
13771  1 41.402295 24.269909 29.980855
13772  1 41.402393 24.269886 32.836349
13773  1 41.402507 24.269886 35.691815
13774  1 41.402524 24.269926 38.547184
13775  1 41.402438 24.269986 41.402438
13791  1 41.402153 27.125386 29.980846
13792  1 41.402295 27.125378 32.836323
13793  1 41.402455 27.125375 35.691795
13794  1 41.402504 27.125389 38.547169
13795  1 41.402430 27.125406 41.402430
14111  1 44.257638 15.703920 29.980809
14112  1 44.257644 15.703914 32.836192
14113  1 44.257653 15.703911 35.691578
14114  1 44.257650 15.703920 38.546947
14115  1 44.257621 15.703954 41.402278
14131  1 44.257627 18.559251 29.980815
14132  1 44.257644 18.559243 32.836212
14133  1 44.257667 18.559237 35.691609
14134  1 44.257678 18.559249 38.546984
14135  1 44.257650 18.559286 41.402313
14151  1 44.257553 21.414634 29.980815
14152  1 44.257587 21.414623 32.836218
14153  1 44.257638 21.414612 35.691621
14154  1 44.257667 21.414623 38.546998
14155  1 44.257653 21.414657 41.402321
14171  1 44.257453 24.270037 29.980812
14172  1 44.257507 24.270023 32.836209
14173  1 44.257587 24.270015 35.691609
14174  1 44.257644 24.270020 38.546990
14175  1 44.257644 24.270040 41.402318
14191  1 44.257384 27.125426 29.980806
14192  1 44.257453 27.125420 32.836195
14193  1 44.257553 27.125418 35.691598
14194  1 44.257627 27.125418 38.546981
14195  1 44.257638 27.125423 41.402313
14511  1 47.112844 15.704025 29.980795
14512  1 47.112850 15.704023 32.836152
14513  1 47.112859 15.704017 35.691512
14514  1 47.112864 15.704020 38.546864
14515  1 47.112859 15.704031 41.402201
14531  1 47.112813 18.559371 29.980795
14532  1 47.112824 18.559366 32.836158
14533  1 47.112844 18.559357 35.691521
14534  1 47.112864 18.559357 38.546875
14535  1 47.112864 18.559368 41.402213
14551  1 47.112756 21.414732 29.980795
14552  1 47.112776 21.414726 32.836155
14553  1 47.112810 21.414714 35.691518
14554  1 47.112844 21.414714 38.546875
14555  1 47.112859 21.414723 41.402216
14571  1 47.112699 24.270092 29.980792
14572  1 47.112727 24.270086 32.836146
14573  1 47.112776 24.270077 35.691507
14574  1 47.112824 24.270075 38.546867
14575  1 47.112850 24.270080 41.402210
14591  1 47.112665 27.125443 29.980789
14592  1 47.112699 27.125440 32.836141
14593  1 47.112756 27.125438 35.691501
14594  1 47.112813 27.125438 38.546861
14595  1 47.112844 27.125438 41.402207
14911  1 49.968073 15.704100 29.980786
14912  1 49.968079 15.704097 32.836126
14913  1 49.968088 15.704091 35.691467
14914  1 49.968093 15.704088 38.546807
14915  1 49.968096 15.704091 41.402141
14931  1 49.968048 18.559440 29.980786
14932  1 49.968056 18.559434 32.836126
14933  1 49.968070 18.559428 35.691467
14934  1 49.968085 18.559423 38.546810
14935  1 49.968093 18.559426 41.402144
14951  1 49.968010 21.414783 29.980783
14952  1 49.968022 21.414777 32.836121
14953  1 49.968045 21.414771 35.691464
14954  1 49.968070 21.414766 38.546804
14955  1 49.968088 21.414766 41.402141
14971  1 49.967979 24.270120 29.980783
14972  1 49.967993 24.270117 32.836118
14973  1 49.968022 24.270112 35.691455
14974  1 49.968056 24.270106 38.546798
14975  1 49.968079 24.270106 41.402136
14991  1 49.967962 27.125452 29.980781
14992  1 49.967979 27.125449 32.836112
14993  1 49.968010 27.125449 35.691452
14994  1 49.968048 27.125446 38.546793
14995  1 49.968073 27.125446 41.402133
15311  1 52.823328 15.704145 29.980781
15312  1 52.823331 15.704143 32.836112
15313  1 52.823336 15.704137 35.691441
15314  1 52.823342 15.704134 38.546773
15315  1 52.823345 15.704131 41.402101
15331  1 52.823311 18.559477 29.980781
15332  1 52.823316 18.559474 32.836109
15333  1 52.823325 18.559468 35.691438
15334  1 52.823333 18.559463 38.546770
15335  1 52.823342 18.559460 41.402101
15351  1 52.823291 21.414806 29.980778
15352  1 52.823299 21.414803 32.836106
15353  1 52.823311 21.414797 35.691435
15354  1 52.823325 21.414794 38.546767
15355  1 52.823336 21.414791 41.402096
15371  1 52.823276 24.270134 29.980778
15372  1 52.823282 24.270132 32.836101
15373  1 52.823299 24.270129 35.691430
15374  1 52.823316 24.270123 38.546761
15375  1 52.823331 24.270123 41.402090
15800  1 55.678594 27.125455 55.678594
15799  1 55.678597 27.125455 52.823311
15798  1 55.678599 27.125455 49.968016
15797  1 55.678599 27.125452 47.112710
15796  1 55.678599 27.125455 44.257393
5736   1 39.974697 17.131536 42.830054
5737   1 39.974588 17.131644 45.685260
5738   1 39.974505 17.131727 48.540477
5739   1 39.974454 17.131778 51.395718
5740   1 39.974425 17.131807 54.250969
5756   1 39.974737 19.986887 42.830083
5757   1 39.974603 19.986996 45.685263
5758   1 39.974508 19.987070 48.540472
5759   1 39.974451 19.987113 51.395706
5760   1 39.974423 19.987136 54.250966
5776   1 39.974742 22.842287 42.830077
5777   1 39.974600 22.842367 45.685249
5778   1 39.974503 22.842419 48.540457
5779   1 39.974445 22.842447 51.395698
5780   1 39.974417 22.842464 54.250961
5796   1 39.974734 25.697702 42.830063
5797   1 39.974594 25.697742 45.685234
5798   1 39.974497 25.697767 48.540446
5799   1 39.974443 25.697782 51.395689
5800   1 39.974411 25.697790 54.250958
15780  1 55.678594 24.270129 55.678594
15779  1 55.678597 24.270129 52.823311
15778  1 55.678599 24.270126 49.968019
15777  1 55.678602 24.270126 47.112713
15776  1 55.678599 24.270126 44.257396
6136   1 42.829986 17.131604 42.829986
6137   1 42.829906 17.131676 45.685234
6138   1 42.829834 17.131738 48.540475
6139   1 42.829780 17.131781 51.395718
6140   1 42.829751 17.131804 54.250972
6156   1 42.830008 19.986959 42.830008
6157   1 42.829917 19.987024 45.685243
6158   1 42.829837 19.987079 48.540475
6159   1 42.829780 19.987113 51.395715
6160   1 42.829749 19.987133 54.250969
6176   1 42.830008 22.842339 42.830008
6177   1 42.829917 22.842387 45.685240
6178   1 42.829834 22.842424 48.540469
6179   1 42.829777 22.842447 51.395712
6180   1 42.829743 22.842462 54.250969
6196   1 42.830003 25.697727 42.830003
6197   1 42.829914 25.697753 45.685234
6198   1 42.829831 25.697770 48.540463
6199   1 42.829774 25.697782 51.395706
6200   1 42.829740 25.697790 54.250966
15760  1 55.678594 21.414803 55.678594
15759  1 55.678597 21.414803 52.823311
15758  1 55.678599 21.414800 49.968019
15757  1 55.678602 21.414800 47.112713
15756  1 55.678602 21.414800 44.257399
6536   1 45.685234 17.131676 42.829906
6537   1 45.685189 17.131718 45.685189
6538   1 45.685140 17.131756 48.540455
6539   1 45.685097 17.131787 51.395712
6540   1 45.685069 17.131807 54.250972
6556   1 45.685243 19.987024 42.829917
6557   1 45.685197 19.987061 45.685197
6558   1 45.685143 19.987093 48.540457
6559   1 45.685097 19.987119 51.395712
6560   1 45.685066 19.987133 54.250972
6576   1 45.685240 22.842387 42.829917
6577   1 45.685197 22.842410 45.685197
6578   1 45.685143 22.842433 48.540457
6579   1 45.685094 22.842450 51.395712
6580   1 45.685063 22.842462 54.250969
6596   1 45.685234 25.697753 42.829914
6597   1 45.685194 25.697765 45.685194
6598   1 45.685140 25.697776 48.540455
6599   1 45.685092 25.697785 51.395709
6600   1 45.685063 25.697787 54.250969
15740  1 55.678594 18.559480 55.678594
15739  1 55.678597 18.559480 52.823311
15738  1 55.678599 18.559477 49.968019
15737  1 55.678602 18.559474 47.112716
15736  1 55.678602 18.559474 44.257401
6936   1 48.540475 17.131738 42.829834
6937   1 48.540455 17.131756 45.685140
6938   1 48.540426 17.131778 48.540426
6939   1 48.540395 17.131798 51.395701
6940   1 48.540375 17.131810 54.250966
6956   1 48.540475 19.987079 42.829837
6957   1 48.540457 19.987093 45.685143
6958   1 48.540429 19.987110 48.540429
6959   1 48.540397 19.987124 51.395701
6960   1 48.540375 19.987136 54.250966
6976   1 48.540469 22.842424 42.829834
6977   1 48.540457 22.842433 45.685143
6978   1 48.540429 22.842444 48.540429
6979   1 48.540397 22.842456 51.395701
6980   1 48.540375 22.842462 54.250966
6996   1 48.540463 25.697770 42.829831
6997   1 48.540455 25.697776 45.685140
6998   1 48.540426 25.697782 48.540426
6999   1 48.540395 25.697785 51.395701
7000   1 48.540372 25.697790 54.250966
15720  1 55.678594 15.704160 55.678594
15719  1 55.678594 15.704157 52.823311
15718  1 55.678597 15.704154 49.968019
15717  1 55.678602 15.704151 47.112716
15716  1 55.678602 15.704148 44.257404
7336   1 51.395718 17.131781 42.829780
7337   1 51.395712 17.131787 45.685097
7338   1 51.395701 17.131798 48.540395
7339   1 51.395683 17.131807 51.395683
7340   1 51.395669 17.131815 54.250961
7356   1 51.395715 19.987113 42.829780
7357   1 51.395712 19.987119 45.685097
7358   1 51.395701 19.987124 48.540397
7359   1 51.395683 19.987133 51.395683
7360   1 51.395669 19.987139 54.250961
7376   1 51.395712 22.842447 42.829777
7377   1 51.395712 22.842450 45.685094
7378   1 51.395701 22.842456 48.540397
7379   1 51.395683 22.842462 51.395683
7380   1 51.395669 22.842464 54.250961
7396   1 51.395706 25.697782 42.829774
7397   1 51.395709 25.697785 45.685092
7398   1 51.395701 25.697785 48.540395
7399   1 51.395683 25.697787 51.395683
7400   1 51.395669 25.697790 54.250961
15400  1 52.823311 27.125455 55.678597
15399  1 52.823316 27.125452 52.823316
15398  1 52.823328 27.125452 49.968030
15397  1 52.823336 27.125452 47.112730
15396  1 52.823339 27.125452 44.257416
7736   1 54.250972 17.131804 42.829751
7737   1 54.250972 17.131807 45.685069
7738   1 54.250966 17.131810 48.540375
7739   1 54.250961 17.131815 51.395669
7740   1 54.250955 17.131818 54.250955
7756   1 54.250969 19.987133 42.829749
7757   1 54.250972 19.987133 45.685066
7758   1 54.250966 19.987136 48.540375
7759   1 54.250961 19.987139 51.395669
7760   1 54.250955 19.987141 54.250955
7776   1 54.250969 22.842462 42.829743
7777   1 54.250969 22.842462 45.685063
7778   1 54.250966 22.842462 48.540375
7779   1 54.250961 22.842464 51.395669
7780   1 54.250955 22.842464 54.250955
7796   1 54.250966 25.697790 42.829740
7797   1 54.250969 25.697787 45.685063
7798   1 54.250966 25.697790 48.540372
7799   1 54.250961 25.697790 51.395669
7800   1 54.250955 25.697790 54.250955
13316  1 38.546947 15.703920 44.257650
13317  1 38.546864 15.704020 47.112864
13318  1 38.546807 15.704088 49.968093
13319  1 38.546773 15.704134 52.823342
13320  1 38.546758 15.704154 55.678602
13336  1 38.546984 18.559249 44.257678
13337  1 38.546875 18.559357 47.112864
13338  1 38.546810 18.559423 49.968085
13339  1 38.546770 18.559463 52.823333
13340  1 38.546753 18.559480 55.678599
13356  1 38.546998 21.414623 44.257667
13357  1 38.546875 21.414714 47.112844
13358  1 38.546804 21.414766 49.968070
13359  1 38.546767 21.414794 52.823325
13360  1 38.546747 21.414806 55.678594
13376  1 38.546990 24.270020 44.257644
13377  1 38.546867 24.270075 47.112824
13378  1 38.546798 24.270106 49.968056
13379  1 38.546761 24.270123 52.823316
13380  1 38.546744 24.270132 55.678591
13396  1 38.546981 27.125418 44.257627
13397  1 38.546861 27.125438 47.112813
13398  1 38.546793 27.125446 49.968048
13399  1 38.546755 27.125452 52.823311
13400  1 38.546741 27.125455 55.678591
13716  1 41.402278 15.703954 44.257621
13717  1 41.402201 15.704031 47.112859
13718  1 41.402141 15.704091 49.968096
13719  1 41.402101 15.704131 52.823345
13720  1 41.402084 15.704151 55.678602
13736  1 41.402313 18.559286 44.257650
13737  1 41.402213 18.559368 47.112864
13738  1 41.402144 18.559426 49.968093
13739  1 41.402101 18.559460 52.823342
13740  1 41.402078 18.559474 55.678602
13756  1 41.402321 21.414657 44.257653
13757  1 41.402216 21.414723 47.112859
13758  1 41.402141 21.414766 49.968088
13759  1 41.402096 21.414791 52.823336
13760  1 41.402076 21.414803 55.678599
13776  1 41.402318 24.270040 44.257644
13777  1 41.402210 24.270080 47.112850
13778  1 41.402136 24.270106 49.968079
13779  1 41.402090 24.270123 52.823331
13780  1 41.402070 24.270129 55.678597
13796  1 41.402313 27.125423 44.257638
13797  1 41.402207 27.125438 47.112844
13798  1 41.402133 27.125446 49.968073
13799  1 41.402087 27.125452 52.823328
13800  1 41.402067 27.125455 55.678597
14116  1 44.257573 15.704003 44.257573
14117  1 44.257513 15.704057 47.112836
14118  1 44.257459 15.704103 49.968090
14119  1 44.257421 15.704134 52.823345
14120  1 44.257404 15.704148 55.678602
14136  1 44.257590 18.559340 44.257590
14137  1 44.257524 18.559391 47.112844
14138  1 44.257464 18.559434 49.968090
14139  1 44.257421 18.559460 52.823345
14140  1 44.257401 18.559474 55.678602
14156  1 44.257596 21.414700 44.257596
14157  1 44.257524 21.414740 47.112844
14158  1 44.257464 21.414771 49.968090
14159  1 44.257419 21.414791 52.823342
14160  1 44.257399 21.414800 55.678602
14176  1 44.257593 24.270066 44.257593
14177  1 44.257524 24.270089 47.112842
14178  1 44.257461 24.270109 49.968088
14179  1 44.257416 24.270120 52.823339
14180  1 44.257396 24.270126 55.678599
14196  1 44.257590 27.125432 44.257590
14197  1 44.257521 27.125440 47.112839
14198  1 44.257459 27.125446 49.968085
14199  1 44.257416 27.125452 52.823339
14200  1 44.257393 27.125455 55.678599
14516  1 47.112836 15.704057 44.257513
14517  1 47.112799 15.704088 47.112799
14518  1 47.112762 15.704117 49.968073
14519  1 47.112733 15.704140 52.823336
14520  1 47.112716 15.704151 55.678602
14536  1 47.112844 18.559391 44.257524
14537  1 47.112807 18.559420 47.112807
14538  1 47.112767 18.559446 49.968076
14539  1 47.112733 18.559466 52.823339
14540  1 47.112716 18.559474 55.678602
14556  1 47.112844 21.414740 44.257524
14557  1 47.112807 21.414760 47.112807
14558  1 47.112767 21.414780 49.968076
14559  1 47.112733 21.414794 52.823339
14560  1 47.112713 21.414800 55.678602
14576  1 47.112842 24.270089 44.257524
14577  1 47.112807 24.270103 47.112807
14578  1 47.112765 24.270115 49.968076
14579  1 47.112730 24.270123 52.823339
14580  1 47.112713 24.270126 55.678602
14596  1 47.112839 27.125440 44.257521
14597  1 47.112807 27.125446 47.112807
14598  1 47.112765 27.125449 49.968076
14599  1 47.112730 27.125452 52.823336
14600  1 47.112710 27.125452 55.678599
14916  1 49.968090 15.704103 44.257459
14917  1 49.968073 15.704117 47.112762
14918  1 49.968050 15.704134 49.968050
14919  1 49.968030 15.704145 52.823328
14920  1 49.968019 15.704154 55.678597
14936  1 49.968090 18.559434 44.257464
14937  1 49.968076 18.559446 47.112767
14938  1 49.968053 18.559460 49.968053
14939  1 49.968030 18.559471 52.823328
14940  1 49.968019 18.559477 55.678599
14956  1 49.968090 21.414771 44.257464
14957  1 49.968076 21.414780 47.112767
14958  1 49.968053 21.414789 49.968053
14959  1 49.968030 21.414797 52.823328
14960  1 49.968019 21.414800 55.678599
14976  1 49.968088 24.270109 44.257461
14977  1 49.968076 24.270115 47.112765
14978  1 49.968053 24.270120 49.968053
14979  1 49.968030 24.270126 52.823328
14980  1 49.968019 24.270126 55.678599
14996  1 49.968085 27.125446 44.257459
14997  1 49.968076 27.125449 47.112765
14998  1 49.968053 27.125452 49.968053
14999  1 49.968030 27.125452 52.823328
15000  1 49.968016 27.125455 55.678599
15316  1 52.823345 15.704134 44.257421
15317  1 52.823336 15.704140 47.112733
15318  1 52.823328 15.704145 49.968030
15319  1 52.823316 15.704154 52.823316
15320  1 52.823311 15.704157 55.678594
15336  1 52.823345 18.559460 44.257421
15337  1 52.823339 18.559466 47.112733
15338  1 52.823328 18.559471 49.968030
15339  1 52.823316 18.559477 52.823316
15340  1 52.823311 18.559480 55.678597
15356  1 52.823342 21.414791 44.257419
15357  1 52.823339 21.414794 47.112733
15358  1 52.823328 21.414797 49.968030
15359  1 52.823316 21.414800 52.823316
15360  1 52.823311 21.414803 55.678597
15376  1 52.823339 24.270120 44.257416
15377  1 52.823339 24.270123 47.112730
15378  1 52.823328 24.270126 49.968030
15379  1 52.823316 24.270126 52.823316
15380  1 52.823311 24.270129 55.678597
5801   1 39.974403 28.553116  0.000000
5802   1 39.974411 28.553116  2.855277
5803   1 39.974440 28.553116  5.710546
5804   1 39.974494 28.553116  8.565792
5805   1 39.974588 28.553116 11.421004
5821   1 39.974403 31.408439  0.000000
5822   1 39.974411 31.408442  2.855277
5823   1 39.974443 31.408451  5.710543
5824   1 39.974497 31.408465  8.565786
5825   1 39.974594 31.408491 11.420998
5841   1 39.974406 34.263765  0.000000
5842   1 39.974417 34.263768  2.855272
5843   1 39.974445 34.263785  5.710535
5844   1 39.974503 34.263814  8.565775
5845   1 39.974600 34.263865 11.420984
5861   1 39.974411 37.119091  0.000000
5862   1 39.974423 37.119097  2.855269
5863   1 39.974451 37.119120  5.710526
5864   1 39.974508 37.119162  8.565764
5865   1 39.974603 37.119237 11.420970
5881   1 39.974417 39.974417  0.000000
5882   1 39.974425 39.974425  2.855263
5883   1 39.974454 39.974454  5.710518
5884   1 39.974505 39.974505  8.565755
5885   1 39.974588 39.974588 11.420972
6201   1 42.829729 28.553116  0.000000
6202   1 42.829740 28.553116  2.855269
6203   1 42.829771 28.553116  5.710526
6204   1 42.829828 28.553116  8.565772
6205   1 42.829911 28.553116 11.421001
6221   1 42.829729 31.408442  0.000000
6222   1 42.829740 31.408445  2.855266
6223   1 42.829774 31.408451  5.710526
6224   1 42.829831 31.408462  8.565769
6225   1 42.829914 31.408482 11.420998
6241   1 42.829731 34.263768  0.000000
6242   1 42.829743 34.263771  2.855266
6243   1 42.829777 34.263785  5.710520
6244   1 42.829834 34.263808  8.565764
6245   1 42.829917 34.263845 11.420992
6261   1 42.829737 37.119094  0.000000
6262   1 42.829749 37.119100  2.855263
6263   1 42.829780 37.119120  5.710518
6264   1 42.829837 37.119154  8.565761
6265   1 42.829917 37.119208 11.420990
6281   1 42.829740 39.974420  0.000000
6282   1 42.829751 39.974428  2.855260
6283   1 42.829780 39.974451  5.710515
6284   1 42.829834 39.974494  8.565758
6285   1 42.829906 39.974557 11.420998
6601   1 45.685052 28.553116  0.000000
6602   1 45.685060 28.553116  2.855263
6603   1 45.685092 28.553116  5.710523
6604   1 45.685140 28.553116  8.565778
6605   1 45.685194 28.553116 11.421041
6621   1 45.685052 31.408442  0.000000
6622   1 45.685063 31.408445  2.855263
6623   1 45.685092 31.408448  5.710523
6624   1 45.685140 31.408456  8.565778
6625   1 45.685194 31.408468 11.421038
6641   1 45.685054 34.263768  0.000000
6642   1 45.685063 34.263771  2.855263
6643   1 45.685094 34.263782  5.710520
6644   1 45.685143 34.263799  8.565778
6645   1 45.685197 34.263822 11.421038
6661   1 45.685057 37.119094  0.000000
6662   1 45.685066 37.119100  2.855260
6663   1 45.685097 37.119114  5.710520
6664   1 45.685143 37.119140  8.565775
6665   1 45.685197 37.119174 11.421035
6681   1 45.685060 39.974420  0.000000
6682   1 45.685069 39.974425  2.855260
6683   1 45.685097 39.974445  5.710520
6684   1 45.685140 39.974477  8.565778
6685   1 45.685189 39.974517 11.421044
7001   1 48.540363 28.553116  0.000000
7002   1 48.540372 28.553116  2.855266
7003   1 48.540395 28.553116  5.710532
7004   1 48.540426 28.553116  8.565806
7005   1 48.540455 28.553116 11.421092
7021   1 48.540363 31.408442  0.000000
7022   1 48.540372 31.408445  2.855266
7023   1 48.540395 31.408448  5.710532
7024   1 48.540426 31.408451  8.565806
7025   1 48.540455 31.408456 11.421092
7041   1 48.540366 34.263768  0.000000
7042   1 48.540375 34.263771  2.855266
7043   1 48.540397 34.263777  5.710532
7044   1 48.540429 34.263788  8.565806
7045   1 48.540457 34.263799 11.421092
7061   1 48.540366 37.119094  0.000000
7062   1 48.540375 37.119097  2.855266
7063   1 48.540397 37.119108  5.710532
7064   1 48.540429 37.119122  8.565806
7065   1 48.540457 37.119140 11.421089
7081   1 48.540366 39.974420  0.000000
7082   1 48.540375 39.974423  2.855266
7083   1 48.540395 39.974437  5.710535
7084   1 48.540426 39.974454  8.565806
7085   1 48.540455 39.974477 11.421095
7401   1 51.395663 28.553116  0.000000
7402   1 51.395669 28.553116  2.855272
7403   1 51.395683 28.553116  5.710549
7404   1 51.395701 28.553116  8.565838
7405   1 51.395709 28.553116 11.421141
7421   1 51.395663 31.408442  0.000000
7422   1 51.395669 31.408442  2.855272
7423   1 51.395683 31.408445  5.710549
7424   1 51.395701 31.408448  8.565838
7425   1 51.395709 31.408448 11.421141
7441   1 51.395663 34.263768  0.000000
7442   1 51.395669 34.263768  2.855272
7443   1 51.395683 34.263774  5.710549
7444   1 51.395701 34.263777  8.565835
7445   1 51.395712 34.263782 11.421138
7461   1 51.395663 37.119094  0.000000
7462   1 51.395669 37.119094  2.855272
7463   1 51.395683 37.119100  5.710549
7464   1 51.395701 37.119108  8.565835
7465   1 51.395712 37.119114 11.421138
7481   1 51.395663 39.974417  0.000000
7482   1 51.395669 39.974417  2.855272
7483   1 51.395683 39.974425  5.710549
7484   1 51.395701 39.974437  8.565838
7485   1 51.395712 39.974445 11.421138
7801   1 54.250952 28.553116  0.000000
7802   1 54.250955 28.553116  2.855277
7803   1 54.250961 28.553116  5.710563
7804   1 54.250966 28.553116  8.565861
7805   1 54.250969 28.553116 11.421172
7821   1 54.250952 31.408442  0.000000
7822   1 54.250955 31.408442  2.855277
7823   1 54.250961 31.408442  5.710563
7824   1 54.250966 31.408445  8.565861
7825   1 54.250969 31.408445 11.421172
7841   1 54.250952 34.263768  0.000000
7842   1 54.250955 34.263768  2.855277
7843   1 54.250961 34.263768  5.710563
7844   1 54.250966 34.263771  8.565861
7845   1 54.250969 34.263771 11.421169
7861   1 54.250952 37.119091  0.000000
7862   1 54.250955 37.119091  2.855277
7863   1 54.250961 37.119094  5.710563
7864   1 54.250966 37.119097  8.565858
7865   1 54.250972 37.119100 11.421167
7881   1 54.250952 39.974414  0.000000
7882   1 54.250955 39.974414  2.855280
7883   1 54.250961 39.974417  5.710563
7884   1 54.250966 39.974423  8.565858
7885   1 54.250972 39.974425 11.421164
13401  1 38.546741 29.980778  1.427642
13402  1 38.546755 29.980781  4.282922
13403  1 38.546793 29.980786  7.138188
13404  1 38.546861 29.980795  9.993422
13405  1 38.546981 29.980815 12.848605
13421  1 38.546744 32.836101  1.427642
13422  1 38.546761 32.836109  4.282916
13423  1 38.546798 32.836126  7.138179
13424  1 38.546867 32.836158  9.993408
13425  1 38.546990 32.836212 12.848588
13441  1 38.546747 35.691427  1.427639
13442  1 38.546767 35.691438  4.282907
13443  1 38.546804 35.691467  7.138162
13444  1 38.546875 35.691521  9.993388
13445  1 38.546998 35.691609 12.848565
13461  1 38.546753 38.546753  1.427636
13462  1 38.546770 38.546770  4.282899
13463  1 38.546810 38.546810  7.138148
13464  1 38.546875 38.546875  9.993371
13465  1 38.546984 38.546984 12.848557
13481  1 38.546758 41.402078  1.427633
13482  1 38.546773 41.402101  4.282890
13483  1 38.546807 41.402144  7.138139
13484  1 38.546864 41.402213  9.993368
13485  1 38.546947 41.402313 12.848582
13801  1 41.402067 29.980778  1.427636
13802  1 41.402087 29.980781  4.282905
13803  1 41.402133 29.980786  7.138159
13804  1 41.402207 29.980795  9.993388
13805  1 41.402313 29.980809 12.848597
13821  1 41.402070 32.836104  1.427636
13822  1 41.402090 32.836112  4.282902
13823  1 41.402136 32.836126  7.138153
13824  1 41.402210 32.836152  9.993382
13825  1 41.402318 32.836192 12.848588
13841  1 41.402076 35.691430  1.427633
13842  1 41.402096 35.691441  4.282896
13843  1 41.402141 35.691467  7.138145
13844  1 41.402216 35.691512  9.993374
13845  1 41.402321 35.691578 12.848580
13861  1 41.402078 38.546758  1.427633
13862  1 41.402101 38.546773  4.282890
13863  1 41.402144 38.546807  7.138139
13864  1 41.402213 38.546864  9.993368
13865  1 41.402313 38.546947 12.848582
13881  1 41.402084 41.402084  1.427630
13882  1 41.402101 41.402101  4.282887
13883  1 41.402141 41.402141  7.138136
13884  1 41.402201 41.402201  9.993374
13885  1 41.402278 41.402278 12.848611
14201  1 44.257393 29.980781  1.427633
14202  1 44.257416 29.980781  4.282896
14203  1 44.257459 29.980786  7.138148
14204  1 44.257521 29.980792  9.993394
14205  1 44.257590 29.980801 12.848642
14221  1 44.257396 32.836106  1.427633
14222  1 44.257416 32.836112  4.282893
14223  1 44.257461 32.836124  7.138148
14224  1 44.257524 32.836144  9.993391
14225  1 44.257593 32.836166 12.848640
14241  1 44.257399 35.691432  1.427630
14242  1 44.257419 35.691441  4.282890
14243  1 44.257464 35.691464  7.138142
14244  1 44.257524 35.691492  9.993388
14245  1 44.257596 35.691535 12.848637
14261  1 44.257401 38.546758  1.427630
14262  1 44.257421 38.546773  4.282890
14263  1 44.257464 38.546798  7.138142
14264  1 44.257524 38.546841  9.993388
14265  1 44.257590 38.546892 12.848642
14281  1 44.257404 41.402084  1.427630
14282  1 44.257421 41.402098  4.282887
14283  1 44.257459 41.402130  7.138145
14284  1 44.257513 41.402176  9.993397
14285  1 44.257573 41.402230 12.848662
14601  1 47.112710 29.980781  1.427633
14602  1 47.112730 29.980781  4.282896
14603  1 47.112765 29.980783  7.138159
14604  1 47.112807 29.980786  9.993425
14605  1 47.112839 29.980792 12.848711
14621  1 47.112713 32.836106  1.427633
14622  1 47.112730 32.836109  4.282896
14623  1 47.112765 32.836118  7.138156
14624  1 47.112807 32.836129  9.993425
14625  1 47.112842 32.836144 12.848711
14641  1 47.112713 35.691432  1.427633
14642  1 47.112733 35.691441  4.282893
14643  1 47.112767 35.691452  7.138156
14644  1 47.112807 35.691472  9.993425
14645  1 47.112844 35.691492 12.848708
14661  1 47.112716 38.546758  1.427630
14662  1 47.112733 38.546770  4.282893
14663  1 47.112767 38.546787  7.138156
14664  1 47.112807 38.546813  9.993425
14665  1 47.112844 38.546841 12.848711
14681  1 47.112716 41.402081  1.427633
14682  1 47.112733 41.402093  4.282896
14683  1 47.112762 41.402116  7.138162
14684  1 47.112799 41.402144  9.993434
14685  1 47.112836 41.402176 12.848720
15001  1 49.968016 29.980781  1.427633
15002  1 49.968030 29.980781  4.282905
15003  1 49.968053 29.980781  7.138179
15004  1 49.968076 29.980783  9.993468
15005  1 49.968085 29.980786 12.848774
15021  1 49.968019 32.836106  1.427633
15022  1 49.968030 32.836109  4.282905
15023  1 49.968053 32.836112  7.138179
15024  1 49.968076 32.836118  9.993468
15025  1 49.968088 32.836124 12.848774
15041  1 49.968019 35.691432  1.427633
15042  1 49.968030 35.691435  4.282905
15043  1 49.968053 35.691444  7.138179
15044  1 49.968076 35.691452  9.993465
15045  1 49.968090 35.691464 12.848771
15061  1 49.968019 38.546755  1.427633
15062  1 49.968030 38.546761  4.282905
15063  1 49.968053 38.546773  7.138179
15064  1 49.968076 38.546787  9.993468
15065  1 49.968090 38.546798 12.848768
15081  1 49.968019 41.402078  1.427636
15082  1 49.968030 41.402087  4.282905
15083  1 49.968050 41.402098  7.138182
15084  1 49.968073 41.402116  9.993471
15085  1 49.968090 41.402130 12.848774
15401  1 52.823311 29.980781  1.427639
15402  1 52.823316 29.980781  4.282916
15403  1 52.823328 29.980781  7.138202
15404  1 52.823336 29.980781  9.993502
15405  1 52.823339 29.980781 12.848817
15421  1 52.823311 32.836104  1.427639
15422  1 52.823316 32.836106  4.282916
15423  1 52.823328 32.836109  7.138202
15424  1 52.823339 32.836109  9.993502
15425  1 52.823339 32.836112 12.848817
15441  1 52.823311 35.691430  1.427639
15442  1 52.823316 35.691432  4.282916
15443  1 52.823328 35.691435  7.138202
15444  1 52.823339 35.691441  9.993499
15445  1 52.823342 35.691441 12.848814
15461  1 52.823311 38.546753  1.427639
15462  1 52.823316 38.546758  4.282916
15463  1 52.823328 38.546761  7.138202
15464  1 52.823339 38.546770  9.993499
15465  1 52.823345 38.546773 12.848811
15481  1 52.823311 41.402076  1.427639
15482  1 52.823316 41.402078  4.282916
15483  1 52.823328 41.402087  7.138202
15484  1 52.823336 41.402093  9.993499
15485  1 52.823345 41.402098 12.848811
15801  1 55.678594 29.980778  1.427639
15802  1 55.678597 29.980781  4.282922
15803  1 55.678599 29.980781  7.138216
15804  1 55.678599 29.980781  9.993522
15805  1 55.678599 29.980781 12.848839
15821  1 55.678594 32.836104  1.427639
15822  1 55.678597 32.836104  4.282922
15823  1 55.678599 32.836106  7.138216
15824  1 55.678602 32.836106  9.993519
15825  1 55.678599 32.836106 12.848837
15841  1 55.678594 35.691430  1.427639
15842  1 55.678597 35.691430  4.282922
15843  1 55.678599 35.691432  7.138213
15844  1 55.678602 35.691432  9.993519
15845  1 55.678602 35.691432 12.848834
15861  1 55.678594 38.546753  1.427639
15862  1 55.678597 38.546753  4.282922
15863  1 55.678599 38.546755  7.138213
15864  1 55.678602 38.546758  9.993516
15865  1 55.678602 38.546758 12.848831
15881  1 55.678594 41.402073  1.427642
15882  1 55.678594 41.402076  4.282922
15883  1 55.678597 41.402078  7.138213
15884  1 55.678602 41.402081  9.993516
15885  1 55.678602 41.402084 12.848828
5806   1 39.974728 28.553116 14.276175
5826   1 39.974734 31.408531 14.276170
5846   1 39.974742 34.263945 14.276156
5866   1 39.974737 37.119345 14.276150
5886   1 39.974697 39.974697 14.276178
6206   1 42.830000 28.553116 14.276233
6226   1 42.830003 31.408505 14.276230
6246   1 42.830008 34.263894 14.276224
6266   1 42.830008 37.119277 14.276227
6286   1 42.829986 39.974631 14.276247
6606   1 45.685231 28.553116 14.276321
6626   1 45.685234 31.408482 14.276321
6646   1 45.685240 34.263845 14.276315
6666   1 45.685243 37.119208 14.276315
6686   1 45.685234 39.974557 14.276327
7006   1 48.540460 28.553116 14.276404
7026   1 48.540463 31.408462 14.276401
7046   1 48.540469 34.263808 14.276398
7066   1 48.540475 37.119154 14.276395
7086   1 48.540475 39.974494 14.276398
7406   1 51.395706 28.553116 14.276461
7426   1 51.395706 31.408451 14.276461
7446   1 51.395712 34.263785 14.276455
7466   1 51.395715 37.119120 14.276452
7486   1 51.395718 39.974451 14.276452
7806   1 54.250966 28.553116 14.276495
7826   1 54.250966 31.408445 14.276492
7846   1 54.250969 34.263771 14.276490
7866   1 54.250969 37.119100 14.276487
7886   1 54.250972 39.974428 14.276481
15890  1 55.678597 41.402067 27.125455
5807   1 39.974888 28.553116 17.131344
5808   1 39.974979 28.553116 19.986593
5809   1 39.974882 28.553116 22.842019
5810   1 39.974643 28.553116 25.697573
15889  1 55.678597 41.402070 24.270129
5827   1 39.974897 31.408585 17.131336
5828   1 39.975002 31.408648 19.986579
5829   1 39.974934 31.408685 22.841999
5830   1 39.974745 31.408685 25.697550
15888  1 55.678599 41.402076 21.414803
5847   1 39.974911 34.264056 17.131322
5848   1 39.975042 34.264179 19.986562
5849   1 39.975045 34.264256 22.841976
5850   1 39.974934 34.264236 25.697548
15887  1 55.678602 41.402078 18.559474
5867   1 39.974897 37.119491 17.131336
5868   1 39.975025 37.119622 19.986610
5869   1 39.975042 37.119674 22.842053
5870   1 39.975002 37.119654 25.697585
15886  1 55.678602 41.402084 15.704151
5887   1 39.974814 39.974814 17.131419
5888   1 39.974897 39.974897 19.986744
5889   1 39.974911 39.974911 22.842176
5890   1 39.974897 39.974897 25.697648
15870  1 55.678591 38.546741 27.125455
6207   1 42.830057 28.553116 17.131504
6208   1 42.830031 28.553116 19.986853
6209   1 42.829917 28.553116 22.842273
6210   1 42.829786 28.553116 25.697705
15869  1 55.678591 38.546744 24.270132
6227   1 42.830063 31.408531 17.131499
6228   1 42.830045 31.408548 19.986844
6229   1 42.829946 31.408551 22.842262
6230   1 42.829834 31.408536 25.697696
15868  1 55.678594 38.546747 21.414806
6247   1 42.830077 34.263945 17.131490
6248   1 42.830083 34.263982 19.986830
6249   1 42.830020 34.263991 22.842245
6250   1 42.829946 34.263971 25.697685
15867  1 55.678599 38.546753 18.559480
6267   1 42.830083 37.119345 17.131496
6268   1 42.830108 37.119394 19.986839
6269   1 42.830083 37.119402 22.842250
6270   1 42.830045 37.119388 25.697685
15866  1 55.678602 38.546758 15.704154
6287   1 42.830054 39.974697 17.131536
6288   1 42.830083 39.974737 19.986887
6289   1 42.830077 39.974742 22.842287
6290   1 42.830063 39.974734 25.697702
15850  1 55.678585 35.691415 27.125455
6607   1 45.685231 28.553116 17.131644
6608   1 45.685180 28.553116 19.987004
6609   1 45.685100 28.553116 22.842384
6610   1 45.685034 28.553116 25.697756
15849  1 55.678585 35.691418 24.270134
6627   1 45.685234 31.408491 17.131641
6628   1 45.685189 31.408493 19.986999
6629   1 45.685117 31.408488 22.842379
6630   1 45.685057 31.408482 25.697750
15848  1 55.678591 35.691421 21.414811
6647   1 45.685249 34.263865 17.131633
6648   1 45.685217 34.263871 19.986990
6649   1 45.685166 34.263868 22.842367
6650   1 45.685117 34.263854 25.697745
15847  1 55.678594 35.691427 18.559486
6667   1 45.685263 37.119237 17.131633
6668   1 45.685251 37.119248 19.986984
6669   1 45.685217 37.119242 22.842362
6670   1 45.685189 37.119234 25.697739
15846  1 55.678599 35.691430 15.704157
6687   1 45.685260 39.974588 17.131644
6688   1 45.685263 39.974603 19.986996
6689   1 45.685249 39.974600 22.842367
6690   1 45.685234 39.974594 25.697742
15830  1 55.678579 32.836095 27.125458
7007   1 48.540443 28.553116 17.131738
7008   1 48.540400 28.553116 19.987087
7009   1 48.540352 28.553116 22.842436
7010   1 48.540318 28.553116 25.697779
15829  1 55.678582 32.836095 24.270137
7027   1 48.540446 31.408465 17.131736
7028   1 48.540406 31.408462 19.987084
7029   1 48.540363 31.408459 22.842433
7030   1 48.540329 31.408456 25.697779
15828  1 55.678585 32.836098 21.414814
7047   1 48.540457 34.263814 17.131730
7048   1 48.540426 34.263814 19.987076
7049   1 48.540389 34.263808 22.842427
7050   1 48.540363 34.263799 25.697773
15827  1 55.678591 32.836101 18.559488
7067   1 48.540472 37.119162 17.131724
7068   1 48.540452 37.119162 19.987070
7069   1 48.540426 37.119157 22.842419
7070   1 48.540406 37.119148 25.697770
15826  1 55.678597 32.836104 15.704163
7087   1 48.540477 39.974505 17.131727
7088   1 48.540472 39.974508 19.987070
7089   1 48.540457 39.974503 22.842419
7090   1 48.540446 39.974497 25.697767
15810  1 55.678577 29.980775 27.125458
7407   1 51.395689 28.553116 17.131793
7408   1 51.395661 28.553116 19.987130
7409   1 51.395635 28.553116 22.842464
7410   1 51.395615 28.553116 25.697790
15809  1 55.678579 29.980775 24.270140
7427   1 51.395689 31.408451 17.131793
7428   1 51.395666 31.408448 19.987127
7429   1 51.395641 31.408445 22.842462
7430   1 51.395623 31.408442 25.697790
15808  1 55.678585 29.980778 21.414817
7447   1 51.395698 34.263785 17.131787
7448   1 51.395678 34.263782 19.987121
7449   1 51.395655 34.263777 22.842456
7450   1 51.395641 34.263771 25.697787
15807  1 55.678591 29.980778 18.559491
7467   1 51.395706 37.119120 17.131781
7468   1 51.395692 37.119117 19.987116
7469   1 51.395678 37.119111 22.842453
7470   1 51.395666 37.119105 25.697785
15806  1 55.678597 29.980778 15.704165
7487   1 51.395718 39.974454 17.131778
7488   1 51.395706 39.974451 19.987113
7489   1 51.395698 39.974445 22.842447
7490   1 51.395689 39.974443 25.697782
15490  1 52.823328 41.402087 27.125452
7807   1 54.250955 28.553116 17.131821
7808   1 54.250944 28.553116 19.987150
7809   1 54.250932 28.553116 22.842476
7810   1 54.250924 28.553116 25.697799
15489  1 52.823331 41.402090 24.270123
7827   1 54.250958 31.408442 17.131821
7828   1 54.250944 31.408439 19.987150
7829   1 54.250932 31.408439 22.842476
7830   1 54.250926 31.408436 25.697796
15488  1 52.823336 41.402096 21.414791
7847   1 54.250961 34.263768 17.131815
7848   1 54.250949 34.263765 19.987144
7849   1 54.250941 34.263762 22.842470
7850   1 54.250932 34.263759 25.697796
15487  1 52.823342 41.402101 18.559460
7867   1 54.250966 37.119097 17.131813
7868   1 54.250958 37.119094 19.987139
7869   1 54.250949 37.119088 22.842467
7870   1 54.250944 37.119082 25.697793
15486  1 52.823345 41.402101 15.704131
7887   1 54.250969 39.974425 17.131807
7888   1 54.250966 39.974423 19.987136
7889   1 54.250961 39.974417 22.842464
7890   1 54.250958 39.974411 25.697790
13406  1 38.547169 29.980846 15.703729
13407  1 38.547392 29.980889 18.558840
13408  1 38.547526 29.980943 21.414061
13409  1 38.547366 29.980969 24.269575
13410  1 38.547072 29.980969 27.125263
13426  1 38.547184 32.836306 15.703709
13427  1 38.547421 32.836443 18.558815
13428  1 38.547598 32.836606 21.414023
13429  1 38.547558 32.836712 24.269521
13430  1 38.547366 32.836658 27.125263
13446  1 38.547187 35.691758 15.703689
13447  1 38.547424 35.691966 18.558812
13448  1 38.547612 35.692166 21.414066
13449  1 38.547598 35.692212 24.269626
13450  1 38.547526 35.692172 27.125289
13466  1 38.547141 38.547141 15.703717
13467  1 38.547306 38.547306 18.558926
13468  1 38.547424 38.547424 21.414266
13469  1 38.547421 38.547421 24.269789
13470  1 38.547392 38.547392 27.125343
13486  1 38.547047 41.402424 15.703808
13487  1 38.547141 41.402515 18.559092
13488  1 38.547187 41.402544 21.414475
13489  1 38.547184 41.402524 24.269926
13490  1 38.547169 41.402504 27.125389
13806  1 41.402430 29.980826 15.703803
13807  1 41.402504 29.980846 18.559063
13808  1 41.402455 29.980858 21.414437
13809  1 41.402295 29.980855 24.269909
13810  1 41.402153 29.980846 27.125386
13826  1 41.402438 32.836246 15.703794
13827  1 41.402524 32.836306 18.559049
13828  1 41.402507 32.836346 21.414417
13829  1 41.402393 32.836349 24.269886
13830  1 41.402295 32.836323 27.125378
13846  1 41.402444 35.691664 15.703788
13847  1 41.402544 35.691758 18.559046
13848  1 41.402564 35.691818 21.414415
13849  1 41.402507 35.691815 24.269886
13850  1 41.402455 35.691795 27.125375
13866  1 41.402424 38.547047 15.703808
13867  1 41.402515 38.547141 18.559092
13868  1 41.402544 38.547187 21.414475
13869  1 41.402524 38.547184 24.269926
13870  1 41.402504 38.547169 27.125389
13886  1 41.402364 41.402364 15.703871
13887  1 41.402424 41.402424 18.559186
13888  1 41.402444 41.402444 21.414569
13889  1 41.402438 41.402438 24.269986
13890  1 41.402430 41.402430 27.125406
14206  1 44.257638 29.980809 15.703920
14207  1 44.257627 29.980815 18.559251
14208  1 44.257553 29.980815 21.414634
14209  1 44.257453 29.980812 24.270037
14210  1 44.257384 29.980806 27.125426
14226  1 44.257644 32.836192 15.703914
14227  1 44.257644 32.836212 18.559243
14228  1 44.257587 32.836218 21.414623
14229  1 44.257507 32.836209 24.270023
14230  1 44.257453 32.836195 27.125420
14246  1 44.257653 35.691578 15.703911
14247  1 44.257667 35.691609 18.559237
14248  1 44.257638 35.691621 21.414612
14249  1 44.257587 35.691609 24.270015
14250  1 44.257553 35.691598 27.125418
14266  1 44.257650 38.546947 15.703920
14267  1 44.257678 38.546984 18.559249
14268  1 44.257667 38.546998 21.414623
14269  1 44.257644 38.546990 24.270020
14270  1 44.257627 38.546981 27.125418
14286  1 44.257621 41.402278 15.703954
14287  1 44.257650 41.402313 18.559286
14288  1 44.257653 41.402321 21.414657
14289  1 44.257644 41.402318 24.270040
14290  1 44.257638 41.402313 27.125423
14606  1 47.112844 29.980795 15.704025
14607  1 47.112813 29.980795 18.559371
14608  1 47.112756 29.980795 21.414732
14609  1 47.112699 29.980792 24.270092
14610  1 47.112665 29.980789 27.125443
14626  1 47.112850 32.836152 15.704023
14627  1 47.112824 32.836158 18.559366
14628  1 47.112776 32.836155 21.414726
14629  1 47.112727 32.836146 24.270086
14630  1 47.112699 32.836141 27.125440
14646  1 47.112859 35.691512 15.704017
14647  1 47.112844 35.691521 18.559357
14648  1 47.112810 35.691518 21.414714
14649  1 47.112776 35.691507 24.270077
14650  1 47.112756 35.691501 27.125438
14666  1 47.112864 38.546864 15.704020
14667  1 47.112864 38.546875 18.559357
14668  1 47.112844 38.546875 21.414714
14669  1 47.112824 38.546867 24.270075
14670  1 47.112813 38.546861 27.125438
14686  1 47.112859 41.402201 15.704031
14687  1 47.112864 41.402213 18.559368
14688  1 47.112859 41.402216 21.414723
14689  1 47.112850 41.402210 24.270080
14690  1 47.112844 41.402207 27.125438
15006  1 49.968073 29.980786 15.704100
15007  1 49.968048 29.980786 18.559440
15008  1 49.968010 29.980783 21.414783
15009  1 49.967979 29.980783 24.270120
15010  1 49.967962 29.980781 27.125452
15026  1 49.968079 32.836126 15.704097
15027  1 49.968056 32.836126 18.559434
15028  1 49.968022 32.836121 21.414777
15029  1 49.967993 32.836118 24.270117
15030  1 49.967979 32.836112 27.125449
15046  1 49.968088 35.691467 15.704091
15047  1 49.968070 35.691467 18.559428
15048  1 49.968045 35.691464 21.414771
15049  1 49.968022 35.691455 24.270112
15050  1 49.968010 35.691452 27.125449
15066  1 49.968093 38.546807 15.704088
15067  1 49.968085 38.546810 18.559423
15068  1 49.968070 38.546804 21.414766
15069  1 49.968056 38.546798 24.270106
15070  1 49.968048 38.546793 27.125446
15086  1 49.968096 41.402141 15.704091
15087  1 49.968093 41.402144 18.559426
15088  1 49.968088 41.402141 21.414766
15089  1 49.968079 41.402136 24.270106
15090  1 49.968073 41.402133 27.125446
15406  1 52.823328 29.980781 15.704145
15407  1 52.823311 29.980781 18.559477
15408  1 52.823291 29.980778 21.414806
15409  1 52.823276 29.980778 24.270134
15410  1 52.823268 29.980778 27.125455
15426  1 52.823331 32.836112 15.704143
15427  1 52.823316 32.836109 18.559474
15428  1 52.823299 32.836106 21.414803
15429  1 52.823282 32.836101 24.270132
15430  1 52.823276 32.836101 27.125455
15446  1 52.823336 35.691441 15.704137
15447  1 52.823325 35.691438 18.559468
15448  1 52.823311 35.691435 21.414797
15449  1 52.823299 35.691430 24.270129
15450  1 52.823291 35.691427 27.125455
15466  1 52.823342 38.546773 15.704134
15467  1 52.823333 38.546770 18.559463
15468  1 52.823325 38.546767 21.414794
15469  1 52.823316 38.546761 24.270123
15470  1 52.823311 38.546755 27.125452
5811   1 39.974505 28.553116 28.553116
5812   1 39.974643 28.553116 31.408659
5813   1 39.974882 28.553116 34.264213
5814   1 39.974979 28.553116 37.119642
5815   1 39.974888 28.553116 39.974888
5831   1 39.974643 31.408659 28.553116
5832   1 39.974745 31.408685 31.408685
5833   1 39.974934 31.408685 34.264236
5834   1 39.975002 31.408648 37.119654
5835   1 39.974897 31.408585 39.974897
5851   1 39.974882 34.264213 28.553116
5852   1 39.974934 34.264236 31.408685
5853   1 39.975045 34.264256 34.264256
5854   1 39.975042 34.264179 37.119674
5855   1 39.974911 34.264056 39.974911
5871   1 39.974979 37.119642 28.553116
5872   1 39.975002 37.119654 31.408648
5873   1 39.975042 37.119674 34.264179
5874   1 39.975025 37.119622 37.119622
5875   1 39.974897 37.119491 39.974897
5891   1 39.974888 39.974888 28.553116
5892   1 39.974897 39.974897 31.408585
5893   1 39.974911 39.974911 34.264056
5894   1 39.974897 39.974897 37.119491
5895   1 39.974814 39.974814 39.974814
6211   1 42.829731 28.553116 28.553116
6212   1 42.829786 28.553116 31.408528
6213   1 42.829917 28.553116 34.263959
6214   1 42.830031 28.553116 37.119379
6215   1 42.830057 28.553116 39.974728
6231   1 42.829786 31.408528 28.553116
6232   1 42.829834 31.408536 31.408536
6233   1 42.829946 31.408551 34.263971
6234   1 42.830045 31.408548 37.119388
6235   1 42.830063 31.408531 39.974734
6251   1 42.829917 34.263959 28.553116
6252   1 42.829946 34.263971 31.408551
6253   1 42.830020 34.263991 34.263991
6254   1 42.830083 34.263982 37.119402
6255   1 42.830077 34.263945 39.974742
6271   1 42.830031 37.119379 28.553116
6272   1 42.830045 37.119388 31.408548
6273   1 42.830083 37.119402 34.263982
6274   1 42.830108 37.119394 37.119394
6275   1 42.830083 37.119345 39.974737
6291   1 42.830057 39.974728 28.553116
6292   1 42.830063 39.974734 31.408531
6293   1 42.830077 39.974742 34.263945
6294   1 42.830083 39.974737 37.119345
6295   1 42.830054 39.974697 39.974697
6611   1 45.685006 28.553116 28.553116
6612   1 45.685034 28.553116 31.408476
6613   1 45.685100 28.553116 34.263848
6614   1 45.685180 28.553116 37.119228
6615   1 45.685231 28.553116 39.974588
6631   1 45.685034 31.408476 28.553116
6632   1 45.685057 31.408482 31.408482
6633   1 45.685117 31.408488 34.263854
6634   1 45.685189 31.408493 37.119234
6635   1 45.685234 31.408491 39.974594
6651   1 45.685100 34.263848 28.553116
6652   1 45.685117 34.263854 31.408488
6653   1 45.685166 34.263868 34.263868
6654   1 45.685217 34.263871 37.119242
6655   1 45.685249 34.263865 39.974600
6671   1 45.685180 37.119228 28.553116
6672   1 45.685189 37.119234 31.408493
6673   1 45.685217 37.119242 34.263871
6674   1 45.685251 37.119248 37.119248
6675   1 45.685263 37.119237 39.974603
6691   1 45.685231 39.974588 28.553116
6692   1 45.685234 39.974594 31.408491
6693   1 45.685249 39.974600 34.263865
6694   1 45.685263 39.974603 37.119237
6695   1 45.685260 39.974588 39.974588
7011   1 48.540303 28.553116 28.553116
7012   1 48.540318 28.553116 31.408454
7013   1 48.540352 28.553116 34.263797
7014   1 48.540400 28.553116 37.119145
7015   1 48.540443 28.553116 39.974494
7031   1 48.540318 31.408454 28.553116
7032   1 48.540329 31.408456 31.408456
7033   1 48.540363 31.408459 34.263799
7034   1 48.540406 31.408462 37.119148
7035   1 48.540446 31.408465 39.974497
7051   1 48.540352 34.263797 28.553116
7052   1 48.540363 34.263799 31.408459
7053   1 48.540389 34.263808 34.263808
7054   1 48.540426 34.263814 37.119157
7055   1 48.540457 34.263814 39.974503
7071   1 48.540400 37.119145 28.553116
7072   1 48.540406 37.119148 31.408462
7073   1 48.540426 37.119157 34.263814
7074   1 48.540452 37.119162 37.119162
7075   1 48.540472 37.119162 39.974508
7091   1 48.540443 39.974494 28.553116
7092   1 48.540446 39.974497 31.408465
7093   1 48.540457 39.974503 34.263814
7094   1 48.540472 39.974508 37.119162
7095   1 48.540477 39.974505 39.974505
7411   1 51.395609 28.553116 28.553116
7412   1 51.395615 28.553116 31.408442
7413   1 51.395635 28.553116 34.263771
7414   1 51.395661 28.553116 37.119102
7415   1 51.395689 28.553116 39.974440
7431   1 51.395615 31.408442 28.553116
7432   1 51.395623 31.408442 31.408442
7433   1 51.395641 31.408445 34.263771
7434   1 51.395666 31.408448 37.119105
7435   1 51.395689 31.408451 39.974443
7451   1 51.395635 34.263771 28.553116
7452   1 51.395641 34.263771 31.408445
7453   1 51.395655 34.263777 34.263777
7454   1 51.395678 34.263782 37.119111
7455   1 51.395698 34.263785 39.974445
7471   1 51.395661 37.119102 28.553116
7472   1 51.395666 37.119105 31.408448
7473   1 51.395678 37.119111 34.263782
7474   1 51.395692 37.119117 37.119117
7475   1 51.395706 37.119120 39.974451
7491   1 51.395689 39.974440 28.553116
7492   1 51.395689 39.974443 31.408451
7493   1 51.395698 39.974445 34.263785
7494   1 51.395706 39.974451 37.119120
7495   1 51.395718 39.974454 39.974454
7811   1 54.250921 28.553116 28.553116
7812   1 54.250924 28.553116 31.408436
7813   1 54.250932 28.553116 34.263757
7814   1 54.250944 28.553116 37.119082
7815   1 54.250955 28.553116 39.974411
7831   1 54.250924 31.408436 28.553116
7832   1 54.250926 31.408436 31.408436
7833   1 54.250932 31.408439 34.263759
7834   1 54.250944 31.408439 37.119082
7835   1 54.250958 31.408442 39.974411
7851   1 54.250932 34.263757 28.553116
7852   1 54.250932 34.263759 31.408439
7853   1 54.250941 34.263762 34.263762
7854   1 54.250949 34.263765 37.119088
7855   1 54.250961 34.263768 39.974417
7871   1 54.250944 37.119082 28.553116
7872   1 54.250944 37.119082 31.408439
7873   1 54.250949 37.119088 34.263765
7874   1 54.250958 37.119094 37.119094
7875   1 54.250966 37.119097 39.974423
7891   1 54.250955 39.974411 28.553116
7892   1 54.250958 39.974411 31.408442
7893   1 54.250961 39.974417 34.263768
7894   1 54.250966 39.974423 37.119097
7895   1 54.250969 39.974425 39.974425
13411  1 38.547072 29.980969 29.980969
13412  1 38.547366 29.980969 32.836658
13413  1 38.547526 29.980943 35.692172
13414  1 38.547392 29.980889 38.547392
13415  1 38.547169 29.980846 41.402504
13431  1 38.547366 32.836658 29.980969
13432  1 38.547558 32.836712 32.836712
13433  1 38.547598 32.836606 35.692212
13434  1 38.547421 32.836443 38.547421
13435  1 38.547184 32.836306 41.402524
13451  1 38.547526 35.692172 29.980943
13452  1 38.547598 35.692212 32.836606
13453  1 38.547612 35.692166 35.692166
13454  1 38.547424 35.691966 38.547424
13455  1 38.547187 35.691758 41.402544
13471  1 38.547392 38.547392 29.980889
13472  1 38.547421 38.547421 32.836443
13473  1 38.547424 38.547424 35.691966
13474  1 38.547306 38.547306 38.547306
13475  1 38.547141 38.547141 41.402515
13491  1 38.547169 41.402504 29.980846
13492  1 38.547184 41.402524 32.836306
13493  1 38.547187 41.402544 35.691758
13494  1 38.547141 41.402515 38.547141
13495  1 38.547047 41.402424 41.402424
13811  1 41.402153 29.980846 29.980846
13812  1 41.402295 29.980855 32.836323
13813  1 41.402455 29.980858 35.691795
13814  1 41.402504 29.980846 38.547169
13815  1 41.402430 29.980826 41.402430
13831  1 41.402295 32.836323 29.980855
13832  1 41.402393 32.836349 32.836349
13833  1 41.402507 32.836346 35.691815
13834  1 41.402524 32.836306 38.547184
13835  1 41.402438 32.836246 41.402438
13851  1 41.402455 35.691795 29.980858
13852  1 41.402507 35.691815 32.836346
13853  1 41.402564 35.691818 35.691818
13854  1 41.402544 35.691758 38.547187
13855  1 41.402444 35.691664 41.402444
13871  1 41.402504 38.547169 29.980846
13872  1 41.402524 38.547184 32.836306
13873  1 41.402544 38.547187 35.691758
13874  1 41.402515 38.547141 38.547141
13875  1 41.402424 38.547047 41.402424
13891  1 41.402430 41.402430 29.980826
13892  1 41.402438 41.402438 32.836246
13893  1 41.402444 41.402444 35.691664
13894  1 41.402424 41.402424 38.547047
13895  1 41.402364 41.402364 41.402364
14211  1 44.257384 29.980806 29.980806
14212  1 44.257453 29.980812 32.836195
14213  1 44.257553 29.980815 35.691598
14214  1 44.257627 29.980815 38.546981
14215  1 44.257638 29.980809 41.402313
14231  1 44.257453 32.836195 29.980812
14232  1 44.257507 32.836209 32.836209
14233  1 44.257587 32.836218 35.691609
14234  1 44.257644 32.836212 38.546990
14235  1 44.257644 32.836192 41.402318
14251  1 44.257553 35.691598 29.980815
14252  1 44.257587 35.691609 32.836218
14253  1 44.257638 35.691621 35.691621
14254  1 44.257667 35.691609 38.546998
14255  1 44.257653 35.691578 41.402321
14271  1 44.257627 38.546981 29.980815
14272  1 44.257644 38.546990 32.836212
14273  1 44.257667 38.546998 35.691609
14274  1 44.257678 38.546984 38.546984
14275  1 44.257650 38.546947 41.402313
14291  1 44.257638 41.402313 29.980809
14292  1 44.257644 41.402318 32.836192
14293  1 44.257653 41.402321 35.691578
14294  1 44.257650 41.402313 38.546947
14295  1 44.257621 41.402278 41.402278
14611  1 47.112665 29.980789 29.980789
14612  1 47.112699 29.980792 32.836141
14613  1 47.112756 29.980795 35.691501
14614  1 47.112813 29.980795 38.546861
14615  1 47.112844 29.980795 41.402207
14631  1 47.112699 32.836141 29.980792
14632  1 47.112727 32.836146 32.836146
14633  1 47.112776 32.836155 35.691507
14634  1 47.112824 32.836158 38.546867
14635  1 47.112850 32.836152 41.402210
14651  1 47.112756 35.691501 29.980795
14652  1 47.112776 35.691507 32.836155
14653  1 47.112810 35.691518 35.691518
14654  1 47.112844 35.691521 38.546875
14655  1 47.112859 35.691512 41.402216
14671  1 47.112813 38.546861 29.980795
14672  1 47.112824 38.546867 32.836158
14673  1 47.112844 38.546875 35.691521
14674  1 47.112864 38.546875 38.546875
14675  1 47.112864 38.546864 41.402213
14691  1 47.112844 41.402207 29.980795
14692  1 47.112850 41.402210 32.836152
14693  1 47.112859 41.402216 35.691512
14694  1 47.112864 41.402213 38.546864
14695  1 47.112859 41.402201 41.402201
15011  1 49.967962 29.980781 29.980781
15012  1 49.967979 29.980783 32.836112
15013  1 49.968010 29.980783 35.691452
15014  1 49.968048 29.980786 38.546793
15015  1 49.968073 29.980786 41.402133
15031  1 49.967979 32.836112 29.980783
15032  1 49.967993 32.836118 32.836118
15033  1 49.968022 32.836121 35.691455
15034  1 49.968056 32.836126 38.546798
15035  1 49.968079 32.836126 41.402136
15051  1 49.968010 35.691452 29.980783
15052  1 49.968022 35.691455 32.836121
15053  1 49.968045 35.691464 35.691464
15054  1 49.968070 35.691467 38.546804
15055  1 49.968088 35.691467 41.402141
15071  1 49.968048 38.546793 29.980786
15072  1 49.968056 38.546798 32.836126
15073  1 49.968070 38.546804 35.691467
15074  1 49.968085 38.546810 38.546810
15075  1 49.968093 38.546807 41.402144
15091  1 49.968073 41.402133 29.980786
15092  1 49.968079 41.402136 32.836126
15093  1 49.968088 41.402141 35.691467
15094  1 49.968093 41.402144 38.546807
15095  1 49.968096 41.402141 41.402141
15411  1 52.823268 29.980778 29.980778
15412  1 52.823276 29.980778 32.836101
15413  1 52.823291 29.980778 35.691427
15414  1 52.823311 29.980781 38.546755
15415  1 52.823328 29.980781 41.402087
15431  1 52.823276 32.836101 29.980778
15432  1 52.823282 32.836101 32.836101
15433  1 52.823299 32.836106 35.691430
15434  1 52.823316 32.836109 38.546761
15435  1 52.823331 32.836112 41.402090
15451  1 52.823291 35.691427 29.980778
15452  1 52.823299 35.691430 32.836106
15453  1 52.823311 35.691435 35.691435
15454  1 52.823325 35.691438 38.546767
15455  1 52.823336 35.691441 41.402096
15471  1 52.823311 38.546755 29.980781
15472  1 52.823316 38.546761 32.836109
15473  1 52.823325 38.546767 35.691438
15474  1 52.823333 38.546770 38.546770
15475  1 52.823342 38.546773 41.402101
15491  1 52.823328 41.402087 29.980781
15492  1 52.823331 41.402090 32.836112
15493  1 52.823336 41.402096 35.691441
15494  1 52.823342 41.402101 38.546773
15495  1 52.823345 41.402101 41.402101
15811  1 55.678577 29.980775 29.980775
15812  1 55.678579 29.980775 32.836095
15813  1 55.678585 29.980778 35.691415
15814  1 55.678591 29.980778 38.546741
15815  1 55.678597 29.980778 41.402067
15831  1 55.678579 32.836095 29.980775
15832  1 55.678582 32.836095 32.836095
15833  1 55.678585 32.836098 35.691418
15834  1 55.678591 32.836101 38.546744
15835  1 55.678597 32.836104 41.402070
15851  1 55.678585 35.691415 29.980778
15852  1 55.678585 35.691418 32.836098
15853  1 55.678591 35.691421 35.691421
15854  1 55.678594 35.691427 38.546747
15855  1 55.678599 35.691430 41.402076
15871  1 55.678591 38.546741 29.980778
15872  1 55.678591 38.546744 32.836101
15873  1 55.678594 38.546747 35.691427
15874  1 55.678599 38.546753 38.546753
15875  1 55.678602 38.546758 41.402078
15891  1 55.678597 41.402067 29.980778
15892  1 55.678597 41.402070 32.836104
15893  1 55.678599 41.402076 35.691430
15894  1 55.678602 41.402078 38.546758
15895  1 55.678602 41.402084 41.402084
5816   1 39.974728 28.553116 42.830057
5817   1 39.974588 28.553116 45.685231
5818   1 39.974494 28.553116 48.540443
5819   1 39.974440 28.553116 51.395689
5820   1 39.974411 28.553116 54.250955
5836   1 39.974734 31.408531 42.830063
5837   1 39.974594 31.408491 45.685234
5838   1 39.974497 31.408465 48.540446
5839   1 39.974443 31.408451 51.395689
5840   1 39.974411 31.408442 54.250958
5856   1 39.974742 34.263945 42.830077
5857   1 39.974600 34.263865 45.685249
5858   1 39.974503 34.263814 48.540457
5859   1 39.974445 34.263785 51.395698
5860   1 39.974417 34.263768 54.250961
5876   1 39.974737 37.119345 42.830083
5877   1 39.974603 37.119237 45.685263
5878   1 39.974508 37.119162 48.540472
5879   1 39.974451 37.119120 51.395706
5880   1 39.974423 37.119097 54.250966
5896   1 39.974697 39.974697 42.830054
5897   1 39.974588 39.974588 45.685260
5898   1 39.974505 39.974505 48.540477
5899   1 39.974454 39.974454 51.395718
5900   1 39.974425 39.974425 54.250969
6216   1 42.830000 28.553116 42.830000
6217   1 42.829911 28.553116 45.685231
6218   1 42.829828 28.553116 48.540460
6219   1 42.829771 28.553116 51.395706
6220   1 42.829740 28.553116 54.250966
6236   1 42.830003 31.408505 42.830003
6237   1 42.829914 31.408482 45.685234
6238   1 42.829831 31.408462 48.540463
6239   1 42.829774 31.408451 51.395706
6240   1 42.829740 31.408445 54.250966
6256   1 42.830008 34.263894 42.830008
6257   1 42.829917 34.263845 45.685240
6258   1 42.829834 34.263808 48.540469
6259   1 42.829777 34.263785 51.395712
6260   1 42.829743 34.263771 54.250969
6276   1 42.830008 37.119277 42.830008
6277   1 42.829917 37.119208 45.685243
6278   1 42.829837 37.119154 48.540475
6279   1 42.829780 37.119120 51.395715
6280   1 42.829749 37.119100 54.250969
6296   1 42.829986 39.974631 42.829986
6297   1 42.829906 39.974557 45.685234
6298   1 42.829834 39.974494 48.540475
6299   1 42.829780 39.974451 51.395718
6300   1 42.829751 39.974428 54.250972
6616   1 45.685231 28.553116 42.829911
6617   1 45.685194 28.553116 45.685194
6618   1 45.685140 28.553116 48.540455
6619   1 45.685092 28.553116 51.395709
6620   1 45.685060 28.553116 54.250969
6636   1 45.685234 31.408482 42.829914
6637   1 45.685194 31.408468 45.685194
6638   1 45.685140 31.408456 48.540455
6639   1 45.685092 31.408448 51.395709
6640   1 45.685063 31.408445 54.250969
6656   1 45.685240 34.263845 42.829917
6657   1 45.685197 34.263822 45.685197
6658   1 45.685143 34.263799 48.540457
6659   1 45.685094 34.263782 51.395712
6660   1 45.685063 34.263771 54.250969
6676   1 45.685243 37.119208 42.829917
6677   1 45.685197 37.119174 45.685197
6678   1 45.685143 37.119140 48.540457
6679   1 45.685097 37.119114 51.395712
6680   1 45.685066 37.119100 54.250972
6696   1 45.685234 39.974557 42.829906
6697   1 45.685189 39.974517 45.685189
6698   1 45.685140 39.974477 48.540455
6699   1 45.685097 39.974445 51.395712
6700   1 45.685069 39.974425 54.250972
7016   1 48.540460 28.553116 42.829828
7017   1 48.540455 28.553116 45.685140
7018   1 48.540426 28.553116 48.540426
7019   1 48.540395 28.553116 51.395701
7020   1 48.540372 28.553116 54.250966
7036   1 48.540463 31.408462 42.829831
7037   1 48.540455 31.408456 45.685140
7038   1 48.540426 31.408451 48.540426
7039   1 48.540395 31.408448 51.395701
7040   1 48.540372 31.408445 54.250966
7056   1 48.540469 34.263808 42.829834
7057   1 48.540457 34.263799 45.685143
7058   1 48.540429 34.263788 48.540429
7059   1 48.540397 34.263777 51.395701
7060   1 48.540375 34.263771 54.250966
7076   1 48.540475 37.119154 42.829837
7077   1 48.540457 37.119140 45.685143
7078   1 48.540429 37.119122 48.540429
7079   1 48.540397 37.119108 51.395701
7080   1 48.540375 37.119097 54.250966
7096   1 48.540475 39.974494 42.829834
7097   1 48.540455 39.974477 45.685140
7098   1 48.540426 39.974454 48.540426
7099   1 48.540395 39.974437 51.395701
7100   1 48.540375 39.974423 54.250966
7416   1 51.395706 28.553116 42.829771
7417   1 51.395709 28.553116 45.685092
7418   1 51.395701 28.553116 48.540395
7419   1 51.395683 28.553116 51.395683
7420   1 51.395669 28.553116 54.250961
7436   1 51.395706 31.408451 42.829774
7437   1 51.395709 31.408448 45.685092
7438   1 51.395701 31.408448 48.540395
7439   1 51.395683 31.408445 51.395683
7440   1 51.395669 31.408442 54.250961
7456   1 51.395712 34.263785 42.829777
7457   1 51.395712 34.263782 45.685094
7458   1 51.395701 34.263777 48.540397
7459   1 51.395683 34.263774 51.395683
7460   1 51.395669 34.263768 54.250961
7476   1 51.395715 37.119120 42.829780
7477   1 51.395712 37.119114 45.685097
7478   1 51.395701 37.119108 48.540397
7479   1 51.395683 37.119100 51.395683
7480   1 51.395669 37.119094 54.250961
7496   1 51.395718 39.974451 42.829780
7497   1 51.395712 39.974445 45.685097
7498   1 51.395701 39.974437 48.540395
7499   1 51.395683 39.974425 51.395683
7500   1 51.395669 39.974417 54.250961
7816   1 54.250966 28.553116 42.829740
7817   1 54.250969 28.553116 45.685060
7818   1 54.250966 28.553116 48.540372
7819   1 54.250961 28.553116 51.395669
7820   1 54.250955 28.553116 54.250955
7836   1 54.250966 31.408445 42.829740
7837   1 54.250969 31.408445 45.685063
7838   1 54.250966 31.408445 48.540372
7839   1 54.250961 31.408442 51.395669
7840   1 54.250955 31.408442 54.250955
7856   1 54.250969 34.263771 42.829743
7857   1 54.250969 34.263771 45.685063
7858   1 54.250966 34.263771 48.540375
7859   1 54.250961 34.263768 51.395669
7860   1 54.250955 34.263768 54.250955
7876   1 54.250969 37.119100 42.829749
7877   1 54.250972 37.119100 45.685066
7878   1 54.250966 37.119097 48.540375
7879   1 54.250961 37.119094 51.395669
7880   1 54.250955 37.119091 54.250955
7896   1 54.250972 39.974428 42.829751
7897   1 54.250972 39.974425 45.685069
7898   1 54.250966 39.974423 48.540375
7899   1 54.250961 39.974417 51.395669
7900   1 54.250955 39.974414 54.250955
13416  1 38.546981 29.980815 44.257627
13417  1 38.546861 29.980795 47.112813
13418  1 38.546793 29.980786 49.968048
13419  1 38.546755 29.980781 52.823311
13420  1 38.546741 29.980778 55.678591
13436  1 38.546990 32.836212 44.257644
13437  1 38.546867 32.836158 47.112824
13438  1 38.546798 32.836126 49.968056
13439  1 38.546761 32.836109 52.823316
13440  1 38.546744 32.836101 55.678591
13456  1 38.546998 35.691609 44.257667
13457  1 38.546875 35.691521 47.112844
13458  1 38.546804 35.691467 49.968070
13459  1 38.546767 35.691438 52.823325
13460  1 38.546747 35.691427 55.678594
13476  1 38.546984 38.546984 44.257678
13477  1 38.546875 38.546875 47.112864
13478  1 38.546810 38.546810 49.968085
13479  1 38.546770 38.546770 52.823333
13480  1 38.546753 38.546753 55.678599
13496  1 38.546947 41.402313 44.257650
13497  1 38.546864 41.402213 47.112864
13498  1 38.546807 41.402144 49.968093
13499  1 38.546773 41.402101 52.823342
13500  1 38.546758 41.402078 55.678602
13816  1 41.402313 29.980809 44.257638
13817  1 41.402207 29.980795 47.112844
13818  1 41.402133 29.980786 49.968073
13819  1 41.402087 29.980781 52.823328
13820  1 41.402067 29.980778 55.678597
13836  1 41.402318 32.836192 44.257644
13837  1 41.402210 32.836152 47.112850
13838  1 41.402136 32.836126 49.968079
13839  1 41.402090 32.836112 52.823331
13840  1 41.402070 32.836104 55.678597
13856  1 41.402321 35.691578 44.257653
13857  1 41.402216 35.691512 47.112859
13858  1 41.402141 35.691467 49.968088
13859  1 41.402096 35.691441 52.823336
13860  1 41.402076 35.691430 55.678599
13876  1 41.402313 38.546947 44.257650
13877  1 41.402213 38.546864 47.112864
13878  1 41.402144 38.546807 49.968093
13879  1 41.402101 38.546773 52.823342
13880  1 41.402078 38.546758 55.678602
13896  1 41.402278 41.402278 44.257621
13897  1 41.402201 41.402201 47.112859
13898  1 41.402141 41.402141 49.968096
13899  1 41.402101 41.402101 52.823345
13900  1 41.402084 41.402084 55.678602
14216  1 44.257590 29.980801 44.257590
14217  1 44.257521 29.980792 47.112839
14218  1 44.257459 29.980786 49.968085
14219  1 44.257416 29.980781 52.823339
14220  1 44.257393 29.980781 55.678599
14236  1 44.257593 32.836166 44.257593
14237  1 44.257524 32.836144 47.112842
14238  1 44.257461 32.836124 49.968088
14239  1 44.257416 32.836112 52.823339
14240  1 44.257396 32.836106 55.678599
14256  1 44.257596 35.691535 44.257596
14257  1 44.257524 35.691492 47.112844
14258  1 44.257464 35.691464 49.968090
14259  1 44.257419 35.691441 52.823342
14260  1 44.257399 35.691432 55.678602
14276  1 44.257590 38.546892 44.257590
14277  1 44.257524 38.546841 47.112844
14278  1 44.257464 38.546798 49.968090
14279  1 44.257421 38.546773 52.823345
14280  1 44.257401 38.546758 55.678602
14296  1 44.257573 41.402230 44.257573
14297  1 44.257513 41.402176 47.112836
14298  1 44.257459 41.402130 49.968090
14299  1 44.257421 41.402098 52.823345
14300  1 44.257404 41.402084 55.678602
14616  1 47.112839 29.980792 44.257521
14617  1 47.112807 29.980786 47.112807
14618  1 47.112765 29.980783 49.968076
14619  1 47.112730 29.980781 52.823336
14620  1 47.112710 29.980781 55.678599
14636  1 47.112842 32.836144 44.257524
14637  1 47.112807 32.836129 47.112807
14638  1 47.112765 32.836118 49.968076
14639  1 47.112730 32.836109 52.823339
14640  1 47.112713 32.836106 55.678602
14656  1 47.112844 35.691492 44.257524
14657  1 47.112807 35.691472 47.112807
14658  1 47.112767 35.691452 49.968076
14659  1 47.112733 35.691441 52.823339
14660  1 47.112713 35.691432 55.678602
14676  1 47.112844 38.546841 44.257524
14677  1 47.112807 38.546813 47.112807
14678  1 47.112767 38.546787 49.968076
14679  1 47.112733 38.546770 52.823339
14680  1 47.112716 38.546758 55.678602
14696  1 47.112836 41.402176 44.257513
14697  1 47.112799 41.402144 47.112799
14698  1 47.112762 41.402116 49.968073
14699  1 47.112733 41.402093 52.823336
14700  1 47.112716 41.402081 55.678602
15016  1 49.968085 29.980786 44.257459
15017  1 49.968076 29.980783 47.112765
15018  1 49.968053 29.980781 49.968053
15019  1 49.968030 29.980781 52.823328
15020  1 49.968016 29.980781 55.678599
15036  1 49.968088 32.836124 44.257461
15037  1 49.968076 32.836118 47.112765
15038  1 49.968053 32.836112 49.968053
15039  1 49.968030 32.836109 52.823328
15040  1 49.968019 32.836106 55.678599
15056  1 49.968090 35.691464 44.257464
15057  1 49.968076 35.691452 47.112767
15058  1 49.968053 35.691444 49.968053
15059  1 49.968030 35.691435 52.823328
15060  1 49.968019 35.691432 55.678599
15076  1 49.968090 38.546798 44.257464
15077  1 49.968076 38.546787 47.112767
15078  1 49.968053 38.546773 49.968053
15079  1 49.968030 38.546761 52.823328
15080  1 49.968019 38.546755 55.678599
15096  1 49.968090 41.402130 44.257459
15097  1 49.968073 41.402116 47.112762
15098  1 49.968050 41.402098 49.968050
15099  1 49.968030 41.402087 52.823328
15100  1 49.968019 41.402078 55.678597
15416  1 52.823339 29.980781 44.257416
15417  1 52.823336 29.980781 47.112730
15418  1 52.823328 29.980781 49.968030
15419  1 52.823316 29.980781 52.823316
15420  1 52.823311 29.980781 55.678597
15436  1 52.823339 32.836112 44.257416
15437  1 52.823339 32.836109 47.112730
15438  1 52.823328 32.836109 49.968030
15439  1 52.823316 32.836106 52.823316
15440  1 52.823311 32.836104 55.678597
15456  1 52.823342 35.691441 44.257419
15457  1 52.823339 35.691441 47.112733
15458  1 52.823328 35.691435 49.968030
15459  1 52.823316 35.691432 52.823316
15460  1 52.823311 35.691430 55.678597
15476  1 52.823345 38.546773 44.257421
15477  1 52.823339 38.546770 47.112733
15478  1 52.823328 38.546761 49.968030
15479  1 52.823316 38.546758 52.823316
15480  1 52.823311 38.546753 55.678597
15496  1 52.823345 41.402098 44.257421
15497  1 52.823336 41.402093 47.112733
15498  1 52.823328 41.402087 49.968030
15499  1 52.823316 41.402078 52.823316
15500  1 52.823311 41.402076 55.678594
15816  1 55.678599 29.980781 44.257393
15817  1 55.678599 29.980781 47.112710
15818  1 55.678599 29.980781 49.968016
15819  1 55.678597 29.980781 52.823311
15820  1 55.678594 29.980778 55.678594
15836  1 55.678599 32.836106 44.257396
15837  1 55.678602 32.836106 47.112713
15838  1 55.678599 32.836106 49.968019
15839  1 55.678597 32.836104 52.823311
15840  1 55.678594 32.836104 55.678594
15856  1 55.678602 35.691432 44.257399
15857  1 55.678602 35.691432 47.112713
15858  1 55.678599 35.691432 49.968019
15859  1 55.678597 35.691430 52.823311
15860  1 55.678594 35.691430 55.678594
15876  1 55.678602 38.546758 44.257401
15877  1 55.678602 38.546758 47.112716
15878  1 55.678599 38.546755 49.968019
15879  1 55.678597 38.546753 52.823311
15880  1 55.678594 38.546753 55.678594
15896  1 55.678602 41.402084 44.257404
15897  1 55.678602 41.402081 47.112716
15898  1 55.678597 41.402078 49.968019
15899  1 55.678594 41.402076 52.823311
15900  1 55.678594 41.402073 55.678594
5901   1 39.974420 42.829740  0.000000
5902   1 39.974428 42.829751  2.855260
5903   1 39.974451 42.829780  5.710515
5904   1 39.974494 42.829834  8.565758
5905   1 39.974557 42.829906 11.420998
5921   1 39.974420 45.685060  0.000000
5922   1 39.974425 45.685069  2.855260
5923   1 39.974445 45.685097  5.710520
5924   1 39.974477 45.685140  8.565778
5925   1 39.974517 45.685189 11.421044
5941   1 39.974420 48.540366  0.000000
5942   1 39.974423 48.540375  2.855266
5943   1 39.974437 48.540395  5.710535
5944   1 39.974454 48.540426  8.565806
5945   1 39.974477 48.540455 11.421095
5961   1 39.974417 51.395663  0.000000
5962   1 39.974417 51.395669  2.855272
5963   1 39.974425 51.395683  5.710549
5964   1 39.974437 51.395701  8.565838
5965   1 39.974445 51.395712 11.421138
5981   1 39.974414 54.250952  0.000000
5982   1 39.974414 54.250955  2.855280
5983   1 39.974417 54.250961  5.710563
5984   1 39.974423 54.250966  8.565858
5985   1 39.974425 54.250972 11.421164
6301   1 42.829743 42.829743  0.000000
6302   1 42.829751 42.829751  2.855260
6303   1 42.829777 42.829777  5.710515
6304   1 42.829823 42.829823  8.565766
6305   1 42.829880 42.829880 11.421021
6321   1 42.829743 45.685060  0.000000
6322   1 42.829749 45.685069  2.855263
6323   1 42.829769 45.685092  5.710523
6324   1 42.829803 45.685129  8.565786
6325   1 42.829843 45.685172 11.421061
6341   1 42.829740 48.540366  0.000000
6342   1 42.829743 48.540375  2.855269
6343   1 42.829757 48.540392  5.710538
6344   1 42.829780 48.540417  8.565815
6345   1 42.829803 48.540446 11.421104
6361   1 42.829734 51.395663  0.000000
6362   1 42.829737 51.395669  2.855275
6363   1 42.829746 51.395681  5.710552
6364   1 42.829757 51.395695  8.565841
6365   1 42.829769 51.395709 11.421141
6381   1 42.829731 54.250952  0.000000
6382   1 42.829734 54.250952  2.855280
6383   1 42.829737 54.250958  5.710566
6384   1 42.829743 54.250966  8.565861
6385   1 42.829749 54.250972 11.421164
6701   1 45.685060 42.829743  0.000000
6702   1 45.685069 42.829749  2.855263
6703   1 45.685092 42.829769  5.710523
6704   1 45.685129 42.829803  8.565786
6705   1 45.685172 42.829843 11.421061
6721   1 45.685057 45.685057  0.000000
6722   1 45.685066 45.685066  2.855266
6723   1 45.685083 45.685083  5.710532
6724   1 45.685112 45.685112  8.565804
6725   1 45.685146 45.685146 11.421089
6741   1 45.685054 48.540363  0.000000
6742   1 45.685060 48.540369  2.855272
6743   1 45.685072 48.540386  5.710543
6744   1 45.685092 48.540406  8.565826
6745   1 45.685112 48.540429 11.421121
6761   1 45.685049 51.395661  0.000000
6762   1 45.685052 51.395666  2.855277
6763   1 45.685060 51.395675  5.710558
6764   1 45.685072 51.395689  8.565846
6765   1 45.685083 51.395701 11.421149
6781   1 45.685046 54.250949  0.000000
6782   1 45.685049 54.250952  2.855280
6783   1 45.685052 54.250955  5.710569
6784   1 45.685060 54.250964  8.565863
6785   1 45.685066 54.250966 11.421169
7101   1 48.540366 42.829740  0.000000
7102   1 48.540375 42.829743  2.855269
7103   1 48.540392 42.829757  5.710538
7104   1 48.540417 42.829780  8.565815
7105   1 48.540446 42.829803 11.421104
7121   1 48.540363 45.685054  0.000000
7122   1 48.540369 45.685060  2.855272
7123   1 48.540386 45.685072  5.710543
7124   1 48.540406 45.685092  8.565826
7125   1 48.540429 45.685112 11.421121
7141   1 48.540360 48.540360  0.000000
7142   1 48.540366 48.540366  2.855275
7143   1 48.540375 48.540375  5.710555
7144   1 48.540392 48.540392  8.565841
7145   1 48.540406 48.540406 11.421141
7161   1 48.540358 51.395658  0.000000
7162   1 48.540358 51.395661  2.855280
7163   1 48.540366 51.395669  5.710563
7164   1 48.540375 51.395678  8.565858
7165   1 48.540386 51.395689 11.421161
7181   1 48.540352 54.250946  0.000000
7182   1 48.540355 54.250949  2.855283
7183   1 48.540358 54.250952  5.710572
7184   1 48.540366 54.250958  8.565869
7185   1 48.540369 54.250964 11.421175
7501   1 51.395663 42.829734  0.000000
7502   1 51.395669 42.829737  2.855275
7503   1 51.395681 42.829746  5.710552
7504   1 51.395695 42.829757  8.565841
7505   1 51.395709 42.829769 11.421141
7521   1 51.395661 45.685049  0.000000
7522   1 51.395666 45.685052  2.855277
7523   1 51.395675 45.685060  5.710558
7524   1 51.395689 45.685072  8.565846
7525   1 51.395701 45.685083 11.421149
7541   1 51.395658 48.540358  0.000000
7542   1 51.395661 48.540358  2.855280
7543   1 51.395669 48.540366  5.710563
7544   1 51.395678 48.540375  8.565858
7545   1 51.395689 48.540386 11.421161
7561   1 51.395655 51.395655  0.000000
7562   1 51.395658 51.395658  2.855283
7563   1 51.395661 51.395661  5.710572
7564   1 51.395669 51.395669  8.565866
7565   1 51.395675 51.395675 11.421172
7581   1 51.395652 54.250946  0.000000
7582   1 51.395652 54.250946  2.855286
7583   1 51.395658 54.250949  5.710578
7584   1 51.395661 54.250952  8.565875
7585   1 51.395666 54.250955 11.421181
7901   1 54.250952 42.829731  0.000000
7902   1 54.250952 42.829734  2.855280
7903   1 54.250958 42.829737  5.710566
7904   1 54.250966 42.829743  8.565861
7905   1 54.250972 42.829749 11.421164
7921   1 54.250949 45.685046  0.000000
7922   1 54.250952 45.685049  2.855280
7923   1 54.250955 45.685052  5.710569
7924   1 54.250964 45.685060  8.565863
7925   1 54.250966 45.685066 11.421169
7941   1 54.250946 48.540352  0.000000
7942   1 54.250949 48.540355  2.855283
7943   1 54.250952 48.540358  5.710572
7944   1 54.250958 48.540366  8.565869
7945   1 54.250964 48.540369 11.421175
7961   1 54.250946 51.395652  0.000000
7962   1 54.250946 51.395652  2.855286
7963   1 54.250949 51.395658  5.710578
7964   1 54.250952 51.395661  8.565875
7965   1 54.250955 51.395666 11.421181
7981   1 54.250944 54.250944  0.000000
7982   1 54.250944 54.250944  2.855289
7983   1 54.250946 54.250946  5.710580
7984   1 54.250949 54.250949  8.565878
7985   1 54.250952 54.250952 11.421187
13501  1 38.546758 44.257401  1.427630
13502  1 38.546773 44.257421  4.282890
13503  1 38.546798 44.257464  7.138142
13504  1 38.546841 44.257524  9.993388
13505  1 38.546892 44.257590 12.848642
13521  1 38.546758 47.112716  1.427630
13522  1 38.546770 47.112733  4.282893
13523  1 38.546787 47.112767  7.138156
13524  1 38.546813 47.112807  9.993425
13525  1 38.546841 47.112844 12.848711
13541  1 38.546755 49.968019  1.427633
13542  1 38.546761 49.968030  4.282905
13543  1 38.546773 49.968053  7.138179
13544  1 38.546787 49.968076  9.993468
13545  1 38.546798 49.968090 12.848768
13561  1 38.546753 52.823311  1.427639
13562  1 38.546758 52.823316  4.282916
13563  1 38.546761 52.823328  7.138202
13564  1 38.546770 52.823339  9.993499
13565  1 38.546773 52.823345 12.848811
13581  1 38.546753 55.678594  1.427639
13582  1 38.546753 55.678597  4.282922
13583  1 38.546755 55.678599  7.138213
13584  1 38.546758 55.678602  9.993516
13585  1 38.546758 55.678602 12.848831
13901  1 41.402084 44.257404  1.427630
13902  1 41.402098 44.257421  4.282887
13903  1 41.402130 44.257459  7.138145
13904  1 41.402176 44.257513  9.993397
13905  1 41.402230 44.257573 12.848662
13921  1 41.402081 47.112716  1.427633
13922  1 41.402093 47.112733  4.282896
13923  1 41.402116 47.112762  7.138162
13924  1 41.402144 47.112799  9.993434
13925  1 41.402176 47.112836 12.848720
13941  1 41.402078 49.968019  1.427636
13942  1 41.402087 49.968030  4.282905
13943  1 41.402098 49.968050  7.138182
13944  1 41.402116 49.968073  9.993471
13945  1 41.402130 49.968090 12.848774
13961  1 41.402076 52.823311  1.427639
13962  1 41.402078 52.823316  4.282916
13963  1 41.402087 52.823328  7.138202
13964  1 41.402093 52.823336  9.993499
13965  1 41.402098 52.823345 12.848811
13981  1 41.402073 55.678594  1.427642
13982  1 41.402076 55.678594  4.282922
13983  1 41.402078 55.678597  7.138213
13984  1 41.402081 55.678602  9.993516
13985  1 41.402084 55.678602 12.848828
14301  1 44.257404 44.257404  1.427630
14302  1 44.257419 44.257419  4.282893
14303  1 44.257450 44.257450  7.138153
14304  1 44.257490 44.257490  9.993419
14305  1 44.257536 44.257536 12.848697
14321  1 44.257401 47.112716  1.427633
14322  1 44.257413 47.112730  4.282899
14323  1 44.257436 47.112753  7.138171
14324  1 44.257464 47.112784  9.993448
14325  1 44.257490 47.112816 12.848742
14341  1 44.257396 49.968016  1.427636
14342  1 44.257404 49.968028  4.282910
14343  1 44.257419 49.968045  7.138188
14344  1 44.257436 49.968065  9.993479
14345  1 44.257450 49.968079 12.848782
14361  1 44.257393 52.823308  1.427639
14362  1 44.257396 52.823314  4.282919
14363  1 44.257404 52.823325  7.138205
14364  1 44.257413 52.823333  9.993505
14365  1 44.257419 52.823342 12.848814
14381  1 44.257390 55.678591  1.427642
14382  1 44.257393 55.678594  4.282925
14383  1 44.257396 55.678597  7.138216
14384  1 44.257401 55.678599  9.993516
14385  1 44.257404 55.678602 12.848828
14701  1 47.112716 44.257401  1.427633
14702  1 47.112730 44.257413  4.282899
14703  1 47.112753 44.257436  7.138171
14704  1 47.112784 44.257464  9.993448
14705  1 47.112816 44.257490 12.848742
14721  1 47.112713 47.112713  1.427636
14722  1 47.112722 47.112722  4.282907
14723  1 47.112742 47.112742  7.138182
14724  1 47.112765 47.112765  9.993468
14725  1 47.112784 47.112784 12.848771
14741  1 47.112707 49.968013  1.427639
14742  1 47.112713 49.968022  4.282913
14743  1 47.112727 49.968036  7.138199
14744  1 47.112742 49.968050  9.993491
14745  1 47.112753 49.968065 12.848799
14761  1 47.112702 52.823305  1.427642
14762  1 47.112707 52.823311  4.282922
14763  1 47.112713 52.823319  7.138211
14764  1 47.112722 52.823328  9.993511
14765  1 47.112730 52.823333 12.848819
14781  1 47.112699 55.678591  1.427642
14782  1 47.112702 55.678594  4.282927
14783  1 47.112707 55.678597  7.138219
14784  1 47.112713 55.678597  9.993522
14785  1 47.112716 55.678599 12.848831
15101  1 49.968016 44.257396  1.427636
15102  1 49.968028 44.257404  4.282910
15103  1 49.968045 44.257419  7.138188
15104  1 49.968065 44.257436  9.993479
15105  1 49.968079 44.257450 12.848782
15121  1 49.968013 47.112707  1.427639
15122  1 49.968022 47.112713  4.282913
15123  1 49.968036 47.112727  7.138199
15124  1 49.968050 47.112742  9.993491
15125  1 49.968065 47.112753 12.848799
15141  1 49.968010 49.968010  1.427639
15142  1 49.968016 49.968016  4.282922
15143  1 49.968025 49.968025  7.138208
15144  1 49.968036 49.968036  9.993505
15145  1 49.968045 49.968045 12.848814
15161  1 49.968005 52.823302  1.427642
15162  1 49.968008 52.823305  4.282927
15163  1 49.968016 52.823311  7.138219
15164  1 49.968022 52.823319  9.993519
15165  1 49.968028 52.823325 12.848828
15181  1 49.968002 55.678591  1.427642
15182  1 49.968005 55.678591  4.282930
15183  1 49.968010 55.678594  7.138225
15184  1 49.968013 55.678597  9.993525
15185  1 49.968016 55.678597 12.848837
15501  1 52.823308 44.257393  1.427639
15502  1 52.823314 44.257396  4.282919
15503  1 52.823325 44.257404  7.138205
15504  1 52.823333 44.257413  9.993505
15505  1 52.823342 44.257419 12.848814
15521  1 52.823305 47.112702  1.427642
15522  1 52.823311 47.112707  4.282922
15523  1 52.823319 47.112713  7.138211
15524  1 52.823328 47.112722  9.993511
15525  1 52.823333 47.112730 12.848819
15541  1 52.823302 49.968005  1.427642
15542  1 52.823305 49.968008  4.282927
15543  1 52.823311 49.968016  7.138219
15544  1 52.823319 49.968022  9.993519
15545  1 52.823325 49.968028 12.848828
15561  1 52.823299 52.823299  1.427642
15562  1 52.823302 52.823302  4.282930
15563  1 52.823305 52.823305  7.138225
15564  1 52.823311 52.823311  9.993525
15565  1 52.823314 52.823314 12.848837
15581  1 52.823299 55.678588  1.427644
15582  1 52.823299 55.678591  4.282933
15583  1 52.823302 55.678591  7.138228
15584  1 52.823305 55.678594  9.993531
15585  1 52.823308 55.678594 12.848842
15901  1 55.678591 44.257390  1.427642
15902  1 55.678594 44.257393  4.282925
15903  1 55.678597 44.257396  7.138216
15904  1 55.678599 44.257401  9.993516
15905  1 55.678602 44.257404 12.848828
15921  1 55.678591 47.112699  1.427642
15922  1 55.678594 47.112702  4.282927
15923  1 55.678597 47.112707  7.138219
15924  1 55.678597 47.112713  9.993522
15925  1 55.678599 47.112716 12.848831
15941  1 55.678591 49.968002  1.427642
15942  1 55.678591 49.968005  4.282930
15943  1 55.678594 49.968010  7.138225
15944  1 55.678597 49.968013  9.993525
15945  1 55.678597 49.968016 12.848837
15961  1 55.678588 52.823299  1.427644
15962  1 55.678591 52.823299  4.282933
15963  1 55.678591 52.823302  7.138228
15964  1 55.678594 52.823305  9.993531
15965  1 55.678594 52.823308 12.848842
15981  1 55.678588 55.678588  1.427644
15982  1 55.678588 55.678588  4.282936
15983  1 55.678591 55.678591  7.138231
15984  1 55.678591 55.678591  9.993534
15985  1 55.678591 55.678591 12.848845
5906   1 39.974631 42.829986 14.276247
5926   1 39.974557 45.685234 14.276327
5946   1 39.974494 48.540475 14.276398
5966   1 39.974451 51.395718 14.276452
5986   1 39.974428 54.250972 14.276481
6306   1 42.829940 42.829940 14.276293
6326   1 42.829880 45.685211 14.276353
6346   1 42.829823 48.540466 14.276412
6366   1 42.829777 51.395718 14.276455
6386   1 42.829751 54.250972 14.276481
6706   1 45.685211 42.829880 14.276353
6726   1 45.685172 45.685172 14.276392
6746   1 45.685129 48.540446 14.276430
6766   1 45.685092 51.395709 14.276464
6786   1 45.685069 54.250972 14.276484
7106   1 48.540466 42.829823 14.276412
7126   1 48.540446 45.685129 14.276430
7146   1 48.540417 48.540417 14.276452
7166   1 48.540392 51.395695 14.276475
7186   1 48.540375 54.250966 14.276490
7506   1 51.395718 42.829777 14.276455
7526   1 51.395709 45.685092 14.276464
7546   1 51.395695 48.540392 14.276475
7566   1 51.395681 51.395681 14.276487
7586   1 51.395669 54.250958 14.276495
7906   1 54.250972 42.829751 14.276481
7926   1 54.250972 45.685069 14.276484
7946   1 54.250966 48.540375 14.276490
7966   1 54.250958 51.395669 14.276495
7986   1 54.250952 54.250952 14.276498
15990  1 55.678594 55.678594 27.125455
5907   1 39.974697 42.830054 17.131536
5908   1 39.974737 42.830083 19.986887
5909   1 39.974742 42.830077 22.842287
5910   1 39.974734 42.830063 25.697702
15989  1 55.678594 55.678594 24.270129
5927   1 39.974588 45.685260 17.131644
5928   1 39.974603 45.685263 19.986996
5929   1 39.974600 45.685249 22.842367
5930   1 39.974594 45.685234 25.697742
15988  1 55.678594 55.678594 21.414803
5947   1 39.974505 48.540477 17.131727
5948   1 39.974508 48.540472 19.987070
5949   1 39.974503 48.540457 22.842419
5950   1 39.974497 48.540446 25.697767
15987  1 55.678594 55.678594 18.559480
5967   1 39.974454 51.395718 17.131778
5968   1 39.974451 51.395706 19.987113
5969   1 39.974445 51.395698 22.842447
5970   1 39.974443 51.395689 25.697782
15986  1 55.678594 55.678594 15.704160
5987   1 39.974425 54.250969 17.131807
5988   1 39.974423 54.250966 19.987136
5989   1 39.974417 54.250961 22.842464
5990   1 39.974411 54.250958 25.697790
15970  1 55.678597 52.823311 27.125455
6307   1 42.829986 42.829986 17.131604
6308   1 42.830008 42.830008 19.986959
6309   1 42.830008 42.830008 22.842339
6310   1 42.830003 42.830003 25.697727
15969  1 55.678597 52.823311 24.270129
6327   1 42.829906 45.685234 17.131676
6328   1 42.829917 45.685243 19.987024
6329   1 42.829917 45.685240 22.842387
6330   1 42.829914 45.685234 25.697753
15968  1 55.678597 52.823311 21.414803
6347   1 42.829834 48.540475 17.131738
6348   1 42.829837 48.540475 19.987079
6349   1 42.829834 48.540469 22.842424
6350   1 42.829831 48.540463 25.697770
15967  1 55.678597 52.823311 18.559480
6367   1 42.829780 51.395718 17.131781
6368   1 42.829780 51.395715 19.987113
6369   1 42.829777 51.395712 22.842447
6370   1 42.829774 51.395706 25.697782
15966  1 55.678594 52.823311 15.704157
6387   1 42.829751 54.250972 17.131804
6388   1 42.829749 54.250969 19.987133
6389   1 42.829743 54.250969 22.842462
6390   1 42.829740 54.250966 25.697790
15950  1 55.678599 49.968016 27.125455
6707   1 45.685234 42.829906 17.131676
6708   1 45.685243 42.829917 19.987024
6709   1 45.685240 42.829917 22.842387
6710   1 45.685234 42.829914 25.697753
15949  1 55.678599 49.968019 24.270126
6727   1 45.685189 45.685189 17.131718
6728   1 45.685197 45.685197 19.987061
6729   1 45.685197 45.685197 22.842410
6730   1 45.685194 45.685194 25.697765
15948  1 55.678599 49.968019 21.414800
6747   1 45.685140 48.540455 17.131756
6748   1 45.685143 48.540457 19.987093
6749   1 45.685143 48.540457 22.842433
6750   1 45.685140 48.540455 25.697776
15947  1 55.678599 49.968019 18.559477
6767   1 45.685097 51.395712 17.131787
6768   1 45.685097 51.395712 19.987119
6769   1 45.685094 51.395712 22.842450
6770   1 45.685092 51.395709 25.697785
15946  1 55.678597 49.968019 15.704154
6787   1 45.685069 54.250972 17.131807
6788   1 45.685066 54.250972 19.987133
6789   1 45.685063 54.250969 22.842462
6790   1 45.685063 54.250969 25.697787
15930  1 55.678599 47.112710 27.125452
7107   1 48.540475 42.829834 17.131738
7108   1 48.540475 42.829837 19.987079
7109   1 48.540469 42.829834 22.842424
7110   1 48.540463 42.829831 25.697770
15929  1 55.678602 47.112713 24.270126
7127   1 48.540455 45.685140 17.131756
7128   1 48.540457 45.685143 19.987093
7129   1 48.540457 45.685143 22.842433
7130   1 48.540455 45.685140 25.697776
15928  1 55.678602 47.112713 21.414800
7147   1 48.540426 48.540426 17.131778
7148   1 48.540429 48.540429 19.987110
7149   1 48.540429 48.540429 22.842444
7150   1 48.540426 48.540426 25.697782
15927  1 55.678602 47.112716 18.559474
7167   1 48.540395 51.395701 17.131798
7168   1 48.540397 51.395701 19.987124
7169   1 48.540397 51.395701 22.842456
7170   1 48.540395 51.395701 25.697785
15926  1 55.678602 47.112716 15.704151
7187   1 48.540375 54.250966 17.131810
7188   1 48.540375 54.250966 19.987136
7189   1 48.540375 54.250966 22.842462
7190   1 48.540372 54.250966 25.697790
15910  1 55.678599 44.257393 27.125455
7507   1 51.395718 42.829780 17.131781
7508   1 51.395715 42.829780 19.987113
7509   1 51.395712 42.829777 22.842447
7510   1 51.395706 42.829774 25.697782
15909  1 55.678599 44.257396 24.270126
7527   1 51.395712 45.685097 17.131787
7528   1 51.395712 45.685097 19.987119
7529   1 51.395712 45.685094 22.842450
7530   1 51.395709 45.685092 25.697785
15908  1 55.678602 44.257399 21.414800
7547   1 51.395701 48.540395 17.131798
7548   1 51.395701 48.540397 19.987124
7549   1 51.395701 48.540397 22.842456
7550   1 51.395701 48.540395 25.697785
15907  1 55.678602 44.257401 18.559474
7567   1 51.395683 51.395683 17.131807
7568   1 51.395683 51.395683 19.987133
7569   1 51.395683 51.395683 22.842462
7570   1 51.395683 51.395683 25.697787
15906  1 55.678602 44.257404 15.704148
7587   1 51.395669 54.250961 17.131815
7588   1 51.395669 54.250961 19.987139
7589   1 51.395669 54.250961 22.842464
7590   1 51.395669 54.250961 25.697790
15590  1 52.823311 55.678597 27.125455
7907   1 54.250972 42.829751 17.131804
7908   1 54.250969 42.829749 19.987133
7909   1 54.250969 42.829743 22.842462
7910   1 54.250966 42.829740 25.697790
15589  1 52.823311 55.678597 24.270129
7927   1 54.250972 45.685069 17.131807
7928   1 54.250972 45.685066 19.987133
7929   1 54.250969 45.685063 22.842462
7930   1 54.250969 45.685063 25.697787
15588  1 52.823311 55.678597 21.414803
7947   1 54.250966 48.540375 17.131810
7948   1 54.250966 48.540375 19.987136
7949   1 54.250966 48.540375 22.842462
7950   1 54.250966 48.540372 25.697790
15587  1 52.823311 55.678597 18.559480
7967   1 54.250961 51.395669 17.131815
7968   1 54.250961 51.395669 19.987139
7969   1 54.250961 51.395669 22.842464
7970   1 54.250961 51.395669 25.697790
15586  1 52.823311 55.678594 15.704157
7987   1 54.250955 54.250955 17.131818
7988   1 54.250955 54.250955 19.987141
7989   1 54.250955 54.250955 22.842464
7990   1 54.250955 54.250955 25.697790
13506  1 38.546947 44.257650 15.703920
13507  1 38.546984 44.257678 18.559249
13508  1 38.546998 44.257667 21.414623
13509  1 38.546990 44.257644 24.270020
13510  1 38.546981 44.257627 27.125418
13526  1 38.546864 47.112864 15.704020
13527  1 38.546875 47.112864 18.559357
13528  1 38.546875 47.112844 21.414714
13529  1 38.546867 47.112824 24.270075
13530  1 38.546861 47.112813 27.125438
13546  1 38.546807 49.968093 15.704088
13547  1 38.546810 49.968085 18.559423
13548  1 38.546804 49.968070 21.414766
13549  1 38.546798 49.968056 24.270106
13550  1 38.546793 49.968048 27.125446
13566  1 38.546773 52.823342 15.704134
13567  1 38.546770 52.823333 18.559463
13568  1 38.546767 52.823325 21.414794
13569  1 38.546761 52.823316 24.270123
13570  1 38.546755 52.823311 27.125452
13586  1 38.546758 55.678602 15.704154
13587  1 38.546753 55.678599 18.559480
13588  1 38.546747 55.678594 21.414806
13589  1 38.546744 55.678591 24.270132
13590  1 38.546741 55.678591 27.125455
13906  1 41.402278 44.257621 15.703954
13907  1 41.402313 44.257650 18.559286
13908  1 41.402321 44.257653 21.414657
13909  1 41.402318 44.257644 24.270040
13910  1 41.402313 44.257638 27.125423
13926  1 41.402201 47.112859 15.704031
13927  1 41.402213 47.112864 18.559368
13928  1 41.402216 47.112859 21.414723
13929  1 41.402210 47.112850 24.270080
13930  1 41.402207 47.112844 27.125438
13946  1 41.402141 49.968096 15.704091
13947  1 41.402144 49.968093 18.559426
13948  1 41.402141 49.968088 21.414766
13949  1 41.402136 49.968079 24.270106
13950  1 41.402133 49.968073 27.125446
13966  1 41.402101 52.823345 15.704131
13967  1 41.402101 52.823342 18.559460
13968  1 41.402096 52.823336 21.414791
13969  1 41.402090 52.823331 24.270123
13970  1 41.402087 52.823328 27.125452
13986  1 41.402084 55.678602 15.704151
13987  1 41.402078 55.678602 18.559474
13988  1 41.402076 55.678599 21.414803
13989  1 41.402070 55.678597 24.270129
13990  1 41.402067 55.678597 27.125455
14306  1 44.257573 44.257573 15.704003
14307  1 44.257590 44.257590 18.559340
14308  1 44.257596 44.257596 21.414700
14309  1 44.257593 44.257593 24.270066
14310  1 44.257590 44.257590 27.125432
14326  1 44.257513 47.112836 15.704057
14327  1 44.257524 47.112844 18.559391
14328  1 44.257524 47.112844 21.414740
14329  1 44.257524 47.112842 24.270089
14330  1 44.257521 47.112839 27.125440
14346  1 44.257459 49.968090 15.704103
14347  1 44.257464 49.968090 18.559434
14348  1 44.257464 49.968090 21.414771
14349  1 44.257461 49.968088 24.270109
14350  1 44.257459 49.968085 27.125446
14366  1 44.257421 52.823345 15.704134
14367  1 44.257421 52.823345 18.559460
14368  1 44.257419 52.823342 21.414791
14369  1 44.257416 52.823339 24.270120
14370  1 44.257416 52.823339 27.125452
14386  1 44.257404 55.678602 15.704148
14387  1 44.257401 55.678602 18.559474
14388  1 44.257399 55.678602 21.414800
14389  1 44.257396 55.678599 24.270126
14390  1 44.257393 55.678599 27.125455
14706  1 47.112836 44.257513 15.704057
14707  1 47.112844 44.257524 18.559391
14708  1 47.112844 44.257524 21.414740
14709  1 47.112842 44.257524 24.270089
14710  1 47.112839 44.257521 27.125440
14726  1 47.112799 47.112799 15.704088
14727  1 47.112807 47.112807 18.559420
14728  1 47.112807 47.112807 21.414760
14729  1 47.112807 47.112807 24.270103
14730  1 47.112807 47.112807 27.125446
14746  1 47.112762 49.968073 15.704117
14747  1 47.112767 49.968076 18.559446
14748  1 47.112767 49.968076 21.414780
14749  1 47.112765 49.968076 24.270115
14750  1 47.112765 49.968076 27.125449
14766  1 47.112733 52.823336 15.704140
14767  1 47.112733 52.823339 18.559466
14768  1 47.112733 52.823339 21.414794
14769  1 47.112730 52.823339 24.270123
14770  1 47.112730 52.823336 27.125452
14786  1 47.112716 55.678602 15.704151
14787  1 47.112716 55.678602 18.559474
14788  1 47.112713 55.678602 21.414800
14789  1 47.112713 55.678602 24.270126
14790  1 47.112710 55.678599 27.125452
15106  1 49.968090 44.257459 15.704103
15107  1 49.968090 44.257464 18.559434
15108  1 49.968090 44.257464 21.414771
15109  1 49.968088 44.257461 24.270109
15110  1 49.968085 44.257459 27.125446
15126  1 49.968073 47.112762 15.704117
15127  1 49.968076 47.112767 18.559446
15128  1 49.968076 47.112767 21.414780
15129  1 49.968076 47.112765 24.270115
15130  1 49.968076 47.112765 27.125449
15146  1 49.968050 49.968050 15.704134
15147  1 49.968053 49.968053 18.559460
15148  1 49.968053 49.968053 21.414789
15149  1 49.968053 49.968053 24.270120
15150  1 49.968053 49.968053 27.125452
15166  1 49.968030 52.823328 15.704145
15167  1 49.968030 52.823328 18.559471
15168  1 49.968030 52.823328 21.414797
15169  1 49.968030 52.823328 24.270126
15170  1 49.968030 52.823328 27.125452
15186  1 49.968019 55.678597 15.704154
15187  1 49.968019 55.678599 18.559477
15188  1 49.968019 55.678599 21.414800
15189  1 49.968019 55.678599 24.270126
15190  1 49.968016 55.678599 27.125455
15506  1 52.823345 44.257421 15.704134
15507  1 52.823345 44.257421 18.559460
15508  1 52.823342 44.257419 21.414791
15509  1 52.823339 44.257416 24.270120
15510  1 52.823339 44.257416 27.125452
15526  1 52.823336 47.112733 15.704140
15527  1 52.823339 47.112733 18.559466
15528  1 52.823339 47.112733 21.414794
15529  1 52.823339 47.112730 24.270123
15530  1 52.823336 47.112730 27.125452
15546  1 52.823328 49.968030 15.704145
15547  1 52.823328 49.968030 18.559471
15548  1 52.823328 49.968030 21.414797
15549  1 52.823328 49.968030 24.270126
15550  1 52.823328 49.968030 27.125452
15566  1 52.823316 52.823316 15.704154
15567  1 52.823316 52.823316 18.559477
15568  1 52.823316 52.823316 21.414800
15569  1 52.823316 52.823316 24.270126
15570  1 52.823316 52.823316 27.125452
5911   1 39.974728 42.830057 28.553116
5912   1 39.974734 42.830063 31.408531
5913   1 39.974742 42.830077 34.263945
5914   1 39.974737 42.830083 37.119345
5915   1 39.974697 42.830054 39.974697
5931   1 39.974588 45.685231 28.553116
5932   1 39.974594 45.685234 31.408491
5933   1 39.974600 45.685249 34.263865
5934   1 39.974603 45.685263 37.119237
5935   1 39.974588 45.685260 39.974588
5951   1 39.974494 48.540443 28.553116
5952   1 39.974497 48.540446 31.408465
5953   1 39.974503 48.540457 34.263814
5954   1 39.974508 48.540472 37.119162
5955   1 39.974505 48.540477 39.974505
5971   1 39.974440 51.395689 28.553116
5972   1 39.974443 51.395689 31.408451
5973   1 39.974445 51.395698 34.263785
5974   1 39.974451 51.395706 37.119120
5975   1 39.974454 51.395718 39.974454
5991   1 39.974411 54.250955 28.553116
5992   1 39.974411 54.250958 31.408442
5993   1 39.974417 54.250961 34.263768
5994   1 39.974423 54.250966 37.119097
5995   1 39.974425 54.250969 39.974425
6311   1 42.830000 42.830000 28.553116
6312   1 42.830003 42.830003 31.408505
6313   1 42.830008 42.830008 34.263894
6314   1 42.830008 42.830008 37.119277
6315   1 42.829986 42.829986 39.974631
6331   1 42.829911 45.685231 28.553116
6332   1 42.829914 45.685234 31.408482
6333   1 42.829917 45.685240 34.263845
6334   1 42.829917 45.685243 37.119208
6335   1 42.829906 45.685234 39.974557
6351   1 42.829828 48.540460 28.553116
6352   1 42.829831 48.540463 31.408462
6353   1 42.829834 48.540469 34.263808
6354   1 42.829837 48.540475 37.119154
6355   1 42.829834 48.540475 39.974494
6371   1 42.829771 51.395706 28.553116
6372   1 42.829774 51.395706 31.408451
6373   1 42.829777 51.395712 34.263785
6374   1 42.829780 51.395715 37.119120
6375   1 42.829780 51.395718 39.974451
6391   1 42.829740 54.250966 28.553116
6392   1 42.829740 54.250966 31.408445
6393   1 42.829743 54.250969 34.263771
6394   1 42.829749 54.250969 37.119100
6395   1 42.829751 54.250972 39.974428
6711   1 45.685231 42.829911 28.553116
6712   1 45.685234 42.829914 31.408482
6713   1 45.685240 42.829917 34.263845
6714   1 45.685243 42.829917 37.119208
6715   1 45.685234 42.829906 39.974557
6731   1 45.685194 45.685194 28.553116
6732   1 45.685194 45.685194 31.408468
6733   1 45.685197 45.685197 34.263822
6734   1 45.685197 45.685197 37.119174
6735   1 45.685189 45.685189 39.974517
6751   1 45.685140 48.540455 28.553116
6752   1 45.685140 48.540455 31.408456
6753   1 45.685143 48.540457 34.263799
6754   1 45.685143 48.540457 37.119140
6755   1 45.685140 48.540455 39.974477
6771   1 45.685092 51.395709 28.553116
6772   1 45.685092 51.395709 31.408448
6773   1 45.685094 51.395712 34.263782
6774   1 45.685097 51.395712 37.119114
6775   1 45.685097 51.395712 39.974445
6791   1 45.685060 54.250969 28.553116
6792   1 45.685063 54.250969 31.408445
6793   1 45.685063 54.250969 34.263771
6794   1 45.685066 54.250972 37.119100
6795   1 45.685069 54.250972 39.974425
7111   1 48.540460 42.829828 28.553116
7112   1 48.540463 42.829831 31.408462
7113   1 48.540469 42.829834 34.263808
7114   1 48.540475 42.829837 37.119154
7115   1 48.540475 42.829834 39.974494
7131   1 48.540455 45.685140 28.553116
7132   1 48.540455 45.685140 31.408456
7133   1 48.540457 45.685143 34.263799
7134   1 48.540457 45.685143 37.119140
7135   1 48.540455 45.685140 39.974477
7151   1 48.540426 48.540426 28.553116
7152   1 48.540426 48.540426 31.408451
7153   1 48.540429 48.540429 34.263788
7154   1 48.540429 48.540429 37.119122
7155   1 48.540426 48.540426 39.974454
7171   1 48.540395 51.395701 28.553116
7172   1 48.540395 51.395701 31.408448
7173   1 48.540397 51.395701 34.263777
7174   1 48.540397 51.395701 37.119108
7175   1 48.540395 51.395701 39.974437
7191   1 48.540372 54.250966 28.553116
7192   1 48.540372 54.250966 31.408445
7193   1 48.540375 54.250966 34.263771
7194   1 48.540375 54.250966 37.119097
7195   1 48.540375 54.250966 39.974423
7511   1 51.395706 42.829771 28.553116
7512   1 51.395706 42.829774 31.408451
7513   1 51.395712 42.829777 34.263785
7514   1 51.395715 42.829780 37.119120
7515   1 51.395718 42.829780 39.974451
7531   1 51.395709 45.685092 28.553116
7532   1 51.395709 45.685092 31.408448
7533   1 51.395712 45.685094 34.263782
7534   1 51.395712 45.685097 37.119114
7535   1 51.395712 45.685097 39.974445
7551   1 51.395701 48.540395 28.553116
7552   1 51.395701 48.540395 31.408448
7553   1 51.395701 48.540397 34.263777
7554   1 51.395701 48.540397 37.119108
7555   1 51.395701 48.540395 39.974437
7571   1 51.395683 51.395683 28.553116
7572   1 51.395683 51.395683 31.408445
7573   1 51.395683 51.395683 34.263774
7574   1 51.395683 51.395683 37.119100
7575   1 51.395683 51.395683 39.974425
7591   1 51.395669 54.250961 28.553116
7592   1 51.395669 54.250961 31.408442
7593   1 51.395669 54.250961 34.263768
7594   1 51.395669 54.250961 37.119094
7595   1 51.395669 54.250961 39.974417
7911   1 54.250966 42.829740 28.553116
7912   1 54.250966 42.829740 31.408445
7913   1 54.250969 42.829743 34.263771
7914   1 54.250969 42.829749 37.119100
7915   1 54.250972 42.829751 39.974428
7931   1 54.250969 45.685060 28.553116
7932   1 54.250969 45.685063 31.408445
7933   1 54.250969 45.685063 34.263771
7934   1 54.250972 45.685066 37.119100
7935   1 54.250972 45.685069 39.974425
7951   1 54.250966 48.540372 28.553116
7952   1 54.250966 48.540372 31.408445
7953   1 54.250966 48.540375 34.263771
7954   1 54.250966 48.540375 37.119097
7955   1 54.250966 48.540375 39.974423
7971   1 54.250961 51.395669 28.553116
7972   1 54.250961 51.395669 31.408442
7973   1 54.250961 51.395669 34.263768
7974   1 54.250961 51.395669 37.119094
7975   1 54.250961 51.395669 39.974417
7991   1 54.250955 54.250955 28.553116
7992   1 54.250955 54.250955 31.408442
7993   1 54.250955 54.250955 34.263768
7994   1 54.250955 54.250955 37.119091
7995   1 54.250955 54.250955 39.974414
13511  1 38.546981 44.257627 29.980815
13512  1 38.546990 44.257644 32.836212
13513  1 38.546998 44.257667 35.691609
13514  1 38.546984 44.257678 38.546984
13515  1 38.546947 44.257650 41.402313
13531  1 38.546861 47.112813 29.980795
13532  1 38.546867 47.112824 32.836158
13533  1 38.546875 47.112844 35.691521
13534  1 38.546875 47.112864 38.546875
13535  1 38.546864 47.112864 41.402213
13551  1 38.546793 49.968048 29.980786
13552  1 38.546798 49.968056 32.836126
13553  1 38.546804 49.968070 35.691467
13554  1 38.546810 49.968085 38.546810
13555  1 38.546807 49.968093 41.402144
13571  1 38.546755 52.823311 29.980781
13572  1 38.546761 52.823316 32.836109
13573  1 38.546767 52.823325 35.691438
13574  1 38.546770 52.823333 38.546770
13575  1 38.546773 52.823342 41.402101
13591  1 38.546741 55.678591 29.980778
13592  1 38.546744 55.678591 32.836101
13593  1 38.546747 55.678594 35.691427
13594  1 38.546753 55.678599 38.546753
13595  1 38.546758 55.678602 41.402078
13911  1 41.402313 44.257638 29.980809
13912  1 41.402318 44.257644 32.836192
13913  1 41.402321 44.257653 35.691578
13914  1 41.402313 44.257650 38.546947
13915  1 41.402278 44.257621 41.402278
13931  1 41.402207 47.112844 29.980795
13932  1 41.402210 47.112850 32.836152
13933  1 41.402216 47.112859 35.691512
13934  1 41.402213 47.112864 38.546864
13935  1 41.402201 47.112859 41.402201
13951  1 41.402133 49.968073 29.980786
13952  1 41.402136 49.968079 32.836126
13953  1 41.402141 49.968088 35.691467
13954  1 41.402144 49.968093 38.546807
13955  1 41.402141 49.968096 41.402141
13971  1 41.402087 52.823328 29.980781
13972  1 41.402090 52.823331 32.836112
13973  1 41.402096 52.823336 35.691441
13974  1 41.402101 52.823342 38.546773
13975  1 41.402101 52.823345 41.402101
13991  1 41.402067 55.678597 29.980778
13992  1 41.402070 55.678597 32.836104
13993  1 41.402076 55.678599 35.691430
13994  1 41.402078 55.678602 38.546758
13995  1 41.402084 55.678602 41.402084
14311  1 44.257590 44.257590 29.980801
14312  1 44.257593 44.257593 32.836166
14313  1 44.257596 44.257596 35.691535
14314  1 44.257590 44.257590 38.546892
14315  1 44.257573 44.257573 41.402230
14331  1 44.257521 47.112839 29.980792
14332  1 44.257524 47.112842 32.836144
14333  1 44.257524 47.112844 35.691492
14334  1 44.257524 47.112844 38.546841
14335  1 44.257513 47.112836 41.402176
14351  1 44.257459 49.968085 29.980786
14352  1 44.257461 49.968088 32.836124
14353  1 44.257464 49.968090 35.691464
14354  1 44.257464 49.968090 38.546798
14355  1 44.257459 49.968090 41.402130
14371  1 44.257416 52.823339 29.980781
14372  1 44.257416 52.823339 32.836112
14373  1 44.257419 52.823342 35.691441
14374  1 44.257421 52.823345 38.546773
14375  1 44.257421 52.823345 41.402098
14391  1 44.257393 55.678599 29.980781
14392  1 44.257396 55.678599 32.836106
14393  1 44.257399 55.678602 35.691432
14394  1 44.257401 55.678602 38.546758
14395  1 44.257404 55.678602 41.402084
14711  1 47.112839 44.257521 29.980792
14712  1 47.112842 44.257524 32.836144
14713  1 47.112844 44.257524 35.691492
14714  1 47.112844 44.257524 38.546841
14715  1 47.112836 44.257513 41.402176
14731  1 47.112807 47.112807 29.980786
14732  1 47.112807 47.112807 32.836129
14733  1 47.112807 47.112807 35.691472
14734  1 47.112807 47.112807 38.546813
14735  1 47.112799 47.112799 41.402144
14751  1 47.112765 49.968076 29.980783
14752  1 47.112765 49.968076 32.836118
14753  1 47.112767 49.968076 35.691452
14754  1 47.112767 49.968076 38.546787
14755  1 47.112762 49.968073 41.402116
14771  1 47.112730 52.823336 29.980781
14772  1 47.112730 52.823339 32.836109
14773  1 47.112733 52.823339 35.691441
14774  1 47.112733 52.823339 38.546770
14775  1 47.112733 52.823336 41.402093
14791  1 47.112710 55.678599 29.980781
14792  1 47.112713 55.678602 32.836106
14793  1 47.112713 55.678602 35.691432
14794  1 47.112716 55.678602 38.546758
14795  1 47.112716 55.678602 41.402081
15111  1 49.968085 44.257459 29.980786
15112  1 49.968088 44.257461 32.836124
15113  1 49.968090 44.257464 35.691464
15114  1 49.968090 44.257464 38.546798
15115  1 49.968090 44.257459 41.402130
15131  1 49.968076 47.112765 29.980783
15132  1 49.968076 47.112765 32.836118
15133  1 49.968076 47.112767 35.691452
15134  1 49.968076 47.112767 38.546787
15135  1 49.968073 47.112762 41.402116
15151  1 49.968053 49.968053 29.980781
15152  1 49.968053 49.968053 32.836112
15153  1 49.968053 49.968053 35.691444
15154  1 49.968053 49.968053 38.546773
15155  1 49.968050 49.968050 41.402098
15171  1 49.968030 52.823328 29.980781
15172  1 49.968030 52.823328 32.836109
15173  1 49.968030 52.823328 35.691435
15174  1 49.968030 52.823328 38.546761
15175  1 49.968030 52.823328 41.402087
15191  1 49.968016 55.678599 29.980781
15192  1 49.968019 55.678599 32.836106
15193  1 49.968019 55.678599 35.691432
15194  1 49.968019 55.678599 38.546755
15195  1 49.968019 55.678597 41.402078
15511  1 52.823339 44.257416 29.980781
15512  1 52.823339 44.257416 32.836112
15513  1 52.823342 44.257419 35.691441
15514  1 52.823345 44.257421 38.546773
15515  1 52.823345 44.257421 41.402098
15531  1 52.823336 47.112730 29.980781
15532  1 52.823339 47.112730 32.836109
15533  1 52.823339 47.112733 35.691441
15534  1 52.823339 47.112733 38.546770
15535  1 52.823336 47.112733 41.402093
15551  1 52.823328 49.968030 29.980781
15552  1 52.823328 49.968030 32.836109
15553  1 52.823328 49.968030 35.691435
15554  1 52.823328 49.968030 38.546761
15555  1 52.823328 49.968030 41.402087
15571  1 52.823316 52.823316 29.980781
15572  1 52.823316 52.823316 32.836106
15573  1 52.823316 52.823316 35.691432
15574  1 52.823316 52.823316 38.546758
15575  1 52.823316 52.823316 41.402078
15591  1 52.823311 55.678597 29.980781
15592  1 52.823311 55.678597 32.836104
15593  1 52.823311 55.678597 35.691430
15594  1 52.823311 55.678597 38.546753
15595  1 52.823311 55.678594 41.402076
15911  1 55.678599 44.257393 29.980781
15912  1 55.678599 44.257396 32.836106
15913  1 55.678602 44.257399 35.691432
15914  1 55.678602 44.257401 38.546758
15915  1 55.678602 44.257404 41.402084
15931  1 55.678599 47.112710 29.980781
15932  1 55.678602 47.112713 32.836106
15933  1 55.678602 47.112713 35.691432
15934  1 55.678602 47.112716 38.546758
15935  1 55.678602 47.112716 41.402081
15951  1 55.678599 49.968016 29.980781
15952  1 55.678599 49.968019 32.836106
15953  1 55.678599 49.968019 35.691432
15954  1 55.678599 49.968019 38.546755
15955  1 55.678597 49.968019 41.402078
15971  1 55.678597 52.823311 29.980781
15972  1 55.678597 52.823311 32.836104
15973  1 55.678597 52.823311 35.691430
15974  1 55.678597 52.823311 38.546753
15975  1 55.678594 52.823311 41.402076
15991  1 55.678594 55.678594 29.980778
15992  1 55.678594 55.678594 32.836104
15993  1 55.678594 55.678594 35.691430
15994  1 55.678594 55.678594 38.546753
15995  1 55.678594 55.678594 41.402073
5916   1 39.974631 42.829986 42.829986
5917   1 39.974557 42.829906 45.685234
5918   1 39.974494 42.829834 48.540475
5919   1 39.974451 42.829780 51.395718
5920   1 39.974428 42.829751 54.250972
5936   1 39.974557 45.685234 42.829906
5937   1 39.974517 45.685189 45.685189
5938   1 39.974477 45.685140 48.540455
5939   1 39.974445 45.685097 51.395712
5940   1 39.974425 45.685069 54.250972
5956   1 39.974494 48.540475 42.829834
5957   1 39.974477 48.540455 45.685140
5958   1 39.974454 48.540426 48.540426
5959   1 39.974437 48.540395 51.395701
5960   1 39.974423 48.540375 54.250966
5976   1 39.974451 51.395718 42.829780
5977   1 39.974445 51.395712 45.685097
5978   1 39.974437 51.395701 48.540395
5979   1 39.974425 51.395683 51.395683
5980   1 39.974417 51.395669 54.250961
5996   1 39.974428 54.250972 42.829751
5997   1 39.974425 54.250972 45.685069
5998   1 39.974423 54.250966 48.540375
5999   1 39.974417 54.250961 51.395669
6000   1 39.974414 54.250955 54.250955
6316   1 42.829940 42.829940 42.829940
6317   1 42.829880 42.829880 45.685211
6318   1 42.829823 42.829823 48.540466
6319   1 42.829777 42.829777 51.395718
6320   1 42.829751 42.829751 54.250972
6336   1 42.829880 45.685211 42.829880
6337   1 42.829843 45.685172 45.685172
6338   1 42.829803 45.685129 48.540446
6339   1 42.829769 45.685092 51.395709
6340   1 42.829749 45.685069 54.250972
6356   1 42.829823 48.540466 42.829823
6357   1 42.829803 48.540446 45.685129
6358   1 42.829780 48.540417 48.540417
6359   1 42.829757 48.540392 51.395695
6360   1 42.829743 48.540375 54.250966
6376   1 42.829777 51.395718 42.829777
6377   1 42.829769 51.395709 45.685092
6378   1 42.829757 51.395695 48.540392
6379   1 42.829746 51.395681 51.395681
6380   1 42.829737 51.395669 54.250958
6396   1 42.829751 54.250972 42.829751
6397   1 42.829749 54.250972 45.685069
6398   1 42.829743 54.250966 48.540375
6399   1 42.829737 54.250958 51.395669
6400   1 42.829734 54.250952 54.250952
6716   1 45.685211 42.829880 42.829880
6717   1 45.685172 42.829843 45.685172
6718   1 45.685129 42.829803 48.540446
6719   1 45.685092 42.829769 51.395709
6720   1 45.685069 42.829749 54.250972
6736   1 45.685172 45.685172 42.829843
6737   1 45.685146 45.685146 45.685146
6738   1 45.685112 45.685112 48.540429
6739   1 45.685083 45.685083 51.395701
6740   1 45.685066 45.685066 54.250966
6756   1 45.685129 48.540446 42.829803
6757   1 45.685112 48.540429 45.685112
6758   1 45.685092 48.540406 48.540406
6759   1 45.685072 48.540386 51.395689
6760   1 45.685060 48.540369 54.250964
6776   1 45.685092 51.395709 42.829769
6777   1 45.685083 51.395701 45.685083
6778   1 45.685072 51.395689 48.540386
6779   1 45.685060 51.395675 51.395675
6780   1 45.685052 51.395666 54.250955
6796   1 45.685069 54.250972 42.829749
6797   1 45.685066 54.250966 45.685066
6798   1 45.685060 54.250964 48.540369
6799   1 45.685052 54.250955 51.395666
6800   1 45.685049 54.250952 54.250952
7116   1 48.540466 42.829823 42.829823
7117   1 48.540446 42.829803 45.685129
7118   1 48.540417 42.829780 48.540417
7119   1 48.540392 42.829757 51.395695
7120   1 48.540375 42.829743 54.250966
7136   1 48.540446 45.685129 42.829803
7137   1 48.540429 45.685112 45.685112
7138   1 48.540406 45.685092 48.540406
7139   1 48.540386 45.685072 51.395689
7140   1 48.540369 45.685060 54.250964
7156   1 48.540417 48.540417 42.829780
7157   1 48.540406 48.540406 45.685092
7158   1 48.540392 48.540392 48.540392
7159   1 48.540375 48.540375 51.395678
7160   1 48.540366 48.540366 54.250958
7176   1 48.540392 51.395695 42.829757
7177   1 48.540386 51.395689 45.685072
7178   1 48.540375 51.395678 48.540375
7179   1 48.540366 51.395669 51.395669
7180   1 48.540358 51.395661 54.250952
7196   1 48.540375 54.250966 42.829743
7197   1 48.540369 54.250964 45.685060
7198   1 48.540366 54.250958 48.540366
7199   1 48.540358 54.250952 51.395661
7200   1 48.540355 54.250949 54.250949
7516   1 51.395718 42.829777 42.829777
7517   1 51.395709 42.829769 45.685092
7518   1 51.395695 42.829757 48.540392
7519   1 51.395681 42.829746 51.395681
7520   1 51.395669 42.829737 54.250958
7536   1 51.395709 45.685092 42.829769
7537   1 51.395701 45.685083 45.685083
7538   1 51.395689 45.685072 48.540386
7539   1 51.395675 45.685060 51.395675
7540   1 51.395666 45.685052 54.250955
7556   1 51.395695 48.540392 42.829757
7557   1 51.395689 48.540386 45.685072
7558   1 51.395678 48.540375 48.540375
7559   1 51.395669 48.540366 51.395669
7560   1 51.395661 48.540358 54.250952
7576   1 51.395681 51.395681 42.829746
7577   1 51.395675 51.395675 45.685060
7578   1 51.395669 51.395669 48.540366
7579   1 51.395661 51.395661 51.395661
7580   1 51.395658 51.395658 54.250949
7596   1 51.395669 54.250958 42.829737
7597   1 51.395666 54.250955 45.685052
7598   1 51.395661 54.250952 48.540358
7599   1 51.395658 54.250949 51.395658
7600   1 51.395652 54.250946 54.250946
7916   1 54.250972 42.829751 42.829751
7917   1 54.250972 42.829749 45.685069
7918   1 54.250966 42.829743 48.540375
7919   1 54.250958 42.829737 51.395669
7920   1 54.250952 42.829734 54.250952
7936   1 54.250972 45.685069 42.829749
7937   1 54.250966 45.685066 45.685066
7938   1 54.250964 45.685060 48.540369
7939   1 54.250955 45.685052 51.395666
7940   1 54.250952 45.685049 54.250952
7956   1 54.250966 48.540375 42.829743
7957   1 54.250964 48.540369 45.685060
7958   1 54.250958 48.540366 48.540366
7959   1 54.250952 48.540358 51.395661
7960   1 54.250949 48.540355 54.250949
7976   1 54.250958 51.395669 42.829737
7977   1 54.250955 51.395666 45.685052
7978   1 54.250952 51.395661 48.540358
7979   1 54.250949 51.395658 51.395658
7980   1 54.250946 51.395652 54.250946
7996   1 54.250952 54.250952 42.829734
7997   1 54.250952 54.250952 45.685049
7998   1 54.250949 54.250949 48.540355
7999   1 54.250946 54.250946 51.395652
8000   1 54.250944 54.250944 54.250944
13516  1 38.546892 44.257590 44.257590
13517  1 38.546841 44.257524 47.112844
13518  1 38.546798 44.257464 49.968090
13519  1 38.546773 44.257421 52.823345
13520  1 38.546758 44.257401 55.678602
13536  1 38.546841 47.112844 44.257524
13537  1 38.546813 47.112807 47.112807
13538  1 38.546787 47.112767 49.968076
13539  1 38.546770 47.112733 52.823339
13540  1 38.546758 47.112716 55.678602
13556  1 38.546798 49.968090 44.257464
13557  1 38.546787 49.968076 47.112767
13558  1 38.546773 49.968053 49.968053
13559  1 38.546761 49.968030 52.823328
13560  1 38.546755 49.968019 55.678599
13576  1 38.546773 52.823345 44.257421
13577  1 38.546770 52.823339 47.112733
13578  1 38.546761 52.823328 49.968030
13579  1 38.546758 52.823316 52.823316
13580  1 38.546753 52.823311 55.678597
13596  1 38.546758 55.678602 44.257401
13597  1 38.546758 55.678602 47.112716
13598  1 38.546755 55.678599 49.968019
13599  1 38.546753 55.678597 52.823311
13600  1 38.546753 55.678594 55.678594
13916  1 41.402230 44.257573 44.257573
13917  1 41.402176 44.257513 47.112836
13918  1 41.402130 44.257459 49.968090
13919  1 41.402098 44.257421 52.823345
13920  1 41.402084 44.257404 55.678602
13936  1 41.402176 47.112836 44.257513
13937  1 41.402144 47.112799 47.112799
13938  1 41.402116 47.112762 49.968073
13939  1 41.402093 47.112733 52.823336
13940  1 41.402081 47.112716 55.678602
13956  1 41.402130 49.968090 44.257459
13957  1 41.402116 49.968073 47.112762
13958  1 41.402098 49.968050 49.968050
13959  1 41.402087 49.968030 52.823328
13960  1 41.402078 49.968019 55.678597
13976  1 41.402098 52.823345 44.257421
13977  1 41.402093 52.823336 47.112733
13978  1 41.402087 52.823328 49.968030
13979  1 41.402078 52.823316 52.823316
13980  1 41.402076 52.823311 55.678594
13996  1 41.402084 55.678602 44.257404
13997  1 41.402081 55.678602 47.112716
13998  1 41.402078 55.678597 49.968019
13999  1 41.402076 55.678594 52.823311
14000  1 41.402073 55.678594 55.678594
14316  1 44.257536 44.257536 44.257536
14317  1 44.257490 44.257490 47.112816
14318  1 44.257450 44.257450 49.968079
14319  1 44.257419 44.257419 52.823342
14320  1 44.257404 44.257404 55.678602
14336  1 44.257490 47.112816 44.257490
14337  1 44.257464 47.112784 47.112784
14338  1 44.257436 47.112753 49.968065
14339  1 44.257413 47.112730 52.823333
14340  1 44.257401 47.112716 55.678599
14356  1 44.257450 49.968079 44.257450
14357  1 44.257436 49.968065 47.112753
14358  1 44.257419 49.968045 49.968045
14359  1 44.257404 49.968028 52.823325
14360  1 44.257396 49.968016 55.678597
14376  1 44.257419 52.823342 44.257419
14377  1 44.257413 52.823333 47.112730
14378  1 44.257404 52.823325 49.968028
14379  1 44.257396 52.823314 52.823314
14380  1 44.257393 52.823308 55.678594
14396  1 44.257404 55.678602 44.257404
14397  1 44.257401 55.678599 47.112716
14398  1 44.257396 55.678597 49.968016
14399  1 44.257393 55.678594 52.823308
14400  1 44.257390 55.678591 55.678591
14716  1 47.112816 44.257490 44.257490
14717  1 47.112784 44.257464 47.112784
14718  1 47.112753 44.257436 49.968065
14719  1 47.112730 44.257413 52.823333
14720  1 47.112716 44.257401 55.678599
14736  1 47.112784 47.112784 44.257464
14737  1 47.112765 47.112765 47.112765
14738  1 47.112742 47.112742 49.968050
14739  1 47.112722 47.112722 52.823328
14740  1 47.112713 47.112713 55.678597
14756  1 47.112753 49.968065 44.257436
14757  1 47.112742 49.968050 47.112742
14758  1 47.112727 49.968036 49.968036
14759  1 47.112713 49.968022 52.823319
14760  1 47.112707 49.968013 55.678597
14776  1 47.112730 52.823333 44.257413
14777  1 47.112722 52.823328 47.112722
14778  1 47.112713 52.823319 49.968022
14779  1 47.112707 52.823311 52.823311
14780  1 47.112702 52.823305 55.678594
14796  1 47.112716 55.678599 44.257401
14797  1 47.112713 55.678597 47.112713
14798  1 47.112707 55.678597 49.968013
14799  1 47.112702 55.678594 52.823305
14800  1 47.112699 55.678591 55.678591
15116  1 49.968079 44.257450 44.257450
15117  1 49.968065 44.257436 47.112753
15118  1 49.968045 44.257419 49.968045
15119  1 49.968028 44.257404 52.823325
15120  1 49.968016 44.257396 55.678597
15136  1 49.968065 47.112753 44.257436
15137  1 49.968050 47.112742 47.112742
15138  1 49.968036 47.112727 49.968036
15139  1 49.968022 47.112713 52.823319
15140  1 49.968013 47.112707 55.678597
15156  1 49.968045 49.968045 44.257419
15157  1 49.968036 49.968036 47.112727
15158  1 49.968025 49.968025 49.968025
15159  1 49.968016 49.968016 52.823311
15160  1 49.968010 49.968010 55.678594
15176  1 49.968028 52.823325 44.257404
15177  1 49.968022 52.823319 47.112713
15178  1 49.968016 52.823311 49.968016
15179  1 49.968008 52.823305 52.823305
15180  1 49.968005 52.823302 55.678591
15196  1 49.968016 55.678597 44.257396
15197  1 49.968013 55.678597 47.112707
15198  1 49.968010 55.678594 49.968010
15199  1 49.968005 55.678591 52.823302
15200  1 49.968002 55.678591 55.678591
15516  1 52.823342 44.257419 44.257419
15517  1 52.823333 44.257413 47.112730
15518  1 52.823325 44.257404 49.968028
15519  1 52.823314 44.257396 52.823314
15520  1 52.823308 44.257393 55.678594
15536  1 52.823333 47.112730 44.257413
15537  1 52.823328 47.112722 47.112722
15538  1 52.823319 47.112713 49.968022
15539  1 52.823311 47.112707 52.823311
15540  1 52.823305 47.112702 55.678594
15556  1 52.823325 49.968028 44.257404
15557  1 52.823319 49.968022 47.112713
15558  1 52.823311 49.968016 49.968016
15559  1 52.823305 49.968008 52.823305
15560  1 52.823302 49.968005 55.678591
15576  1 52.823314 52.823314 44.257396
15577  1 52.823311 52.823311 47.112707
15578  1 52.823305 52.823305 49.968008
15579  1 52.823302 52.823302 52.823302
15580  1 52.823299 52.823299 55.678591
15596  1 52.823308 55.678594 44.257393
15597  1 52.823305 55.678594 47.112702
15598  1 52.823302 55.678591 49.968005
15599  1 52.823299 55.678591 52.823299
15600  1 52.823299 55.678588 55.678588
15916  1 55.678602 44.257404 44.257404
15917  1 55.678599 44.257401 47.112716
15918  1 55.678597 44.257396 49.968016
15919  1 55.678594 44.257393 52.823308
15920  1 55.678591 44.257390 55.678591
15936  1 55.678599 47.112716 44.257401
15937  1 55.678597 47.112713 47.112713
15938  1 55.678597 47.112707 49.968013
15939  1 55.678594 47.112702 52.823305
15940  1 55.678591 47.112699 55.678591
15956  1 55.678597 49.968016 44.257396
15957  1 55.678597 49.968013 47.112707
15958  1 55.678594 49.968010 49.968010
15959  1 55.678591 49.968005 52.823302
15960  1 55.678591 49.968002 55.678591
15976  1 55.678594 52.823308 44.257393
15977  1 55.678594 52.823305 47.112702
15978  1 55.678591 52.823302 49.968005
15979  1 55.678591 52.823299 52.823299
15980  1 55.678588 52.823299 55.678588
15996  1 55.678591 55.678591 44.257390
15997  1 55.678591 55.678591 47.112699
15998  1 55.678591 55.678591 49.968002
15999  1 55.678588 55.678588 52.823299
16000  1 55.678588 55.678588 55.678588

