Generated by pymatgen.io.lammps.data.LammpsData

1800  atoms

   1  atom types

0.000000 24.494900  xlo xhi
0.000000 0.866025  ylo yhi
0.000000 42.426420  zlo zhi
0.000000 0.000000 0.000000  xy xz yz

Masses

1  55.845

Atoms

1     1  0.000000 0.000000  0.000000
2     1  0.000000 0.000000  1.414214
3     1  0.000000 0.000000  2.828428
4     1  0.000000 0.000000  4.242642
5     1  0.000000 0.000000  5.656856
6     1  0.000000 0.000000  7.071070
7     1  0.000000 0.000000  8.485284
8     1  0.000000 0.000000  9.899498
9     1  0.000000 0.000000 11.313712
10    1  0.000000 0.000000 12.727926
11    1  0.000000 0.000000 14.142140
12    1  0.000000 0.000000 15.556354
13    1  0.000000 0.000000 16.970568
14    1  0.000000 0.000000 18.384782
15    1  0.000000 0.000000 19.798996
16    1  0.000000 0.000000 21.213210
17    1  0.000000 0.000000 22.627424
18    1  0.000000 0.000000 24.041638
19    1  0.000000 0.000000 25.455852
20    1  0.000000 0.000000 26.870066
21    1  0.000000 0.000000 28.284280
22    1  0.000000 0.000000 29.698494
23    1  0.000000 0.000000 31.112708
24    1  0.000000 0.000000 32.526922
25    1  0.000000 0.000000 33.941136
26    1  0.000000 0.000000 35.355350
27    1  0.000000 0.000000 36.769564
28    1  0.000000 0.000000 38.183778
29    1  0.000000 0.000000 39.597992
30    1  0.000000 0.000000 41.012206
31    1  2.449490 0.000000  0.000000
32    1  2.449490 0.000000  1.414214
33    1  2.449490 0.000000  2.828428
34    1  2.449490 0.000000  4.242642
35    1  2.449490 0.000000  5.656856
36    1  2.449490 0.000000  7.071070
37    1  2.449490 0.000000  8.485284
38    1  2.449490 0.000000  9.899498
39    1  2.449490 0.000000 11.313712
40    1  2.449490 0.000000 12.727926
41    1  2.449490 0.000000 14.142140
42    1  2.449490 0.000000 15.556354
43    1  2.449490 0.000000 16.970568
44    1  2.449490 0.000000 18.384782
45    1  2.449490 0.000000 19.798996
46    1  2.449490 0.000000 21.213210
47    1  2.449490 0.000000 22.627424
48    1  2.449490 0.000000 24.041638
49    1  2.449490 0.000000 25.455852
50    1  2.449490 0.000000 26.870066
51    1  2.449490 0.000000 28.284280
52    1  2.449490 0.000000 29.698494
53    1  2.449490 0.000000 31.112708
54    1  2.449490 0.000000 32.526922
55    1  2.449490 0.000000 33.941136
56    1  2.449490 0.000000 35.355350
57    1  2.449490 0.000000 36.769564
58    1  2.449490 0.000000 38.183778
59    1  2.449490 0.000000 39.597992
60    1  2.449490 0.000000 41.012206
61    1  4.898980 0.000000  0.000000
62    1  4.898980 0.000000  1.414214
63    1  4.898980 0.000000  2.828428
64    1  4.898980 0.000000  4.242642
65    1  4.898980 0.000000  5.656856
66    1  4.898980 0.000000  7.071070
67    1  4.898980 0.000000  8.485284
68    1  4.898980 0.000000  9.899498
69    1  4.898980 0.000000 11.313712
70    1  4.898980 0.000000 12.727926
71    1  4.898980 0.000000 14.142140
72    1  4.898980 0.000000 15.556354
73    1  4.898980 0.000000 16.970568
74    1  4.898980 0.000000 18.384782
75    1  4.898980 0.000000 19.798996
76    1  4.898980 0.000000 21.213210
77    1  4.898980 0.000000 22.627424
78    1  4.898980 0.000000 24.041638
79    1  4.898980 0.000000 25.455852
80    1  4.898980 0.000000 26.870066
81    1  4.898980 0.000000 28.284280
82    1  4.898980 0.000000 29.698494
83    1  4.898980 0.000000 31.112708
84    1  4.898980 0.000000 32.526922
85    1  4.898980 0.000000 33.941136
86    1  4.898980 0.000000 35.355350
87    1  4.898980 0.000000 36.769564
88    1  4.898980 0.000000 38.183778
89    1  4.898980 0.000000 39.597992
90    1  4.898980 0.000000 41.012206
91    1  7.348470 0.000000  0.000000
92    1  7.348470 0.000000  1.414214
93    1  7.348470 0.000000  2.828428
94    1  7.348470 0.000000  4.242642
95    1  7.348470 0.000000  5.656856
96    1  7.348470 0.000000  7.071070
97    1  7.348470 0.000000  8.485284
98    1  7.348470 0.000000  9.899498
99    1  7.348470 0.000000 11.313712
100   1  7.348470 0.000000 12.727926
101   1  7.348470 0.000000 14.142140
102   1  7.348470 0.000000 15.556354
103   1  7.348470 0.000000 16.970568
104   1  7.348470 0.000000 18.384782
105   1  7.348470 0.000000 19.798996
106   1  7.348470 0.000000 21.213210
107   1  7.348470 0.000000 22.627424
108   1  7.348470 0.000000 24.041638
109   1  7.348470 0.000000 25.455852
110   1  7.348470 0.000000 26.870066
111   1  7.348470 0.000000 28.284280
112   1  7.348470 0.000000 29.698494
113   1  7.348470 0.000000 31.112708
114   1  7.348470 0.000000 32.526922
115   1  7.348470 0.000000 33.941136
116   1  7.348470 0.000000 35.355350
117   1  7.348470 0.000000 36.769564
118   1  7.348470 0.000000 38.183778
119   1  7.348470 0.000000 39.597992
120   1  7.348470 0.000000 41.012206
121   1  9.797960 0.000000  0.000000
122   1  9.797960 0.000000  1.414214
123   1  9.797960 0.000000  2.828428
124   1  9.797960 0.000000  4.242642
125   1  9.797960 0.000000  5.656856
126   1  9.797960 0.000000  7.071070
127   1  9.797960 0.000000  8.485284
128   1  9.797960 0.000000  9.899498
129   1  9.797960 0.000000 11.313712
130   1  9.797960 0.000000 12.727926
131   1  9.797960 0.000000 14.142140
132   1  9.797960 0.000000 15.556354
133   1  9.797960 0.000000 16.970568
134   1  9.797960 0.000000 18.384782
135   1  9.797960 0.000000 19.798996
136   1  9.797960 0.000000 21.213210
137   1  9.797960 0.000000 22.627424
138   1  9.797960 0.000000 24.041638
139   1  9.797960 0.000000 25.455852
140   1  9.797960 0.000000 26.870066
141   1  9.797960 0.000000 28.284280
142   1  9.797960 0.000000 29.698494
143   1  9.797960 0.000000 31.112708
144   1  9.797960 0.000000 32.526922
145   1  9.797960 0.000000 33.941136
146   1  9.797960 0.000000 35.355350
147   1  9.797960 0.000000 36.769564
148   1  9.797960 0.000000 38.183778
149   1  9.797960 0.000000 39.597992
150   1  9.797960 0.000000 41.012206
151   1 12.247450 0.000000  0.000000
152   1 12.247450 0.000000  1.414214
153   1 12.247450 0.000000  2.828428
154   1 12.247450 0.000000  4.242642
155   1 12.247450 0.000000  5.656856
156   1 12.247450 0.000000  7.071070
157   1 12.247450 0.000000  8.485284
158   1 12.247450 0.000000  9.899498
159   1 12.247450 0.000000 11.313712
160   1 12.247450 0.000000 12.727926
161   1 12.247450 0.000000 14.142140
162   1 12.247450 0.000000 15.556354
163   1 12.247450 0.000000 16.970568
164   1 12.247450 0.000000 18.384782
165   1 12.247450 0.000000 19.798996
166   1 12.247450 0.000000 21.213210
167   1 12.247450 0.000000 22.627424
168   1 12.247450 0.000000 24.041638
169   1 12.247450 0.000000 25.455852
170   1 12.247450 0.000000 26.870066
171   1 12.247450 0.000000 28.284280
172   1 12.247450 0.000000 29.698494
173   1 12.247450 0.000000 31.112708
174   1 12.247450 0.000000 32.526922
175   1 12.247450 0.000000 33.941136
176   1 12.247450 0.000000 35.355350
177   1 12.247450 0.000000 36.769564
178   1 12.247450 0.000000 38.183778
179   1 12.247450 0.000000 39.597992
180   1 12.247450 0.000000 41.012206
181   1 14.696940 0.000000  0.000000
182   1 14.696940 0.000000  1.414214
183   1 14.696940 0.000000  2.828428
184   1 14.696940 0.000000  4.242642
185   1 14.696940 0.000000  5.656856
186   1 14.696940 0.000000  7.071070
187   1 14.696940 0.000000  8.485284
188   1 14.696940 0.000000  9.899498
189   1 14.696940 0.000000 11.313712
190   1 14.696940 0.000000 12.727926
191   1 14.696940 0.000000 14.142140
192   1 14.696940 0.000000 15.556354
193   1 14.696940 0.000000 16.970568
194   1 14.696940 0.000000 18.384782
195   1 14.696940 0.000000 19.798996
196   1 14.696940 0.000000 21.213210
197   1 14.696940 0.000000 22.627424
198   1 14.696940 0.000000 24.041638
199   1 14.696940 0.000000 25.455852
200   1 14.696940 0.000000 26.870066
201   1 14.696940 0.000000 28.284280
202   1 14.696940 0.000000 29.698494
203   1 14.696940 0.000000 31.112708
204   1 14.696940 0.000000 32.526922
205   1 14.696940 0.000000 33.941136
206   1 14.696940 0.000000 35.355350
207   1 14.696940 0.000000 36.769564
208   1 14.696940 0.000000 38.183778
209   1 14.696940 0.000000 39.597992
210   1 14.696940 0.000000 41.012206
211   1 17.146430 0.000000  0.000000
212   1 17.146430 0.000000  1.414214
213   1 17.146430 0.000000  2.828428
214   1 17.146430 0.000000  4.242642
215   1 17.146430 0.000000  5.656856
216   1 17.146430 0.000000  7.071070
217   1 17.146430 0.000000  8.485284
218   1 17.146430 0.000000  9.899498
219   1 17.146430 0.000000 11.313712
220   1 17.146430 0.000000 12.727926
221   1 17.146430 0.000000 14.142140
222   1 17.146430 0.000000 15.556354
223   1 17.146430 0.000000 16.970568
224   1 17.146430 0.000000 18.384782
225   1 17.146430 0.000000 19.798996
226   1 17.146430 0.000000 21.213210
227   1 17.146430 0.000000 22.627424
228   1 17.146430 0.000000 24.041638
229   1 17.146430 0.000000 25.455852
230   1 17.146430 0.000000 26.870066
231   1 17.146430 0.000000 28.284280
232   1 17.146430 0.000000 29.698494
233   1 17.146430 0.000000 31.112708
234   1 17.146430 0.000000 32.526922
235   1 17.146430 0.000000 33.941136
236   1 17.146430 0.000000 35.355350
237   1 17.146430 0.000000 36.769564
238   1 17.146430 0.000000 38.183778
239   1 17.146430 0.000000 39.597992
240   1 17.146430 0.000000 41.012206
241   1 19.595920 0.000000  0.000000
242   1 19.595920 0.000000  1.414214
243   1 19.595920 0.000000  2.828428
244   1 19.595920 0.000000  4.242642
245   1 19.595920 0.000000  5.656856
246   1 19.595920 0.000000  7.071070
247   1 19.595920 0.000000  8.485284
248   1 19.595920 0.000000  9.899498
249   1 19.595920 0.000000 11.313712
250   1 19.595920 0.000000 12.727926
251   1 19.595920 0.000000 14.142140
252   1 19.595920 0.000000 15.556354
253   1 19.595920 0.000000 16.970568
254   1 19.595920 0.000000 18.384782
255   1 19.595920 0.000000 19.798996
256   1 19.595920 0.000000 21.213210
257   1 19.595920 0.000000 22.627424
258   1 19.595920 0.000000 24.041638
259   1 19.595920 0.000000 25.455852
260   1 19.595920 0.000000 26.870066
261   1 19.595920 0.000000 28.284280
262   1 19.595920 0.000000 29.698494
263   1 19.595920 0.000000 31.112708
264   1 19.595920 0.000000 32.526922
265   1 19.595920 0.000000 33.941136
266   1 19.595920 0.000000 35.355350
267   1 19.595920 0.000000 36.769564
268   1 19.595920 0.000000 38.183778
269   1 19.595920 0.000000 39.597992
270   1 19.595920 0.000000 41.012206
271   1 22.045410 0.000000  0.000000
272   1 22.045410 0.000000  1.414214
273   1 22.045410 0.000000  2.828428
274   1 22.045410 0.000000  4.242642
275   1 22.045410 0.000000  5.656856
276   1 22.045410 0.000000  7.071070
277   1 22.045410 0.000000  8.485284
278   1 22.045410 0.000000  9.899498
279   1 22.045410 0.000000 11.313712
280   1 22.045410 0.000000 12.727926
281   1 22.045410 0.000000 14.142140
282   1 22.045410 0.000000 15.556354
283   1 22.045410 0.000000 16.970568
284   1 22.045410 0.000000 18.384782
285   1 22.045410 0.000000 19.798996
286   1 22.045410 0.000000 21.213210
287   1 22.045410 0.000000 22.627424
288   1 22.045410 0.000000 24.041638
289   1 22.045410 0.000000 25.455852
290   1 22.045410 0.000000 26.870066
291   1 22.045410 0.000000 28.284280
292   1 22.045410 0.000000 29.698494
293   1 22.045410 0.000000 31.112708
294   1 22.045410 0.000000 32.526922
295   1 22.045410 0.000000 33.941136
296   1 22.045410 0.000000 35.355350
297   1 22.045410 0.000000 36.769564
298   1 22.045410 0.000000 38.183778
299   1 22.045410 0.000000 39.597992
300   1 22.045410 0.000000 41.012206
301   1  1.224745 0.000000  0.707107
302   1  1.224745 0.000000  2.121321
303   1  1.224745 0.000000  3.535535
304   1  1.224745 0.000000  4.949749
305   1  1.224745 0.000000  6.363963
306   1  1.224745 0.000000  7.778177
307   1  1.224745 0.000000  9.192391
308   1  1.224745 0.000000 10.606605
309   1  1.224745 0.000000 12.020819
310   1  1.224745 0.000000 13.435033
311   1  1.224745 0.000000 14.849247
312   1  1.224745 0.000000 16.263461
313   1  1.224745 0.000000 17.677675
314   1  1.224745 0.000000 19.091889
315   1  1.224745 0.000000 20.506103
316   1  1.224745 0.000000 21.920317
317   1  1.224745 0.000000 23.334531
318   1  1.224745 0.000000 24.748745
319   1  1.224745 0.000000 26.162959
320   1  1.224745 0.000000 27.577173
321   1  1.224745 0.000000 28.991387
322   1  1.224745 0.000000 30.405601
323   1  1.224745 0.000000 31.819815
324   1  1.224745 0.000000 33.234029
325   1  1.224745 0.000000 34.648243
326   1  1.224745 0.000000 36.062457
327   1  1.224745 0.000000 37.476671
328   1  1.224745 0.000000 38.890885
329   1  1.224745 0.000000 40.305099
330   1  1.224745 0.000000 41.719313
331   1  3.674235 0.000000  0.707107
332   1  3.674235 0.000000  2.121321
333   1  3.674235 0.000000  3.535535
334   1  3.674235 0.000000  4.949749
335   1  3.674235 0.000000  6.363963
336   1  3.674235 0.000000  7.778177
337   1  3.674235 0.000000  9.192391
338   1  3.674235 0.000000 10.606605
339   1  3.674235 0.000000 12.020819
340   1  3.674235 0.000000 13.435033
341   1  3.674235 0.000000 14.849247
342   1  3.674235 0.000000 16.263461
343   1  3.674235 0.000000 17.677675
344   1  3.674235 0.000000 19.091889
345   1  3.674235 0.000000 20.506103
346   1  3.674235 0.000000 21.920317
347   1  3.674235 0.000000 23.334531
348   1  3.674235 0.000000 24.748745
349   1  3.674235 0.000000 26.162959
350   1  3.674235 0.000000 27.577173
351   1  3.674235 0.000000 28.991387
352   1  3.674235 0.000000 30.405601
353   1  3.674235 0.000000 31.819815
354   1  3.674235 0.000000 33.234029
355   1  3.674235 0.000000 34.648243
356   1  3.674235 0.000000 36.062457
357   1  3.674235 0.000000 37.476671
358   1  3.674235 0.000000 38.890885
359   1  3.674235 0.000000 40.305099
360   1  3.674235 0.000000 41.719313
361   1  6.123725 0.000000  0.707107
362   1  6.123725 0.000000  2.121321
363   1  6.123725 0.000000  3.535535
364   1  6.123725 0.000000  4.949749
365   1  6.123725 0.000000  6.363963
366   1  6.123725 0.000000  7.778177
367   1  6.123725 0.000000  9.192391
368   1  6.123725 0.000000 10.606605
369   1  6.123725 0.000000 12.020819
370   1  6.123725 0.000000 13.435033
371   1  6.123725 0.000000 14.849247
372   1  6.123725 0.000000 16.263461
373   1  6.123725 0.000000 17.677675
374   1  6.123725 0.000000 19.091889
375   1  6.123725 0.000000 20.506103
376   1  6.123725 0.000000 21.920317
377   1  6.123725 0.000000 23.334531
378   1  6.123725 0.000000 24.748745
379   1  6.123725 0.000000 26.162959
380   1  6.123725 0.000000 27.577173
381   1  6.123725 0.000000 28.991387
382   1  6.123725 0.000000 30.405601
383   1  6.123725 0.000000 31.819815
384   1  6.123725 0.000000 33.234029
385   1  6.123725 0.000000 34.648243
386   1  6.123725 0.000000 36.062457
387   1  6.123725 0.000000 37.476671
388   1  6.123725 0.000000 38.890885
389   1  6.123725 0.000000 40.305099
390   1  6.123725 0.000000 41.719313
391   1  8.573215 0.000000  0.707107
392   1  8.573215 0.000000  2.121321
393   1  8.573215 0.000000  3.535535
394   1  8.573215 0.000000  4.949749
395   1  8.573215 0.000000  6.363963
396   1  8.573215 0.000000  7.778177
397   1  8.573215 0.000000  9.192391
398   1  8.573215 0.000000 10.606605
399   1  8.573215 0.000000 12.020819
400   1  8.573215 0.000000 13.435033
401   1  8.573215 0.000000 14.849247
402   1  8.573215 0.000000 16.263461
403   1  8.573215 0.000000 17.677675
404   1  8.573215 0.000000 19.091889
405   1  8.573215 0.000000 20.506103
406   1  8.573215 0.000000 21.920317
407   1  8.573215 0.000000 23.334531
408   1  8.573215 0.000000 24.748745
409   1  8.573215 0.000000 26.162959
410   1  8.573215 0.000000 27.577173
411   1  8.573215 0.000000 28.991387
412   1  8.573215 0.000000 30.405601
413   1  8.573215 0.000000 31.819815
414   1  8.573215 0.000000 33.234029
415   1  8.573215 0.000000 34.648243
416   1  8.573215 0.000000 36.062457
417   1  8.573215 0.000000 37.476671
418   1  8.573215 0.000000 38.890885
419   1  8.573215 0.000000 40.305099
420   1  8.573215 0.000000 41.719313
421   1 11.022705 0.000000  0.707107
422   1 11.022705 0.000000  2.121321
423   1 11.022705 0.000000  3.535535
424   1 11.022705 0.000000  4.949749
425   1 11.022705 0.000000  6.363963
426   1 11.022705 0.000000  7.778177
427   1 11.022705 0.000000  9.192391
428   1 11.022705 0.000000 10.606605
429   1 11.022705 0.000000 12.020819
430   1 11.022705 0.000000 13.435033
431   1 11.022705 0.000000 14.849247
432   1 11.022705 0.000000 16.263461
433   1 11.022705 0.000000 17.677675
434   1 11.022705 0.000000 19.091889
435   1 11.022705 0.000000 20.506103
436   1 11.022705 0.000000 21.920317
437   1 11.022705 0.000000 23.334531
438   1 11.022705 0.000000 24.748745
439   1 11.022705 0.000000 26.162959
440   1 11.022705 0.000000 27.577173
441   1 11.022705 0.000000 28.991387
442   1 11.022705 0.000000 30.405601
443   1 11.022705 0.000000 31.819815
444   1 11.022705 0.000000 33.234029
445   1 11.022705 0.000000 34.648243
446   1 11.022705 0.000000 36.062457
447   1 11.022705 0.000000 37.476671
448   1 11.022705 0.000000 38.890885
449   1 11.022705 0.000000 40.305099
450   1 11.022705 0.000000 41.719313
451   1 13.472195 0.000000  0.707107
452   1 13.472195 0.000000  2.121321
453   1 13.472195 0.000000  3.535535
454   1 13.472195 0.000000  4.949749
455   1 13.472195 0.000000  6.363963
456   1 13.472195 0.000000  7.778177
457   1 13.472195 0.000000  9.192391
458   1 13.472195 0.000000 10.606605
459   1 13.472195 0.000000 12.020819
460   1 13.472195 0.000000 13.435033
461   1 13.472195 0.000000 14.849247
462   1 13.472195 0.000000 16.263461
463   1 13.472195 0.000000 17.677675
464   1 13.472195 0.000000 19.091889
465   1 13.472195 0.000000 20.506103
466   1 13.472195 0.000000 21.920317
467   1 13.472195 0.000000 23.334531
468   1 13.472195 0.000000 24.748745
469   1 13.472195 0.000000 26.162959
470   1 13.472195 0.000000 27.577173
471   1 13.472195 0.000000 28.991387
472   1 13.472195 0.000000 30.405601
473   1 13.472195 0.000000 31.819815
474   1 13.472195 0.000000 33.234029
475   1 13.472195 0.000000 34.648243
476   1 13.472195 0.000000 36.062457
477   1 13.472195 0.000000 37.476671
478   1 13.472195 0.000000 38.890885
479   1 13.472195 0.000000 40.305099
480   1 13.472195 0.000000 41.719313
481   1 15.921685 0.000000  0.707107
482   1 15.921685 0.000000  2.121321
483   1 15.921685 0.000000  3.535535
484   1 15.921685 0.000000  4.949749
485   1 15.921685 0.000000  6.363963
486   1 15.921685 0.000000  7.778177
487   1 15.921685 0.000000  9.192391
488   1 15.921685 0.000000 10.606605
489   1 15.921685 0.000000 12.020819
490   1 15.921685 0.000000 13.435033
491   1 15.921685 0.000000 14.849247
492   1 15.921685 0.000000 16.263461
493   1 15.921685 0.000000 17.677675
494   1 15.921685 0.000000 19.091889
495   1 15.921685 0.000000 20.506103
496   1 15.921685 0.000000 21.920317
497   1 15.921685 0.000000 23.334531
498   1 15.921685 0.000000 24.748745
499   1 15.921685 0.000000 26.162959
500   1 15.921685 0.000000 27.577173
501   1 15.921685 0.000000 28.991387
502   1 15.921685 0.000000 30.405601
503   1 15.921685 0.000000 31.819815
504   1 15.921685 0.000000 33.234029
505   1 15.921685 0.000000 34.648243
506   1 15.921685 0.000000 36.062457
507   1 15.921685 0.000000 37.476671
508   1 15.921685 0.000000 38.890885
509   1 15.921685 0.000000 40.305099
510   1 15.921685 0.000000 41.719313
511   1 18.371175 0.000000  0.707107
512   1 18.371175 0.000000  2.121321
513   1 18.371175 0.000000  3.535535
514   1 18.371175 0.000000  4.949749
515   1 18.371175 0.000000  6.363963
516   1 18.371175 0.000000  7.778177
517   1 18.371175 0.000000  9.192391
518   1 18.371175 0.000000 10.606605
519   1 18.371175 0.000000 12.020819
520   1 18.371175 0.000000 13.435033
521   1 18.371175 0.000000 14.849247
522   1 18.371175 0.000000 16.263461
523   1 18.371175 0.000000 17.677675
524   1 18.371175 0.000000 19.091889
525   1 18.371175 0.000000 20.506103
526   1 18.371175 0.000000 21.920317
527   1 18.371175 0.000000 23.334531
528   1 18.371175 0.000000 24.748745
529   1 18.371175 0.000000 26.162959
530   1 18.371175 0.000000 27.577173
531   1 18.371175 0.000000 28.991387
532   1 18.371175 0.000000 30.405601
533   1 18.371175 0.000000 31.819815
534   1 18.371175 0.000000 33.234029
535   1 18.371175 0.000000 34.648243
536   1 18.371175 0.000000 36.062457
537   1 18.371175 0.000000 37.476671
538   1 18.371175 0.000000 38.890885
539   1 18.371175 0.000000 40.305099
540   1 18.371175 0.000000 41.719313
541   1 20.820665 0.000000  0.707107
542   1 20.820665 0.000000  2.121321
543   1 20.820665 0.000000  3.535535
544   1 20.820665 0.000000  4.949749
545   1 20.820665 0.000000  6.363963
546   1 20.820665 0.000000  7.778177
547   1 20.820665 0.000000  9.192391
548   1 20.820665 0.000000 10.606605
549   1 20.820665 0.000000 12.020819
550   1 20.820665 0.000000 13.435033
551   1 20.820665 0.000000 14.849247
552   1 20.820665 0.000000 16.263461
553   1 20.820665 0.000000 17.677675
554   1 20.820665 0.000000 19.091889
555   1 20.820665 0.000000 20.506103
556   1 20.820665 0.000000 21.920317
557   1 20.820665 0.000000 23.334531
558   1 20.820665 0.000000 24.748745
559   1 20.820665 0.000000 26.162959
560   1 20.820665 0.000000 27.577173
561   1 20.820665 0.000000 28.991387
562   1 20.820665 0.000000 30.405601
563   1 20.820665 0.000000 31.819815
564   1 20.820665 0.000000 33.234029
565   1 20.820665 0.000000 34.648243
566   1 20.820665 0.000000 36.062457
567   1 20.820665 0.000000 37.476671
568   1 20.820665 0.000000 38.890885
569   1 20.820665 0.000000 40.305099
570   1 20.820665 0.000000 41.719313
571   1 23.270155 0.000000  0.707107
572   1 23.270155 0.000000  2.121321
573   1 23.270155 0.000000  3.535535
574   1 23.270155 0.000000  4.949749
575   1 23.270155 0.000000  6.363963
576   1 23.270155 0.000000  7.778177
577   1 23.270155 0.000000  9.192391
578   1 23.270155 0.000000 10.606605
579   1 23.270155 0.000000 12.020819
580   1 23.270155 0.000000 13.435033
581   1 23.270155 0.000000 14.849247
582   1 23.270155 0.000000 16.263461
583   1 23.270155 0.000000 17.677675
584   1 23.270155 0.000000 19.091889
585   1 23.270155 0.000000 20.506103
586   1 23.270155 0.000000 21.920317
587   1 23.270155 0.000000 23.334531
588   1 23.270155 0.000000 24.748745
589   1 23.270155 0.000000 26.162959
590   1 23.270155 0.000000 27.577173
591   1 23.270155 0.000000 28.991387
592   1 23.270155 0.000000 30.405601
593   1 23.270155 0.000000 31.819815
594   1 23.270155 0.000000 33.234029
595   1 23.270155 0.000000 34.648243
596   1 23.270155 0.000000 36.062457
597   1 23.270155 0.000000 37.476671
598   1 23.270155 0.000000 38.890885
599   1 23.270155 0.000000 40.305099
600   1 23.270155 0.000000 41.719313
601   1  0.408248 0.577350  0.707107
602   1  0.408248 0.577350  2.121321
603   1  0.408248 0.577350  3.535535
604   1  0.408248 0.577350  4.949749
605   1  0.408248 0.577350  6.363963
606   1  0.408248 0.577350  7.778177
607   1  0.408248 0.577350  9.192391
608   1  0.408248 0.577350 10.606605
609   1  0.408248 0.577350 12.020819
610   1  0.408248 0.577350 13.435033
611   1  0.408248 0.577350 14.849247
612   1  0.408248 0.577350 16.263461
613   1  0.408248 0.577350 17.677675
614   1  0.408248 0.577350 19.091889
615   1  0.408248 0.577350 20.506103
616   1  0.408248 0.577350 21.920317
617   1  0.408248 0.577350 23.334531
618   1  0.408248 0.577350 24.748745
619   1  0.408248 0.577350 26.162959
620   1  0.408248 0.577350 27.577173
621   1  0.408248 0.577350 28.991387
622   1  0.408248 0.577350 30.405601
623   1  0.408248 0.577350 31.819815
624   1  0.408248 0.577350 33.234029
625   1  0.408248 0.577350 34.648243
626   1  0.408248 0.577350 36.062457
627   1  0.408248 0.577350 37.476671
628   1  0.408248 0.577350 38.890885
629   1  0.408248 0.577350 40.305099
630   1  0.408248 0.577350 41.719313
631   1  2.857738 0.577350  0.707107
632   1  2.857738 0.577350  2.121321
633   1  2.857738 0.577350  3.535535
634   1  2.857738 0.577350  4.949749
635   1  2.857738 0.577350  6.363963
636   1  2.857738 0.577350  7.778177
637   1  2.857738 0.577350  9.192391
638   1  2.857738 0.577350 10.606605
639   1  2.857738 0.577350 12.020819
640   1  2.857738 0.577350 13.435033
641   1  2.857738 0.577350 14.849247
642   1  2.857738 0.577350 16.263461
643   1  2.857738 0.577350 17.677675
644   1  2.857738 0.577350 19.091889
645   1  2.857738 0.577350 20.506103
646   1  2.857738 0.577350 21.920317
647   1  2.857738 0.577350 23.334531
648   1  2.857738 0.577350 24.748745
649   1  2.857738 0.577350 26.162959
650   1  2.857738 0.577350 27.577173
651   1  2.857738 0.577350 28.991387
652   1  2.857738 0.577350 30.405601
653   1  2.857738 0.577350 31.819815
654   1  2.857738 0.577350 33.234029
655   1  2.857738 0.577350 34.648243
656   1  2.857738 0.577350 36.062457
657   1  2.857738 0.577350 37.476671
658   1  2.857738 0.577350 38.890885
659   1  2.857738 0.577350 40.305099
660   1  2.857738 0.577350 41.719313
661   1  5.307228 0.577350  0.707107
662   1  5.307228 0.577350  2.121321
663   1  5.307228 0.577350  3.535535
664   1  5.307228 0.577350  4.949749
665   1  5.307228 0.577350  6.363963
666   1  5.307228 0.577350  7.778177
667   1  5.307228 0.577350  9.192391
668   1  5.307228 0.577350 10.606605
669   1  5.307228 0.577350 12.020819
670   1  5.307228 0.577350 13.435033
671   1  5.307228 0.577350 14.849247
672   1  5.307228 0.577350 16.263461
673   1  5.307228 0.577350 17.677675
674   1  5.307228 0.577350 19.091889
675   1  5.307228 0.577350 20.506103
676   1  5.307228 0.577350 21.920317
677   1  5.307228 0.577350 23.334531
678   1  5.307228 0.577350 24.748745
679   1  5.307228 0.577350 26.162959
680   1  5.307228 0.577350 27.577173
681   1  5.307228 0.577350 28.991387
682   1  5.307228 0.577350 30.405601
683   1  5.307228 0.577350 31.819815
684   1  5.307228 0.577350 33.234029
685   1  5.307228 0.577350 34.648243
686   1  5.307228 0.577350 36.062457
687   1  5.307228 0.577350 37.476671
688   1  5.307228 0.577350 38.890885
689   1  5.307228 0.577350 40.305099
690   1  5.307228 0.577350 41.719313
691   1  7.756718 0.577350  0.707107
692   1  7.756718 0.577350  2.121321
693   1  7.756718 0.577350  3.535535
694   1  7.756718 0.577350  4.949749
695   1  7.756718 0.577350  6.363963
696   1  7.756718 0.577350  7.778177
697   1  7.756718 0.577350  9.192391
698   1  7.756718 0.577350 10.606605
699   1  7.756718 0.577350 12.020819
700   1  7.756718 0.577350 13.435033
701   1  7.756718 0.577350 14.849247
702   1  7.756718 0.577350 16.263461
703   1  7.756718 0.577350 17.677675
704   1  7.756718 0.577350 19.091889
705   1  7.756718 0.577350 20.506103
706   1  7.756718 0.577350 21.920317
707   1  7.756718 0.577350 23.334531
708   1  7.756718 0.577350 24.748745
709   1  7.756718 0.577350 26.162959
710   1  7.756718 0.577350 27.577173
711   1  7.756718 0.577350 28.991387
712   1  7.756718 0.577350 30.405601
713   1  7.756718 0.577350 31.819815
714   1  7.756718 0.577350 33.234029
715   1  7.756718 0.577350 34.648243
716   1  7.756718 0.577350 36.062457
717   1  7.756718 0.577350 37.476671
718   1  7.756718 0.577350 38.890885
719   1  7.756718 0.577350 40.305099
720   1  7.756718 0.577350 41.719313
721   1 10.206208 0.577350  0.707107
722   1 10.206208 0.577350  2.121321
723   1 10.206208 0.577350  3.535535
724   1 10.206208 0.577350  4.949749
725   1 10.206208 0.577350  6.363963
726   1 10.206208 0.577350  7.778177
727   1 10.206208 0.577350  9.192391
728   1 10.206208 0.577350 10.606605
729   1 10.206208 0.577350 12.020819
730   1 10.206208 0.577350 13.435033
731   1 10.206208 0.577350 14.849247
732   1 10.206208 0.577350 16.263461
733   1 10.206208 0.577350 17.677675
734   1 10.206208 0.577350 19.091889
735   1 10.206208 0.577350 20.506103
736   1 10.206208 0.577350 21.920317
737   1 10.206208 0.577350 23.334531
738   1 10.206208 0.577350 24.748745
739   1 10.206208 0.577350 26.162959
740   1 10.206208 0.577350 27.577173
741   1 10.206208 0.577350 28.991387
742   1 10.206208 0.577350 30.405601
743   1 10.206208 0.577350 31.819815
744   1 10.206208 0.577350 33.234029
745   1 10.206208 0.577350 34.648243
746   1 10.206208 0.577350 36.062457
747   1 10.206208 0.577350 37.476671
748   1 10.206208 0.577350 38.890885
749   1 10.206208 0.577350 40.305099
750   1 10.206208 0.577350 41.719313
751   1 12.655698 0.577350  0.707107
752   1 12.655698 0.577350  2.121321
753   1 12.655698 0.577350  3.535535
754   1 12.655698 0.577350  4.949749
755   1 12.655698 0.577350  6.363963
756   1 12.655698 0.577350  7.778177
757   1 12.655698 0.577350  9.192391
758   1 12.655698 0.577350 10.606605
759   1 12.655698 0.577350 12.020819
760   1 12.655698 0.577350 13.435033
761   1 12.655698 0.577350 14.849247
762   1 12.655698 0.577350 16.263461
763   1 12.655698 0.577350 17.677675
764   1 12.655698 0.577350 19.091889
765   1 12.655698 0.577350 20.506103
766   1 12.655698 0.577350 21.920317
767   1 12.655698 0.577350 23.334531
768   1 12.655698 0.577350 24.748745
769   1 12.655698 0.577350 26.162959
770   1 12.655698 0.577350 27.577173
771   1 12.655698 0.577350 28.991387
772   1 12.655698 0.577350 30.405601
773   1 12.655698 0.577350 31.819815
774   1 12.655698 0.577350 33.234029
775   1 12.655698 0.577350 34.648243
776   1 12.655698 0.577350 36.062457
777   1 12.655698 0.577350 37.476671
778   1 12.655698 0.577350 38.890885
779   1 12.655698 0.577350 40.305099
780   1 12.655698 0.577350 41.719313
781   1 15.105188 0.577350  0.707107
782   1 15.105188 0.577350  2.121321
783   1 15.105188 0.577350  3.535535
784   1 15.105188 0.577350  4.949749
785   1 15.105188 0.577350  6.363963
786   1 15.105188 0.577350  7.778177
787   1 15.105188 0.577350  9.192391
788   1 15.105188 0.577350 10.606605
789   1 15.105188 0.577350 12.020819
790   1 15.105188 0.577350 13.435033
791   1 15.105188 0.577350 14.849247
792   1 15.105188 0.577350 16.263461
793   1 15.105188 0.577350 17.677675
794   1 15.105188 0.577350 19.091889
795   1 15.105188 0.577350 20.506103
796   1 15.105188 0.577350 21.920317
797   1 15.105188 0.577350 23.334531
798   1 15.105188 0.577350 24.748745
799   1 15.105188 0.577350 26.162959
800   1 15.105188 0.577350 27.577173
801   1 15.105188 0.577350 28.991387
802   1 15.105188 0.577350 30.405601
803   1 15.105188 0.577350 31.819815
804   1 15.105188 0.577350 33.234029
805   1 15.105188 0.577350 34.648243
806   1 15.105188 0.577350 36.062457
807   1 15.105188 0.577350 37.476671
808   1 15.105188 0.577350 38.890885
809   1 15.105188 0.577350 40.305099
810   1 15.105188 0.577350 41.719313
811   1 17.554678 0.577350  0.707107
812   1 17.554678 0.577350  2.121321
813   1 17.554678 0.577350  3.535535
814   1 17.554678 0.577350  4.949749
815   1 17.554678 0.577350  6.363963
816   1 17.554678 0.577350  7.778177
817   1 17.554678 0.577350  9.192391
818   1 17.554678 0.577350 10.606605
819   1 17.554678 0.577350 12.020819
820   1 17.554678 0.577350 13.435033
821   1 17.554678 0.577350 14.849247
822   1 17.554678 0.577350 16.263461
823   1 17.554678 0.577350 17.677675
824   1 17.554678 0.577350 19.091889
825   1 17.554678 0.577350 20.506103
826   1 17.554678 0.577350 21.920317
827   1 17.554678 0.577350 23.334531
828   1 17.554678 0.577350 24.748745
829   1 17.554678 0.577350 26.162959
830   1 17.554678 0.577350 27.577173
831   1 17.554678 0.577350 28.991387
832   1 17.554678 0.577350 30.405601
833   1 17.554678 0.577350 31.819815
834   1 17.554678 0.577350 33.234029
835   1 17.554678 0.577350 34.648243
836   1 17.554678 0.577350 36.062457
837   1 17.554678 0.577350 37.476671
838   1 17.554678 0.577350 38.890885
839   1 17.554678 0.577350 40.305099
840   1 17.554678 0.577350 41.719313
841   1 20.004168 0.577350  0.707107
842   1 20.004168 0.577350  2.121321
843   1 20.004168 0.577350  3.535535
844   1 20.004168 0.577350  4.949749
845   1 20.004168 0.577350  6.363963
846   1 20.004168 0.577350  7.778177
847   1 20.004168 0.577350  9.192391
848   1 20.004168 0.577350 10.606605
849   1 20.004168 0.577350 12.020819
850   1 20.004168 0.577350 13.435033
851   1 20.004168 0.577350 14.849247
852   1 20.004168 0.577350 16.263461
853   1 20.004168 0.577350 17.677675
854   1 20.004168 0.577350 19.091889
855   1 20.004168 0.577350 20.506103
856   1 20.004168 0.577350 21.920317
857   1 20.004168 0.577350 23.334531
858   1 20.004168 0.577350 24.748745
859   1 20.004168 0.577350 26.162959
860   1 20.004168 0.577350 27.577173
861   1 20.004168 0.577350 28.991387
862   1 20.004168 0.577350 30.405601
863   1 20.004168 0.577350 31.819815
864   1 20.004168 0.577350 33.234029
865   1 20.004168 0.577350 34.648243
866   1 20.004168 0.577350 36.062457
867   1 20.004168 0.577350 37.476671
868   1 20.004168 0.577350 38.890885
869   1 20.004168 0.577350 40.305099
870   1 20.004168 0.577350 41.719313
871   1 22.453658 0.577350  0.707107
872   1 22.453658 0.577350  2.121321
873   1 22.453658 0.577350  3.535535
874   1 22.453658 0.577350  4.949749
875   1 22.453658 0.577350  6.363963
876   1 22.453658 0.577350  7.778177
877   1 22.453658 0.577350  9.192391
878   1 22.453658 0.577350 10.606605
879   1 22.453658 0.577350 12.020819
880   1 22.453658 0.577350 13.435033
881   1 22.453658 0.577350 14.849247
882   1 22.453658 0.577350 16.263461
883   1 22.453658 0.577350 17.677675
884   1 22.453658 0.577350 19.091889
885   1 22.453658 0.577350 20.506103
886   1 22.453658 0.577350 21.920317
887   1 22.453658 0.577350 23.334531
888   1 22.453658 0.577350 24.748745
889   1 22.453658 0.577350 26.162959
890   1 22.453658 0.577350 27.577173
891   1 22.453658 0.577350 28.991387
892   1 22.453658 0.577350 30.405601
893   1 22.453658 0.577350 31.819815
894   1 22.453658 0.577350 33.234029
895   1 22.453658 0.577350 34.648243
896   1 22.453658 0.577350 36.062457
897   1 22.453658 0.577350 37.476671
898   1 22.453658 0.577350 38.890885
899   1 22.453658 0.577350 40.305099
900   1 22.453658 0.577350 41.719313
901   1  1.632993 0.577350  0.000000
902   1  1.632993 0.577350  1.414214
903   1  1.632993 0.577350  2.828428
904   1  1.632993 0.577350  4.242642
905   1  1.632993 0.577350  5.656856
906   1  1.632993 0.577350  7.071070
907   1  1.632993 0.577350  8.485284
908   1  1.632993 0.577350  9.899498
909   1  1.632993 0.577350 11.313712
910   1  1.632993 0.577350 12.727926
911   1  1.632993 0.577350 14.142140
912   1  1.632993 0.577350 15.556354
913   1  1.632993 0.577350 16.970568
914   1  1.632993 0.577350 18.384782
915   1  1.632993 0.577350 19.798996
916   1  1.632993 0.577350 21.213210
917   1  1.632993 0.577350 22.627424
918   1  1.632993 0.577350 24.041638
919   1  1.632993 0.577350 25.455852
920   1  1.632993 0.577350 26.870066
921   1  1.632993 0.577350 28.284280
922   1  1.632993 0.577350 29.698494
923   1  1.632993 0.577350 31.112708
924   1  1.632993 0.577350 32.526922
925   1  1.632993 0.577350 33.941136
926   1  1.632993 0.577350 35.355350
927   1  1.632993 0.577350 36.769564
928   1  1.632993 0.577350 38.183778
929   1  1.632993 0.577350 39.597992
930   1  1.632993 0.577350 41.012206
931   1  4.082483 0.577350  0.000000
932   1  4.082483 0.577350  1.414214
933   1  4.082483 0.577350  2.828428
934   1  4.082483 0.577350  4.242642
935   1  4.082483 0.577350  5.656856
936   1  4.082483 0.577350  7.071070
937   1  4.082483 0.577350  8.485284
938   1  4.082483 0.577350  9.899498
939   1  4.082483 0.577350 11.313712
940   1  4.082483 0.577350 12.727926
941   1  4.082483 0.577350 14.142140
942   1  4.082483 0.577350 15.556354
943   1  4.082483 0.577350 16.970568
944   1  4.082483 0.577350 18.384782
945   1  4.082483 0.577350 19.798996
946   1  4.082483 0.577350 21.213210
947   1  4.082483 0.577350 22.627424
948   1  4.082483 0.577350 24.041638
949   1  4.082483 0.577350 25.455852
950   1  4.082483 0.577350 26.870066
951   1  4.082483 0.577350 28.284280
952   1  4.082483 0.577350 29.698494
953   1  4.082483 0.577350 31.112708
954   1  4.082483 0.577350 32.526922
955   1  4.082483 0.577350 33.941136
956   1  4.082483 0.577350 35.355350
957   1  4.082483 0.577350 36.769564
958   1  4.082483 0.577350 38.183778
959   1  4.082483 0.577350 39.597992
960   1  4.082483 0.577350 41.012206
961   1  6.531973 0.577350  0.000000
962   1  6.531973 0.577350  1.414214
963   1  6.531973 0.577350  2.828428
964   1  6.531973 0.577350  4.242642
965   1  6.531973 0.577350  5.656856
966   1  6.531973 0.577350  7.071070
967   1  6.531973 0.577350  8.485284
968   1  6.531973 0.577350  9.899498
969   1  6.531973 0.577350 11.313712
970   1  6.531973 0.577350 12.727926
971   1  6.531973 0.577350 14.142140
972   1  6.531973 0.577350 15.556354
973   1  6.531973 0.577350 16.970568
974   1  6.531973 0.577350 18.384782
975   1  6.531973 0.577350 19.798996
976   1  6.531973 0.577350 21.213210
977   1  6.531973 0.577350 22.627424
978   1  6.531973 0.577350 24.041638
979   1  6.531973 0.577350 25.455852
980   1  6.531973 0.577350 26.870066
981   1  6.531973 0.577350 28.284280
982   1  6.531973 0.577350 29.698494
983   1  6.531973 0.577350 31.112708
984   1  6.531973 0.577350 32.526922
985   1  6.531973 0.577350 33.941136
986   1  6.531973 0.577350 35.355350
987   1  6.531973 0.577350 36.769564
988   1  6.531973 0.577350 38.183778
989   1  6.531973 0.577350 39.597992
990   1  6.531973 0.577350 41.012206
991   1  8.981463 0.577350  0.000000
992   1  8.981463 0.577350  1.414214
993   1  8.981463 0.577350  2.828428
994   1  8.981463 0.577350  4.242642
995   1  8.981463 0.577350  5.656856
996   1  8.981463 0.577350  7.071070
997   1  8.981463 0.577350  8.485284
998   1  8.981463 0.577350  9.899498
999   1  8.981463 0.577350 11.313712
1000  1  8.981463 0.577350 12.727926
1001  1  8.981463 0.577350 14.142140
1002  1  8.981463 0.577350 15.556354
1003  1  8.981463 0.577350 16.970568
1004  1  8.981463 0.577350 18.384782
1005  1  8.981463 0.577350 19.798996
1006  1  8.981463 0.577350 21.213210
1007  1  8.981463 0.577350 22.627424
1008  1  8.981463 0.577350 24.041638
1009  1  8.981463 0.577350 25.455852
1010  1  8.981463 0.577350 26.870066
1011  1  8.981463 0.577350 28.284280
1012  1  8.981463 0.577350 29.698494
1013  1  8.981463 0.577350 31.112708
1014  1  8.981463 0.577350 32.526922
1015  1  8.981463 0.577350 33.941136
1016  1  8.981463 0.577350 35.355350
1017  1  8.981463 0.577350 36.769564
1018  1  8.981463 0.577350 38.183778
1019  1  8.981463 0.577350 39.597992
1020  1  8.981463 0.577350 41.012206
1021  1 11.430953 0.577350  0.000000
1022  1 11.430953 0.577350  1.414214
1023  1 11.430953 0.577350  2.828428
1024  1 11.430953 0.577350  4.242642
1025  1 11.430953 0.577350  5.656856
1026  1 11.430953 0.577350  7.071070
1027  1 11.430953 0.577350  8.485284
1028  1 11.430953 0.577350  9.899498
1029  1 11.430953 0.577350 11.313712
1030  1 11.430953 0.577350 12.727926
1031  1 11.430953 0.577350 14.142140
1032  1 11.430953 0.577350 15.556354
1033  1 11.430953 0.577350 16.970568
1034  1 11.430953 0.577350 18.384782
1035  1 11.430953 0.577350 19.798996
1036  1 11.430953 0.577350 21.213210
1037  1 11.430953 0.577350 22.627424
1038  1 11.430953 0.577350 24.041638
1039  1 11.430953 0.577350 25.455852
1040  1 11.430953 0.577350 26.870066
1041  1 11.430953 0.577350 28.284280
1042  1 11.430953 0.577350 29.698494
1043  1 11.430953 0.577350 31.112708
1044  1 11.430953 0.577350 32.526922
1045  1 11.430953 0.577350 33.941136
1046  1 11.430953 0.577350 35.355350
1047  1 11.430953 0.577350 36.769564
1048  1 11.430953 0.577350 38.183778
1049  1 11.430953 0.577350 39.597992
1050  1 11.430953 0.577350 41.012206
1051  1 13.880443 0.577350  0.000000
1052  1 13.880443 0.577350  1.414214
1053  1 13.880443 0.577350  2.828428
1054  1 13.880443 0.577350  4.242642
1055  1 13.880443 0.577350  5.656856
1056  1 13.880443 0.577350  7.071070
1057  1 13.880443 0.577350  8.485284
1058  1 13.880443 0.577350  9.899498
1059  1 13.880443 0.577350 11.313712
1060  1 13.880443 0.577350 12.727926
1061  1 13.880443 0.577350 14.142140
1062  1 13.880443 0.577350 15.556354
1063  1 13.880443 0.577350 16.970568
1064  1 13.880443 0.577350 18.384782
1065  1 13.880443 0.577350 19.798996
1066  1 13.880443 0.577350 21.213210
1067  1 13.880443 0.577350 22.627424
1068  1 13.880443 0.577350 24.041638
1069  1 13.880443 0.577350 25.455852
1070  1 13.880443 0.577350 26.870066
1071  1 13.880443 0.577350 28.284280
1072  1 13.880443 0.577350 29.698494
1073  1 13.880443 0.577350 31.112708
1074  1 13.880443 0.577350 32.526922
1075  1 13.880443 0.577350 33.941136
1076  1 13.880443 0.577350 35.355350
1077  1 13.880443 0.577350 36.769564
1078  1 13.880443 0.577350 38.183778
1079  1 13.880443 0.577350 39.597992
1080  1 13.880443 0.577350 41.012206
1081  1 16.329933 0.577350  0.000000
1082  1 16.329933 0.577350  1.414214
1083  1 16.329933 0.577350  2.828428
1084  1 16.329933 0.577350  4.242642
1085  1 16.329933 0.577350  5.656856
1086  1 16.329933 0.577350  7.071070
1087  1 16.329933 0.577350  8.485284
1088  1 16.329933 0.577350  9.899498
1089  1 16.329933 0.577350 11.313712
1090  1 16.329933 0.577350 12.727926
1091  1 16.329933 0.577350 14.142140
1092  1 16.329933 0.577350 15.556354
1093  1 16.329933 0.577350 16.970568
1094  1 16.329933 0.577350 18.384782
1095  1 16.329933 0.577350 19.798996
1096  1 16.329933 0.577350 21.213210
1097  1 16.329933 0.577350 22.627424
1098  1 16.329933 0.577350 24.041638
1099  1 16.329933 0.577350 25.455852
1100  1 16.329933 0.577350 26.870066
1101  1 16.329933 0.577350 28.284280
1102  1 16.329933 0.577350 29.698494
1103  1 16.329933 0.577350 31.112708
1104  1 16.329933 0.577350 32.526922
1105  1 16.329933 0.577350 33.941136
1106  1 16.329933 0.577350 35.355350
1107  1 16.329933 0.577350 36.769564
1108  1 16.329933 0.577350 38.183778
1109  1 16.329933 0.577350 39.597992
1110  1 16.329933 0.577350 41.012206
1111  1 18.779423 0.577350  0.000000
1112  1 18.779423 0.577350  1.414214
1113  1 18.779423 0.577350  2.828428
1114  1 18.779423 0.577350  4.242642
1115  1 18.779423 0.577350  5.656856
1116  1 18.779423 0.577350  7.071070
1117  1 18.779423 0.577350  8.485284
1118  1 18.779423 0.577350  9.899498
1119  1 18.779423 0.577350 11.313712
1120  1 18.779423 0.577350 12.727926
1121  1 18.779423 0.577350 14.142140
1122  1 18.779423 0.577350 15.556354
1123  1 18.779423 0.577350 16.970568
1124  1 18.779423 0.577350 18.384782
1125  1 18.779423 0.577350 19.798996
1126  1 18.779423 0.577350 21.213210
1127  1 18.779423 0.577350 22.627424
1128  1 18.779423 0.577350 24.041638
1129  1 18.779423 0.577350 25.455852
1130  1 18.779423 0.577350 26.870066
1131  1 18.779423 0.577350 28.284280
1132  1 18.779423 0.577350 29.698494
1133  1 18.779423 0.577350 31.112708
1134  1 18.779423 0.577350 32.526922
1135  1 18.779423 0.577350 33.941136
1136  1 18.779423 0.577350 35.355350
1137  1 18.779423 0.577350 36.769564
1138  1 18.779423 0.577350 38.183778
1139  1 18.779423 0.577350 39.597992
1140  1 18.779423 0.577350 41.012206
1141  1 21.228913 0.577350  0.000000
1142  1 21.228913 0.577350  1.414214
1143  1 21.228913 0.577350  2.828428
1144  1 21.228913 0.577350  4.242642
1145  1 21.228913 0.577350  5.656856
1146  1 21.228913 0.577350  7.071070
1147  1 21.228913 0.577350  8.485284
1148  1 21.228913 0.577350  9.899498
1149  1 21.228913 0.577350 11.313712
1150  1 21.228913 0.577350 12.727926
1151  1 21.228913 0.577350 14.142140
1152  1 21.228913 0.577350 15.556354
1153  1 21.228913 0.577350 16.970568
1154  1 21.228913 0.577350 18.384782
1155  1 21.228913 0.577350 19.798996
1156  1 21.228913 0.577350 21.213210
1157  1 21.228913 0.577350 22.627424
1158  1 21.228913 0.577350 24.041638
1159  1 21.228913 0.577350 25.455852
1160  1 21.228913 0.577350 26.870066
1161  1 21.228913 0.577350 28.284280
1162  1 21.228913 0.577350 29.698494
1163  1 21.228913 0.577350 31.112708
1164  1 21.228913 0.577350 32.526922
1165  1 21.228913 0.577350 33.941136
1166  1 21.228913 0.577350 35.355350
1167  1 21.228913 0.577350 36.769564
1168  1 21.228913 0.577350 38.183778
1169  1 21.228913 0.577350 39.597992
1170  1 21.228913 0.577350 41.012206
1171  1 23.678403 0.577350  0.000000
1172  1 23.678403 0.577350  1.414214
1173  1 23.678403 0.577350  2.828428
1174  1 23.678403 0.577350  4.242642
1175  1 23.678403 0.577350  5.656856
1176  1 23.678403 0.577350  7.071070
1177  1 23.678403 0.577350  8.485284
1178  1 23.678403 0.577350  9.899498
1179  1 23.678403 0.577350 11.313712
1180  1 23.678403 0.577350 12.727926
1181  1 23.678403 0.577350 14.142140
1182  1 23.678403 0.577350 15.556354
1183  1 23.678403 0.577350 16.970568
1184  1 23.678403 0.577350 18.384782
1185  1 23.678403 0.577350 19.798996
1186  1 23.678403 0.577350 21.213210
1187  1 23.678403 0.577350 22.627424
1188  1 23.678403 0.577350 24.041638
1189  1 23.678403 0.577350 25.455852
1190  1 23.678403 0.577350 26.870066
1191  1 23.678403 0.577350 28.284280
1192  1 23.678403 0.577350 29.698494
1193  1 23.678403 0.577350 31.112708
1194  1 23.678403 0.577350 32.526922
1195  1 23.678403 0.577350 33.941136
1196  1 23.678403 0.577350 35.355350
1197  1 23.678403 0.577350 36.769564
1198  1 23.678403 0.577350 38.183778
1199  1 23.678403 0.577350 39.597992
1200  1 23.678403 0.577350 41.012206
1201  1  0.816497 0.288675  0.000000
1202  1  0.816497 0.288675  1.414214
1203  1  0.816497 0.288675  2.828428
1204  1  0.816497 0.288675  4.242642
1205  1  0.816497 0.288675  5.656856
1206  1  0.816497 0.288675  7.071070
1207  1  0.816497 0.288675  8.485284
1208  1  0.816497 0.288675  9.899498
1209  1  0.816497 0.288675 11.313712
1210  1  0.816497 0.288675 12.727926
1211  1  0.816497 0.288675 14.142140
1212  1  0.816497 0.288675 15.556354
1213  1  0.816497 0.288675 16.970568
1214  1  0.816497 0.288675 18.384782
1215  1  0.816497 0.288675 19.798996
1216  1  0.816497 0.288675 21.213210
1217  1  0.816497 0.288675 22.627424
1218  1  0.816497 0.288675 24.041638
1219  1  0.816497 0.288675 25.455852
1220  1  0.816497 0.288675 26.870066
1221  1  0.816497 0.288675 28.284280
1222  1  0.816497 0.288675 29.698494
1223  1  0.816497 0.288675 31.112708
1224  1  0.816497 0.288675 32.526922
1225  1  0.816497 0.288675 33.941136
1226  1  0.816497 0.288675 35.355350
1227  1  0.816497 0.288675 36.769564
1228  1  0.816497 0.288675 38.183778
1229  1  0.816497 0.288675 39.597992
1230  1  0.816497 0.288675 41.012206
1231  1  3.265987 0.288675  0.000000
1232  1  3.265987 0.288675  1.414214
1233  1  3.265987 0.288675  2.828428
1234  1  3.265987 0.288675  4.242642
1235  1  3.265987 0.288675  5.656856
1236  1  3.265987 0.288675  7.071070
1237  1  3.265987 0.288675  8.485284
1238  1  3.265987 0.288675  9.899498
1239  1  3.265987 0.288675 11.313712
1240  1  3.265987 0.288675 12.727926
1241  1  3.265987 0.288675 14.142140
1242  1  3.265987 0.288675 15.556354
1243  1  3.265987 0.288675 16.970568
1244  1  3.265987 0.288675 18.384782
1245  1  3.265987 0.288675 19.798996
1246  1  3.265987 0.288675 21.213210
1247  1  3.265987 0.288675 22.627424
1248  1  3.265987 0.288675 24.041638
1249  1  3.265987 0.288675 25.455852
1250  1  3.265987 0.288675 26.870066
1251  1  3.265987 0.288675 28.284280
1252  1  3.265987 0.288675 29.698494
1253  1  3.265987 0.288675 31.112708
1254  1  3.265987 0.288675 32.526922
1255  1  3.265987 0.288675 33.941136
1256  1  3.265987 0.288675 35.355350
1257  1  3.265987 0.288675 36.769564
1258  1  3.265987 0.288675 38.183778
1259  1  3.265987 0.288675 39.597992
1260  1  3.265987 0.288675 41.012206
1261  1  5.715477 0.288675  0.000000
1262  1  5.715477 0.288675  1.414214
1263  1  5.715477 0.288675  2.828428
1264  1  5.715477 0.288675  4.242642
1265  1  5.715477 0.288675  5.656856
1266  1  5.715477 0.288675  7.071070
1267  1  5.715477 0.288675  8.485284
1268  1  5.715477 0.288675  9.899498
1269  1  5.715477 0.288675 11.313712
1270  1  5.715477 0.288675 12.727926
1271  1  5.715477 0.288675 14.142140
1272  1  5.715477 0.288675 15.556354
1273  1  5.715477 0.288675 16.970568
1274  1  5.715477 0.288675 18.384782
1275  1  5.715477 0.288675 19.798996
1276  1  5.715477 0.288675 21.213210
1277  1  5.715477 0.288675 22.627424
1278  1  5.715477 0.288675 24.041638
1279  1  5.715477 0.288675 25.455852
1280  1  5.715477 0.288675 26.870066
1281  1  5.715477 0.288675 28.284280
1282  1  5.715477 0.288675 29.698494
1283  1  5.715477 0.288675 31.112708
1284  1  5.715477 0.288675 32.526922
1285  1  5.715477 0.288675 33.941136
1286  1  5.715477 0.288675 35.355350
1287  1  5.715477 0.288675 36.769564
1288  1  5.715477 0.288675 38.183778
1289  1  5.715477 0.288675 39.597992
1290  1  5.715477 0.288675 41.012206
1291  1  8.164967 0.288675  0.000000
1292  1  8.164967 0.288675  1.414214
1293  1  8.164967 0.288675  2.828428
1294  1  8.164967 0.288675  4.242642
1295  1  8.164967 0.288675  5.656856
1296  1  8.164967 0.288675  7.071070
1297  1  8.164967 0.288675  8.485284
1298  1  8.164967 0.288675  9.899498
1299  1  8.164967 0.288675 11.313712
1300  1  8.164967 0.288675 12.727926
1301  1  8.164967 0.288675 14.142140
1302  1  8.164967 0.288675 15.556354
1303  1  8.164967 0.288675 16.970568
1304  1  8.164967 0.288675 18.384782
1305  1  8.164967 0.288675 19.798996
1306  1  8.164967 0.288675 21.213210
1307  1  8.164967 0.288675 22.627424
1308  1  8.164967 0.288675 24.041638
1309  1  8.164967 0.288675 25.455852
1310  1  8.164967 0.288675 26.870066
1311  1  8.164967 0.288675 28.284280
1312  1  8.164967 0.288675 29.698494
1313  1  8.164967 0.288675 31.112708
1314  1  8.164967 0.288675 32.526922
1315  1  8.164967 0.288675 33.941136
1316  1  8.164967 0.288675 35.355350
1317  1  8.164967 0.288675 36.769564
1318  1  8.164967 0.288675 38.183778
1319  1  8.164967 0.288675 39.597992
1320  1  8.164967 0.288675 41.012206
1321  1 10.614457 0.288675  0.000000
1322  1 10.614457 0.288675  1.414214
1323  1 10.614457 0.288675  2.828428
1324  1 10.614457 0.288675  4.242642
1325  1 10.614457 0.288675  5.656856
1326  1 10.614457 0.288675  7.071070
1327  1 10.614457 0.288675  8.485284
1328  1 10.614457 0.288675  9.899498
1329  1 10.614457 0.288675 11.313712
1330  1 10.614457 0.288675 12.727926
1331  1 10.614457 0.288675 14.142140
1332  1 10.614457 0.288675 15.556354
1333  1 10.614457 0.288675 16.970568
1334  1 10.614457 0.288675 18.384782
1335  1 10.614457 0.288675 19.798996
1336  1 10.614457 0.288675 21.213210
1337  1 10.614457 0.288675 22.627424
1338  1 10.614457 0.288675 24.041638
1339  1 10.614457 0.288675 25.455852
1340  1 10.614457 0.288675 26.870066
1341  1 10.614457 0.288675 28.284280
1342  1 10.614457 0.288675 29.698494
1343  1 10.614457 0.288675 31.112708
1344  1 10.614457 0.288675 32.526922
1345  1 10.614457 0.288675 33.941136
1346  1 10.614457 0.288675 35.355350
1347  1 10.614457 0.288675 36.769564
1348  1 10.614457 0.288675 38.183778
1349  1 10.614457 0.288675 39.597992
1350  1 10.614457 0.288675 41.012206
1351  1 13.063947 0.288675  0.000000
1352  1 13.063947 0.288675  1.414214
1353  1 13.063947 0.288675  2.828428
1354  1 13.063947 0.288675  4.242642
1355  1 13.063947 0.288675  5.656856
1356  1 13.063947 0.288675  7.071070
1357  1 13.063947 0.288675  8.485284
1358  1 13.063947 0.288675  9.899498
1359  1 13.063947 0.288675 11.313712
1360  1 13.063947 0.288675 12.727926
1361  1 13.063947 0.288675 14.142140
1362  1 13.063947 0.288675 15.556354
1363  1 13.063947 0.288675 16.970568
1364  1 13.063947 0.288675 18.384782
1365  1 13.063947 0.288675 19.798996
1366  1 13.063947 0.288675 21.213210
1367  1 13.063947 0.288675 22.627424
1368  1 13.063947 0.288675 24.041638
1369  1 13.063947 0.288675 25.455852
1370  1 13.063947 0.288675 26.870066
1371  1 13.063947 0.288675 28.284280
1372  1 13.063947 0.288675 29.698494
1373  1 13.063947 0.288675 31.112708
1374  1 13.063947 0.288675 32.526922
1375  1 13.063947 0.288675 33.941136
1376  1 13.063947 0.288675 35.355350
1377  1 13.063947 0.288675 36.769564
1378  1 13.063947 0.288675 38.183778
1379  1 13.063947 0.288675 39.597992
1380  1 13.063947 0.288675 41.012206
1381  1 15.513437 0.288675  0.000000
1382  1 15.513437 0.288675  1.414214
1383  1 15.513437 0.288675  2.828428
1384  1 15.513437 0.288675  4.242642
1385  1 15.513437 0.288675  5.656856
1386  1 15.513437 0.288675  7.071070
1387  1 15.513437 0.288675  8.485284
1388  1 15.513437 0.288675  9.899498
1389  1 15.513437 0.288675 11.313712
1390  1 15.513437 0.288675 12.727926
1391  1 15.513437 0.288675 14.142140
1392  1 15.513437 0.288675 15.556354
1393  1 15.513437 0.288675 16.970568
1394  1 15.513437 0.288675 18.384782
1395  1 15.513437 0.288675 19.798996
1396  1 15.513437 0.288675 21.213210
1397  1 15.513437 0.288675 22.627424
1398  1 15.513437 0.288675 24.041638
1399  1 15.513437 0.288675 25.455852
1400  1 15.513437 0.288675 26.870066
1401  1 15.513437 0.288675 28.284280
1402  1 15.513437 0.288675 29.698494
1403  1 15.513437 0.288675 31.112708
1404  1 15.513437 0.288675 32.526922
1405  1 15.513437 0.288675 33.941136
1406  1 15.513437 0.288675 35.355350
1407  1 15.513437 0.288675 36.769564
1408  1 15.513437 0.288675 38.183778
1409  1 15.513437 0.288675 39.597992
1410  1 15.513437 0.288675 41.012206
1411  1 17.962927 0.288675  0.000000
1412  1 17.962927 0.288675  1.414214
1413  1 17.962927 0.288675  2.828428
1414  1 17.962927 0.288675  4.242642
1415  1 17.962927 0.288675  5.656856
1416  1 17.962927 0.288675  7.071070
1417  1 17.962927 0.288675  8.485284
1418  1 17.962927 0.288675  9.899498
1419  1 17.962927 0.288675 11.313712
1420  1 17.962927 0.288675 12.727926
1421  1 17.962927 0.288675 14.142140
1422  1 17.962927 0.288675 15.556354
1423  1 17.962927 0.288675 16.970568
1424  1 17.962927 0.288675 18.384782
1425  1 17.962927 0.288675 19.798996
1426  1 17.962927 0.288675 21.213210
1427  1 17.962927 0.288675 22.627424
1428  1 17.962927 0.288675 24.041638
1429  1 17.962927 0.288675 25.455852
1430  1 17.962927 0.288675 26.870066
1431  1 17.962927 0.288675 28.284280
1432  1 17.962927 0.288675 29.698494
1433  1 17.962927 0.288675 31.112708
1434  1 17.962927 0.288675 32.526922
1435  1 17.962927 0.288675 33.941136
1436  1 17.962927 0.288675 35.355350
1437  1 17.962927 0.288675 36.769564
1438  1 17.962927 0.288675 38.183778
1439  1 17.962927 0.288675 39.597992
1440  1 17.962927 0.288675 41.012206
1441  1 20.412417 0.288675  0.000000
1442  1 20.412417 0.288675  1.414214
1443  1 20.412417 0.288675  2.828428
1444  1 20.412417 0.288675  4.242642
1445  1 20.412417 0.288675  5.656856
1446  1 20.412417 0.288675  7.071070
1447  1 20.412417 0.288675  8.485284
1448  1 20.412417 0.288675  9.899498
1449  1 20.412417 0.288675 11.313712
1450  1 20.412417 0.288675 12.727926
1451  1 20.412417 0.288675 14.142140
1452  1 20.412417 0.288675 15.556354
1453  1 20.412417 0.288675 16.970568
1454  1 20.412417 0.288675 18.384782
1455  1 20.412417 0.288675 19.798996
1456  1 20.412417 0.288675 21.213210
1457  1 20.412417 0.288675 22.627424
1458  1 20.412417 0.288675 24.041638
1459  1 20.412417 0.288675 25.455852
1460  1 20.412417 0.288675 26.870066
1461  1 20.412417 0.288675 28.284280
1462  1 20.412417 0.288675 29.698494
1463  1 20.412417 0.288675 31.112708
1464  1 20.412417 0.288675 32.526922
1465  1 20.412417 0.288675 33.941136
1466  1 20.412417 0.288675 35.355350
1467  1 20.412417 0.288675 36.769564
1468  1 20.412417 0.288675 38.183778
1469  1 20.412417 0.288675 39.597992
1470  1 20.412417 0.288675 41.012206
1471  1 22.861907 0.288675  0.000000
1472  1 22.861907 0.288675  1.414214
1473  1 22.861907 0.288675  2.828428
1474  1 22.861907 0.288675  4.242642
1475  1 22.861907 0.288675  5.656856
1476  1 22.861907 0.288675  7.071070
1477  1 22.861907 0.288675  8.485284
1478  1 22.861907 0.288675  9.899498
1479  1 22.861907 0.288675 11.313712
1480  1 22.861907 0.288675 12.727926
1481  1 22.861907 0.288675 14.142140
1482  1 22.861907 0.288675 15.556354
1483  1 22.861907 0.288675 16.970568
1484  1 22.861907 0.288675 18.384782
1485  1 22.861907 0.288675 19.798996
1486  1 22.861907 0.288675 21.213210
1487  1 22.861907 0.288675 22.627424
1488  1 22.861907 0.288675 24.041638
1489  1 22.861907 0.288675 25.455852
1490  1 22.861907 0.288675 26.870066
1491  1 22.861907 0.288675 28.284280
1492  1 22.861907 0.288675 29.698494
1493  1 22.861907 0.288675 31.112708
1494  1 22.861907 0.288675 32.526922
1495  1 22.861907 0.288675 33.941136
1496  1 22.861907 0.288675 35.355350
1497  1 22.861907 0.288675 36.769564
1498  1 22.861907 0.288675 38.183778
1499  1 22.861907 0.288675 39.597992
1500  1 22.861907 0.288675 41.012206
1501  1  2.041241 0.288675  0.707107
1502  1  2.041241 0.288675  2.121321
1503  1  2.041241 0.288675  3.535535
1504  1  2.041241 0.288675  4.949749
1505  1  2.041241 0.288675  6.363963
1506  1  2.041241 0.288675  7.778177
1507  1  2.041241 0.288675  9.192391
1508  1  2.041241 0.288675 10.606605
1509  1  2.041241 0.288675 12.020819
1510  1  2.041241 0.288675 13.435033
1511  1  2.041241 0.288675 14.849247
1512  1  2.041241 0.288675 16.263461
1513  1  2.041241 0.288675 17.677675
1514  1  2.041241 0.288675 19.091889
1515  1  2.041241 0.288675 20.506103
1516  1  2.041241 0.288675 21.920317
1517  1  2.041241 0.288675 23.334531
1518  1  2.041241 0.288675 24.748745
1519  1  2.041241 0.288675 26.162959
1520  1  2.041241 0.288675 27.577173
1521  1  2.041241 0.288675 28.991387
1522  1  2.041241 0.288675 30.405601
1523  1  2.041241 0.288675 31.819815
1524  1  2.041241 0.288675 33.234029
1525  1  2.041241 0.288675 34.648243
1526  1  2.041241 0.288675 36.062457
1527  1  2.041241 0.288675 37.476671
1528  1  2.041241 0.288675 38.890885
1529  1  2.041241 0.288675 40.305099
1530  1  2.041241 0.288675 41.719313
1531  1  4.490731 0.288675  0.707107
1532  1  4.490731 0.288675  2.121321
1533  1  4.490731 0.288675  3.535535
1534  1  4.490731 0.288675  4.949749
1535  1  4.490731 0.288675  6.363963
1536  1  4.490731 0.288675  7.778177
1537  1  4.490731 0.288675  9.192391
1538  1  4.490731 0.288675 10.606605
1539  1  4.490731 0.288675 12.020819
1540  1  4.490731 0.288675 13.435033
1541  1  4.490731 0.288675 14.849247
1542  1  4.490731 0.288675 16.263461
1543  1  4.490731 0.288675 17.677675
1544  1  4.490731 0.288675 19.091889
1545  1  4.490731 0.288675 20.506103
1546  1  4.490731 0.288675 21.920317
1547  1  4.490731 0.288675 23.334531
1548  1  4.490731 0.288675 24.748745
1549  1  4.490731 0.288675 26.162959
1550  1  4.490731 0.288675 27.577173
1551  1  4.490731 0.288675 28.991387
1552  1  4.490731 0.288675 30.405601
1553  1  4.490731 0.288675 31.819815
1554  1  4.490731 0.288675 33.234029
1555  1  4.490731 0.288675 34.648243
1556  1  4.490731 0.288675 36.062457
1557  1  4.490731 0.288675 37.476671
1558  1  4.490731 0.288675 38.890885
1559  1  4.490731 0.288675 40.305099
1560  1  4.490731 0.288675 41.719313
1561  1  6.940221 0.288675  0.707107
1562  1  6.940221 0.288675  2.121321
1563  1  6.940221 0.288675  3.535535
1564  1  6.940221 0.288675  4.949749
1565  1  6.940221 0.288675  6.363963
1566  1  6.940221 0.288675  7.778177
1567  1  6.940221 0.288675  9.192391
1568  1  6.940221 0.288675 10.606605
1569  1  6.940221 0.288675 12.020819
1570  1  6.940221 0.288675 13.435033
1571  1  6.940221 0.288675 14.849247
1572  1  6.940221 0.288675 16.263461
1573  1  6.940221 0.288675 17.677675
1574  1  6.940221 0.288675 19.091889
1575  1  6.940221 0.288675 20.506103
1576  1  6.940221 0.288675 21.920317
1577  1  6.940221 0.288675 23.334531
1578  1  6.940221 0.288675 24.748745
1579  1  6.940221 0.288675 26.162959
1580  1  6.940221 0.288675 27.577173
1581  1  6.940221 0.288675 28.991387
1582  1  6.940221 0.288675 30.405601
1583  1  6.940221 0.288675 31.819815
1584  1  6.940221 0.288675 33.234029
1585  1  6.940221 0.288675 34.648243
1586  1  6.940221 0.288675 36.062457
1587  1  6.940221 0.288675 37.476671
1588  1  6.940221 0.288675 38.890885
1589  1  6.940221 0.288675 40.305099
1590  1  6.940221 0.288675 41.719313
1591  1  9.389711 0.288675  0.707107
1592  1  9.389711 0.288675  2.121321
1593  1  9.389711 0.288675  3.535535
1594  1  9.389711 0.288675  4.949749
1595  1  9.389711 0.288675  6.363963
1596  1  9.389711 0.288675  7.778177
1597  1  9.389711 0.288675  9.192391
1598  1  9.389711 0.288675 10.606605
1599  1  9.389711 0.288675 12.020819
1600  1  9.389711 0.288675 13.435033
1601  1  9.389711 0.288675 14.849247
1602  1  9.389711 0.288675 16.263461
1603  1  9.389711 0.288675 17.677675
1604  1  9.389711 0.288675 19.091889
1605  1  9.389711 0.288675 20.506103
1606  1  9.389711 0.288675 21.920317
1607  1  9.389711 0.288675 23.334531
1608  1  9.389711 0.288675 24.748745
1609  1  9.389711 0.288675 26.162959
1610  1  9.389711 0.288675 27.577173
1611  1  9.389711 0.288675 28.991387
1612  1  9.389711 0.288675 30.405601
1613  1  9.389711 0.288675 31.819815
1614  1  9.389711 0.288675 33.234029
1615  1  9.389711 0.288675 34.648243
1616  1  9.389711 0.288675 36.062457
1617  1  9.389711 0.288675 37.476671
1618  1  9.389711 0.288675 38.890885
1619  1  9.389711 0.288675 40.305099
1620  1  9.389711 0.288675 41.719313
1621  1 11.839201 0.288675  0.707107
1622  1 11.839201 0.288675  2.121321
1623  1 11.839201 0.288675  3.535535
1624  1 11.839201 0.288675  4.949749
1625  1 11.839201 0.288675  6.363963
1626  1 11.839201 0.288675  7.778177
1627  1 11.839201 0.288675  9.192391
1628  1 11.839201 0.288675 10.606605
1629  1 11.839201 0.288675 12.020819
1630  1 11.839201 0.288675 13.435033
1631  1 11.839201 0.288675 14.849247
1632  1 11.839201 0.288675 16.263461
1633  1 11.839201 0.288675 17.677675
1634  1 11.839201 0.288675 19.091889
1635  1 11.839201 0.288675 20.506103
1636  1 11.839201 0.288675 21.920317
1637  1 11.839201 0.288675 23.334531
1638  1 11.839201 0.288675 24.748745
1639  1 11.839201 0.288675 26.162959
1640  1 11.839201 0.288675 27.577173
1641  1 11.839201 0.288675 28.991387
1642  1 11.839201 0.288675 30.405601
1643  1 11.839201 0.288675 31.819815
1644  1 11.839201 0.288675 33.234029
1645  1 11.839201 0.288675 34.648243
1646  1 11.839201 0.288675 36.062457
1647  1 11.839201 0.288675 37.476671
1648  1 11.839201 0.288675 38.890885
1649  1 11.839201 0.288675 40.305099
1650  1 11.839201 0.288675 41.719313
1651  1 14.288691 0.288675  0.707107
1652  1 14.288691 0.288675  2.121321
1653  1 14.288691 0.288675  3.535535
1654  1 14.288691 0.288675  4.949749
1655  1 14.288691 0.288675  6.363963
1656  1 14.288691 0.288675  7.778177
1657  1 14.288691 0.288675  9.192391
1658  1 14.288691 0.288675 10.606605
1659  1 14.288691 0.288675 12.020819
1660  1 14.288691 0.288675 13.435033
1661  1 14.288691 0.288675 14.849247
1662  1 14.288691 0.288675 16.263461
1663  1 14.288691 0.288675 17.677675
1664  1 14.288691 0.288675 19.091889
1665  1 14.288691 0.288675 20.506103
1666  1 14.288691 0.288675 21.920317
1667  1 14.288691 0.288675 23.334531
1668  1 14.288691 0.288675 24.748745
1669  1 14.288691 0.288675 26.162959
1670  1 14.288691 0.288675 27.577173
1671  1 14.288691 0.288675 28.991387
1672  1 14.288691 0.288675 30.405601
1673  1 14.288691 0.288675 31.819815
1674  1 14.288691 0.288675 33.234029
1675  1 14.288691 0.288675 34.648243
1676  1 14.288691 0.288675 36.062457
1677  1 14.288691 0.288675 37.476671
1678  1 14.288691 0.288675 38.890885
1679  1 14.288691 0.288675 40.305099
1680  1 14.288691 0.288675 41.719313
1681  1 16.738181 0.288675  0.707107
1682  1 16.738181 0.288675  2.121321
1683  1 16.738181 0.288675  3.535535
1684  1 16.738181 0.288675  4.949749
1685  1 16.738181 0.288675  6.363963
1686  1 16.738181 0.288675  7.778177
1687  1 16.738181 0.288675  9.192391
1688  1 16.738181 0.288675 10.606605
1689  1 16.738181 0.288675 12.020819
1690  1 16.738181 0.288675 13.435033
1691  1 16.738181 0.288675 14.849247
1692  1 16.738181 0.288675 16.263461
1693  1 16.738181 0.288675 17.677675
1694  1 16.738181 0.288675 19.091889
1695  1 16.738181 0.288675 20.506103
1696  1 16.738181 0.288675 21.920317
1697  1 16.738181 0.288675 23.334531
1698  1 16.738181 0.288675 24.748745
1699  1 16.738181 0.288675 26.162959
1700  1 16.738181 0.288675 27.577173
1701  1 16.738181 0.288675 28.991387
1702  1 16.738181 0.288675 30.405601
1703  1 16.738181 0.288675 31.819815
1704  1 16.738181 0.288675 33.234029
1705  1 16.738181 0.288675 34.648243
1706  1 16.738181 0.288675 36.062457
1707  1 16.738181 0.288675 37.476671
1708  1 16.738181 0.288675 38.890885
1709  1 16.738181 0.288675 40.305099
1710  1 16.738181 0.288675 41.719313
1711  1 19.187671 0.288675  0.707107
1712  1 19.187671 0.288675  2.121321
1713  1 19.187671 0.288675  3.535535
1714  1 19.187671 0.288675  4.949749
1715  1 19.187671 0.288675  6.363963
1716  1 19.187671 0.288675  7.778177
1717  1 19.187671 0.288675  9.192391
1718  1 19.187671 0.288675 10.606605
1719  1 19.187671 0.288675 12.020819
1720  1 19.187671 0.288675 13.435033
1721  1 19.187671 0.288675 14.849247
1722  1 19.187671 0.288675 16.263461
1723  1 19.187671 0.288675 17.677675
1724  1 19.187671 0.288675 19.091889
1725  1 19.187671 0.288675 20.506103
1726  1 19.187671 0.288675 21.920317
1727  1 19.187671 0.288675 23.334531
1728  1 19.187671 0.288675 24.748745
1729  1 19.187671 0.288675 26.162959
1730  1 19.187671 0.288675 27.577173
1731  1 19.187671 0.288675 28.991387
1732  1 19.187671 0.288675 30.405601
1733  1 19.187671 0.288675 31.819815
1734  1 19.187671 0.288675 33.234029
1735  1 19.187671 0.288675 34.648243
1736  1 19.187671 0.288675 36.062457
1737  1 19.187671 0.288675 37.476671
1738  1 19.187671 0.288675 38.890885
1739  1 19.187671 0.288675 40.305099
1740  1 19.187671 0.288675 41.719313
1741  1 21.637161 0.288675  0.707107
1742  1 21.637161 0.288675  2.121321
1743  1 21.637161 0.288675  3.535535
1744  1 21.637161 0.288675  4.949749
1745  1 21.637161 0.288675  6.363963
1746  1 21.637161 0.288675  7.778177
1747  1 21.637161 0.288675  9.192391
1748  1 21.637161 0.288675 10.606605
1749  1 21.637161 0.288675 12.020819
1750  1 21.637161 0.288675 13.435033
1751  1 21.637161 0.288675 14.849247
1752  1 21.637161 0.288675 16.263461
1753  1 21.637161 0.288675 17.677675
1754  1 21.637161 0.288675 19.091889
1755  1 21.637161 0.288675 20.506103
1756  1 21.637161 0.288675 21.920317
1757  1 21.637161 0.288675 23.334531
1758  1 21.637161 0.288675 24.748745
1759  1 21.637161 0.288675 26.162959
1760  1 21.637161 0.288675 27.577173
1761  1 21.637161 0.288675 28.991387
1762  1 21.637161 0.288675 30.405601
1763  1 21.637161 0.288675 31.819815
1764  1 21.637161 0.288675 33.234029
1765  1 21.637161 0.288675 34.648243
1766  1 21.637161 0.288675 36.062457
1767  1 21.637161 0.288675 37.476671
1768  1 21.637161 0.288675 38.890885
1769  1 21.637161 0.288675 40.305099
1770  1 21.637161 0.288675 41.719313
1771  1 24.086651 0.288675  0.707107
1772  1 24.086651 0.288675  2.121321
1773  1 24.086651 0.288675  3.535535
1774  1 24.086651 0.288675  4.949749
1775  1 24.086651 0.288675  6.363963
1776  1 24.086651 0.288675  7.778177
1777  1 24.086651 0.288675  9.192391
1778  1 24.086651 0.288675 10.606605
1779  1 24.086651 0.288675 12.020819
1780  1 24.086651 0.288675 13.435033
1781  1 24.086651 0.288675 14.849247
1782  1 24.086651 0.288675 16.263461
1783  1 24.086651 0.288675 17.677675
1784  1 24.086651 0.288675 19.091889
1785  1 24.086651 0.288675 20.506103
1786  1 24.086651 0.288675 21.920317
1787  1 24.086651 0.288675 23.334531
1788  1 24.086651 0.288675 24.748745
1789  1 24.086651 0.288675 26.162959
1790  1 24.086651 0.288675 27.577173
1791  1 24.086651 0.288675 28.991387
1792  1 24.086651 0.288675 30.405601
1793  1 24.086651 0.288675 31.819815
1794  1 24.086651 0.288675 33.234029
1795  1 24.086651 0.288675 34.648243
1796  1 24.086651 0.288675 36.062457
1797  1 24.086651 0.288675 37.476671
1798  1 24.086651 0.288675 38.890885
1799  1 24.086651 0.288675 40.305099
1800  1 24.086651 0.288675 41.719313

