Generated by pymatgen.io.lammps.data.LammpsData

307  atoms

  2  atom types

0.000000 14.011083  xlo xhi
0.000000 14.860989  ylo yhi
0.000000 16.178608  zlo zhi
0.000000 0.000000 0.000000  xy xz yz

Masses

1  55.845
2  55.845

Atoms

1    1  0.000000  0.000000  0.000000
2    1  0.000000  0.000000  4.044652
3    1  0.000000  0.000000  8.089304
4    1  0.000000  0.000000 12.133956
5    1  0.000000  2.476831  0.000000
6    1  0.000000  2.476831  4.044652
7    1  0.000000  2.476831  8.089304
8    1  0.000000  2.476831 12.133956
9    1  0.000000  4.953663  0.000000
10   1  0.000000  4.953663  4.044652
11   1  0.000000  4.953663  8.089304
12   1  0.000000  4.953663 12.133956
13   1  0.000000  7.430495  0.000000
14   1  0.000000  7.430495  4.044652
15   1  0.000000  7.430495  8.089304
16   1  0.000000  7.430495 12.133956
17   1  0.000000  9.907326  0.000000
18   1  0.000000  9.907326  4.044652
19   1  0.000000  9.907326  8.089304
20   1  0.000000  9.907326 12.133956
21   1  0.000000 12.384157  0.000000
22   1  0.000000 12.384157  4.044652
23   1  0.000000 12.384157  8.089304
24   1  0.000000 12.384157 12.133956
25   1  7.005541  0.000000  0.000000
26   1  7.005541  0.000000  4.044652
27   1  7.005541  0.000000  8.089304
28   1  7.005541  0.000000 12.133956
29   1  7.005541  2.476831  0.000000
30   1  7.005541  2.476831  4.044652
31   1  7.005541  2.476831  8.089304
32   1  7.005541  2.476831 12.133956
33   1  7.005541  4.953663  0.000000
34   1  7.005541  4.953663  4.044652
35   1  7.005541  4.953663  8.089304
36   1  7.005541  4.953663 12.133956
37   1  7.005541  7.430495  0.000000
38   1  7.005541  8.049703  4.663860
39   1  7.005541  8.049703  8.708512
40   1  7.005541  8.049703 12.753164
41   1  7.005541  9.907326  0.000000
42   1  7.005541  9.907326  4.044652
43   1  7.005541  9.907326  8.089304
44   1  7.005541  9.907326 12.133956
45   1  7.005541 12.384157  0.000000
46   1  7.005541 12.384157  4.044652
47   1  7.005541 12.384157  8.089304
48   1  7.005541 12.384157 12.133956
49   1  3.502771  0.000000  2.022326
50   1  3.502771  0.000000  6.066978
51   1  3.502771  0.000000 10.111630
52   1  3.502771  0.000000 14.156282
53   1  3.502771  2.476831  2.022326
54   1  3.502771  2.476831  6.066978
55   1  3.502771  2.476831 10.111630
56   1  3.502771  2.476831 14.156282
57   1  3.502771  4.953663  2.022326
58   1  3.502771  4.953663  6.066978
59   1  3.502771  4.953663 10.111630
60   1  3.502771  4.953663 14.156282
61   1  3.502771  7.430495  2.022326
62   1  3.502771  8.049703  6.686186
63   1  3.502771  8.049703 10.730838
64   1  3.502771  7.430495 14.156282
65   1  3.502771  9.907326  2.022326
66   1  3.502771  9.907326  6.066978
67   1  3.502771  9.907326 10.111630
68   1  3.502771  9.907326 14.156282
69   1  3.502771 12.384157  2.022326
70   1  3.502771 12.384157  6.066978
71   1  3.502771 12.384157 10.111630
72   1  3.502771 12.384157 14.156282
73   1 10.508312  0.000000  2.022326
74   1 10.508312  0.000000  6.066978
75   1 10.508312  0.000000 10.111630
76   1 10.508312  0.000000 14.156282
77   1 10.508312  2.476831  2.022326
78   1 10.508312  2.476831  6.066978
79   1 10.508312  2.476831 10.111630
80   1 10.508312  2.476831 14.156282
81   1 10.508312  4.953663  2.022326
82   1 10.508312  4.953663  6.066978
83   1 10.508312  4.953663 10.111630
84   1 10.508312  4.953663 14.156282
85   1 10.508312  7.430495  2.022326
86   1 10.508312  8.049703  6.686186
87   1 10.508312  8.049703 10.730838
88   1 10.508312  7.430495 14.156282
89   1 10.508312  9.907326  2.022326
90   1 10.508312  9.907326  6.066978
91   1 10.508312  9.907326 10.111630
92   1 10.508312  9.907326 14.156282
93   1 10.508312 12.384157  2.022326
94   1 10.508312 12.384157  6.066978
95   1 10.508312 12.384157 10.111630
96   1 10.508312 12.384157 14.156282
97   1  1.167589  1.651221  2.022326
98   1  1.167589  1.651221  6.066978
99   1  1.167589  1.651221 10.111630
100  1  1.167589  1.651221 14.156282
101  1  1.167589  4.128052  2.022326
102  1  1.167589  4.128052  6.066978
103  1  1.167589  4.128052 10.111630
104  1  1.167589  4.128052 14.156282
105  1  1.167589  6.604884  2.022326
106  1  1.167589  6.604884  6.066978
107  1  1.167589  6.604884 10.111630
108  1  1.167589  6.604884 14.156282
109  1  1.167589  9.081715  2.022326
110  1  1.167589  9.081715  6.066978
111  1  1.167589  9.081715 10.111630
112  1  1.167589  9.081715 14.156282
113  1  1.167589 11.558547  2.022326
114  1  1.167589 11.558547  6.066978
115  1  1.167589 11.558547 10.111630
116  1  1.167589 11.558547 14.156282
117  1  1.167589 14.035378  2.022326
118  1  1.167589 14.035378  6.066978
119  1  1.167589 14.035378 10.111630
120  1  1.167589 14.035378 14.156282
121  1  8.173131  1.651221  2.022326
122  1  8.173131  1.651221  6.066978
123  1  8.173131  1.651221 10.111630
124  1  8.173131  1.651221 14.156282
125  1  8.173131  4.128052  2.022326
126  1  8.173131  4.128052  6.066978
127  1  8.173131  4.128052 10.111630
128  1  8.173131  4.128052 14.156282
129  1  8.173131  6.604884  2.022326
130  1  8.173131  7.224092  6.686186
131  1  8.173131  7.224092 10.730838
132  1  8.173131  6.604884 14.156282
133  1  8.173131  9.081715  2.022326
134  1  8.173131  9.081715  6.066978
135  1  8.173131  9.081715 10.111630
136  1  8.173131  9.081715 14.156282
137  1  8.173131 11.558547  2.022326
138  1  8.173131 11.558547  6.066978
139  1  8.173131 11.558547 10.111630
140  1  8.173131 11.558547 14.156282
141  1  8.173131 14.035378  2.022326
142  1  8.173131 14.035378  6.066978
143  1  8.173131 14.035378 10.111630
144  1  8.173131 14.035378 14.156282
145  1  4.670360  1.651221  0.000000
146  1  4.670360  1.651221  4.044652
147  1  4.670360  1.651221  8.089304
148  1  4.670360  1.651221 12.133956
149  1  4.670360  4.128052  0.000000
150  1  4.670360  4.128052  4.044652
151  1  4.670360  4.128052  8.089304
152  1  4.670360  4.128052 12.133956
153  1  4.670360  6.604884  0.000000
154  1  4.670360  7.224092  4.663860
155  1  4.670360  7.224092  8.708512
156  1  4.670360  7.224092 12.753164
157  1  4.670360  9.081715  0.000000
158  1  4.670360  9.081715  4.044652
159  1  4.670360  9.081715  8.089304
160  1  4.670360  9.081715 12.133956
161  1  4.670360 11.558547  0.000000
162  1  4.670360 11.558547  4.044652
163  1  4.670360 11.558547  8.089304
164  1  4.670360 11.558547 12.133956
165  1  4.670360 14.035378  0.000000
166  1  4.670360 14.035378  4.044652
167  1  4.670360 14.035378  8.089304
168  1  4.670360 14.035378 12.133956
169  1 11.675901  1.651221  0.000000
170  1 11.675901  1.651221  4.044652
171  1 11.675901  1.651221  8.089304
172  1 11.675901  1.651221 12.133956
173  1 11.675901  4.128052  0.000000
174  1 11.675901  4.128052  4.044652
175  1 11.675901  4.128052  8.089304
176  1 11.675901  4.128052 12.133956
177  1 11.675901  6.604884  0.000000
178  1 11.675901  6.604884  4.044652
179  1 11.675901  7.224092  8.708512
180  1 11.675901  6.604884 12.133956
181  1 11.675901  9.081715  0.000000
182  1 11.675901  9.081715  4.044652
183  1 11.675901  9.081715  8.089304
184  1 11.675901  9.081715 12.133956
185  1 11.675901 11.558547  0.000000
186  1 11.675901 11.558547  4.044652
187  1 11.675901 11.558547  8.089304
188  1 11.675901 11.558547 12.133956
189  1 11.675901 14.035378  0.000000
190  1 11.675901 14.035378  4.044652
191  1 11.675901 14.035378  8.089304
192  1 11.675901 14.035378 12.133956
193  1  2.335181  0.825610  0.000000
194  1  2.335181  0.825610  4.044652
195  1  2.335181  0.825610  8.089304
196  1  2.335181  0.825610 12.133956
197  1  2.335181  3.302442  0.000000
198  1  2.335181  3.302442  4.044652
199  1  2.335181  3.302442  8.089304
200  1  2.335181  3.302442 12.133956
201  1  2.335181  5.779273  0.000000
202  1  2.335181  5.779273  4.044652
203  1  2.335181  6.398481  8.708512
204  1  2.335181  5.779273 12.133956
205  1  2.335181  8.256105  0.000000
206  1  2.335181  8.256105  4.044652
207  1  2.335181  8.256105  8.089304
208  1  2.335181  8.256105 12.133956
209  1  2.335181 10.732936  0.000000
210  1  2.335181 10.732936  4.044652
211  1  2.335181 10.732936  8.089304
212  1  2.335181 10.732936 12.133956
213  1  2.335181 13.209768  0.000000
214  1  2.335181 13.209768  4.044652
215  1  2.335181 13.209768  8.089304
216  1  2.335181 13.209768 12.133956
217  1  9.340723  0.825610  0.000000
218  1  9.340723  0.825610  4.044652
219  1  9.340723  0.825610  8.089304
220  1  9.340723  0.825610 12.133956
221  1  9.340723  3.302442  0.000000
222  1  9.340723  3.302442  4.044652
223  1  9.340723  3.302442  8.089304
224  1  9.340723  3.302442 12.133956
225  1  9.340723  5.779273  0.000000
226  1  9.340723  6.398481  4.663860
227  1  9.340723  6.398481  8.708512
228  1  9.340723  6.398481 12.753164
229  1  9.340723  8.256105  0.000000
230  1  9.340723  8.256105  4.044652
231  1  9.340723  8.256105  8.089304
232  1  9.340723  8.256105 12.133956
233  1  9.340723 10.732936  0.000000
234  1  9.340723 10.732936  4.044652
235  1  9.340723 10.732936  8.089304
236  1  9.340723 10.732936 12.133956
237  1  9.340723 13.209768  0.000000
238  1  9.340723 13.209768  4.044652
239  1  9.340723 13.209768  8.089304
240  1  9.340723 13.209768 12.133956
241  1  5.837949  0.825610  2.022326
242  1  5.837949  0.825610  6.066978
243  1  5.837949  0.825610 10.111630
244  1  5.837949  0.825610 14.156282
245  1  5.837949  3.302442  2.022326
246  1  5.837949  3.302442  6.066978
247  1  5.837949  3.302442 10.111630
248  1  5.837949  3.302442 14.156282
249  1  5.837949  5.779273  2.022326
250  1  5.837949  6.398481  6.686186
251  1  5.837949  6.398481 10.730838
252  1  5.837949  5.779273 14.156282
253  1  5.837949  8.256105  2.022326
254  1  5.837949  8.256105  6.066978
255  1  5.837949  8.256105 10.111630
256  1  5.837949  8.256105 14.156282
257  1  5.837949 10.732936  2.022326
258  1  5.837949 10.732936  6.066978
259  1  5.837949 10.732936 10.111630
260  1  5.837949 10.732936 14.156282
261  1  5.837949 13.209768  2.022326
262  1  5.837949 13.209768  6.066978
263  1  5.837949 13.209768 10.111630
264  1  5.837949 13.209768 14.156282
265  1 12.843491  0.825610  2.022326
266  1 12.843491  0.825610  6.066978
267  1 12.843491  0.825610 10.111630
268  1 12.843491  0.825610 14.156282
269  1 12.843491  3.302442  2.022326
270  1 12.843491  3.302442  6.066978
271  1 12.843491  3.302442 10.111630
272  1 12.843491  3.302442 14.156282
273  1 12.843491  5.779273  2.022326
274  1 12.843491  5.779273  6.066978
275  1 12.843491  5.779273 10.111630
276  1 12.843491  5.779273 14.156282
277  1 12.843491  8.256105  2.022326
278  1 12.843491  8.256105  6.066978
279  1 12.843491  8.256105 10.111630
280  1 12.843491  8.256105 14.156282
281  1 12.843491 10.732936  2.022326
282  1 12.843491 10.732936  6.066978
283  1 12.843491 10.732936 10.111630
284  1 12.843491 10.732936 14.156282
285  1 12.843491 13.209768  2.022326
286  1 12.843491 13.209768  6.066978
287  1 12.843491 13.209768 10.111630
288  1 12.843491 13.209768 14.156282
289  2  5.837951  5.160066  5.447770
290  2  5.837951  5.160066  9.492422
291  2  2.335181  5.160066  7.470096
292  2  9.340722  5.160066  3.425444
293  2  9.340722  5.160066  7.470096
294  2  9.340722  5.160066 11.514748
295  2  7.005541  6.811287  3.425444
296  2  7.005541  6.811287  7.470096
297  2  7.005541  6.811287 11.514748
298  2  3.502770  6.811287  5.447770
299  2  3.502770  6.811287  9.492422
300  2 10.508311  6.811287  5.447770
301  2 10.508311  6.811287  9.492422
302  2  8.173133  5.985676  5.447770
303  2  8.173133  5.985676  9.492422
304  2  4.670359  5.985676  3.425444
305  2  4.670359  5.985676  7.470096
306  2  4.670359  5.985676 11.514748
307  2 11.675901  5.985676  7.470096

